LAMMPS data file via write_data, version 2 Aug 2023, timestep = 5000, units = metal

2160 atoms
2 atom types

-0.13095198564362853 30.269865365641856 xlo xhi
-0.13140961780978877 30.375648137808874 ylo yhi
-0.15165527673719126 35.055480726733364 zlo zhi

Masses

1 15.9994
2 28.0855

Atoms # charge

684 1 -1.2 4.840923744701796 1.4644489662239117 1.0743639689927182 0 0 0
2018 2 2.4 4.918825634259096 0.025182942526167314 0.37519809172689245 0 0 1
1921 2 2.4 12.536292279725588 1.3877790349367887 1.9675411699711796 1 0 1
425 1 -1.2 11.639207874283361 1.7803180921081914 0.567110723793579 1 1 0
658 1 -1.2 14.038747894362913 2.0023199760364068 1.869903895279381 0 1 0
275 1 -1.2 21.500377754686866 30.350339685040552 0.21433805114387447 0 -1 0
1140 1 -1.2 25.00296918886018 1.0176446748367007 1.4713631897641746 0 1 1
678 1 -1.2 28.776664139817395 0.05315428824364055 0.18389756975543237 0 1 0
528 1 -1.2 28.25042810861464 0.14120651351156163 2.6773062139367947 -1 0 0
1864 2 2.4 5.181466735231767 2.470507309627484 2.376811074800598 1 0 1
485 1 -1.2 4.805721374939697 4.0291996474022636 1.8627117638562438 1 0 0
2009 1 -1.2 6.8504599275575515 2.3403922435177766 2.522349741805109 1 1 1
240 1 -1.2 10.207791440018063 3.639421301324612 1.8145564476427147 0 1 0
963 2 2.4 11.357447900165512 3.60241796732695 0.5645804599711394 0 0 1
2074 1 -1.2 12.780412667214852 4.274968542553146 0.9587056922971297 0 1 1
1828 2 2.4 14.166588488976188 3.5903917660065496 1.5912956490312733 0 0 1
1677 1 -1.2 15.437321590281218 3.7914359946809424 0.5457508445565986 0 1 0
1972 2 2.4 19.26086510795993 3.9353718944462983 34.98975089519274 0 1 0
380 1 -1.2 19.24624141245919 2.9114324156002356 1.1658099401234532 -1 1 0
2028 1 -1.2 19.585515697465024 5.280804354618969 0.3136157015231398 0 1 0
1317 1 -1.2 23.392135532734603 3.2323047955005038 1.1268429942504743 0 0 1
1561 2 2.4 23.469491603681774 4.4621790290120416 2.1560683103291334 0 0 0
1657 2 2.4 24.741722041704442 2.3424180135645667 0.6622743883926999 -1 1 1
1867 1 -1.2 26.230254588500138 3.0715106683374573 0.9193267197236341 0 1 1
1134 1 -1.2 28.610420694405615 2.305858700527701 1.4267696945843484 0 0 0
66 1 -1.2 28.0196470753982 4.984115877136917 2.0409039187318956 0 0 0
1384 2 2.4 27.776435864611855 3.6324741619296614 0.9249860317191485 -1 0 1
1879 1 -1.2 28.25590655114712 4.412953165266358 34.83963687756738 -1 0 0
1671 2 2.4 2.3134625459013853 7.3287607213719035 0.4604014357372031 0 0 1
134 2 2.4 4.9355229580188595 5.744725875579196 1.420873488225644 1 0 0
129 1 -1.2 3.4604164074381853 6.1297435750787965 0.7876749907840582 1 -1 1
1281 1 -1.2 6.346393710950542 6.1619250139334625 0.6209340394029466 1 0 1
260 1 -1.2 15.448777994577595 7.730744948160972 0.1373667234669539 0 0 -1
161 1 -1.2 18.298355099777044 7.643730174361683 0.4033766960814903 -1 0 0
145 2 2.4 19.555598659502596 6.79286300749082 1.0619906633861422 0 1 0
180 1 -1.2 20.85517622194073 7.550404629365324 0.5166052138836577 0 0 0
1984 2 2.4 22.48569112581041 7.185028299898343 0.2184518738139704 0 0 1
2093 1 -1.2 23.2343525240374 5.904650586936358 1.1904615762927726 0 1 1
140 1 -1.2 27.638246845853818 7.13047973418381 0.6602860788024012 0 0 0
280 2 2.4 27.875481062546385 6.609767937273307 2.2264182941489614 0 0 1
931 1 -1.2 29.259913164354373 7.220419184875018 2.735133537967714 0 0 1
1438 1 -1.2 2.4110959147271163 8.318261587964088 1.8084317229489577 1 0 1
432 1 -1.2 9.862714935173305 8.728798468304703 1.6577429516568745 0 0 0
615 2 2.4 10.737476049771193 9.549449255272581 0.28906683998704447 0 0 1
702 1 -1.2 12.085973269357432 10.511559244770654 0.45626515039449556 0 0 0
444 1 -1.2 17.138564397523254 9.760335849664024 0.5263957310526323 0 -1 1
1456 2 2.4 15.926799958540078 10.947063325764473 0.3233452332861742 0 0 1
470 2 2.4 17.012249653400442 8.32441106228606 34.96511413396439 0 0 0
1558 1 -1.2 22.964835160278056 8.425745196605748 1.1654134731624237 0 1 1
98 2 2.4 24.144195527966485 9.43916183355773 1.535527156583777 0 0 0
120 1 -1.2 25.562590403584544 9.271884062496556 0.5408836441032902 0 -1 0
1660 2 2.4 27.077383342945414 10.190618690542282 0.14084672041320268 -1 0 1
516 1 -1.2 27.857815282394338 10.121095336960655 1.6229016578175115 -1 0 0
1752 1 -1.2 0.3930674762713352 12.298028277071701 3.429811182758685 1 0 1
1015 1 -1.2 1.8940505918250594 11.694174899418305 1.0173035382805196 -1 1 1
284 1 -1.2 7.039962008444359 11.861225567219712 2.4526934165443164 1 0 0
1010 2 2.4 6.739469193824851 13.166121492620336 1.5207786769877267 -1 0 1
839 1 -1.2 6.849108524144268 12.516049381970998 0.11521048235825941 0 1 1
1129 2 2.4 13.10508800581431 11.558513648834317 1.1015099615175463 0 0 1
1577 1 -1.2 13.133709256525322 13.024969646819468 0.06554967433849548 0 0 1
1220 1 -1.2 12.480311955787672 12.034057710082827 2.630749351664436 1 0 0
598 1 -1.2 14.73611404353817 11.114668107739902 1.478539941564263 0 0 1
286 1 -1.2 16.760226342655216 12.37536642687379 0.20377310667602863 0 0 0
243 2 2.4 18.162205060637454 13.268458000797983 0.7947692903469632 0 0 0
618 1 -1.2 21.319826507960723 11.746099660909671 2.364354571853758 1 0 0
1234 1 -1.2 19.207436185986964 12.03713097933063 0.5370605541835772 0 0 0
2101 2 2.4 20.882070129129968 12.170855717013069 0.9303575627664675 -1 0 1
1928 1 -1.2 21.304791086738216 13.666205358883019 0.4635634110409757 0 0 1
1087 1 -1.2 21.54926602432778 11.19072104280163 34.961762033840174 -1 0 -1
1896 1 -1.2 23.667346842646122 10.954155289263912 1.7007395127137686 -1 0 1
574 1 -1.2 24.280938472022648 12.909645973410216 0.6691235427107998 1 0 1
1405 2 2.4 25.85718357977056 13.028877293085943 0.32939137096178905 -1 0 1
1702 1 -1.2 26.238896764492917 11.486053437211234 0.3618149291213005 -1 1 1
701 1 -1.2 1.4890105498071227 16.73369991390078 1.1535337067278073 0 0 0
991 1 -1.2 5.181838732379685 13.563183627158404 1.7330646655251896 1 0 0
152 1 -1.2 7.324425422209998 14.642031324794578 1.7391839914244893 0 0 0
877 2 2.4 8.827435948288668 15.10476560065453 2.223340626902602 0 -1 0
1055 1 -1.2 10.13611782817869 14.861366490814435 1.2467471517839577 0 0 0
2038 1 -1.2 14.246044815445178 15.539407778504943 0.5522873796461903 0 0 1
1169 1 -1.2 18.030642455288532 13.755956943777651 2.4012297319561 0 0 1
1696 2 2.4 21.432585543450713 15.15272932073951 1.088644481229745 0 1 1
1590 1 -1.2 19.80754340270867 15.630070375722495 0.9055540673958768 0 0 0
1760 1 -1.2 21.966979787586663 15.841769009317263 2.5135731030038997 0 0 1
223 1 -1.2 24.66947542998229 15.824644571141691 2.6605203284328227 -1 0 0
1965 1 -1.2 22.472163664424713 15.643850059301958 -0.12738523889717407 0 0 2
1457 1 -1.2 26.79746446054605 13.639944586530879 1.589034101747195 -1 1 1
542 2 2.4 27.528440552826016 14.815899109631532 2.425534117934702 0 0 0
1197 1 -1.2 24.986345492975488 16.86593045123811 0.10169572777845075 0 0 0
982 1 -1.2 29.2296586352212 14.238617235656033 2.280439824829797 0 0 1
1219 1 -1.2 3.023739372133337 17.5851278011814 2.7345581408320525 1 0 1
1094 2 2.4 3.206647001659572 16.69763026123235 1.2852844462448028 -1 0 0
1295 1 -1.2 4.345484831217079 17.05128370797768 0.24432886364270193 0 1 0
1006 1 -1.2 6.434224333779273 17.43449672997251 1.8688376404042817 0 0 1
1754 2 2.4 5.889448429248028 17.619755578259767 0.2659346383695357 0 0 1
1118 2 2.4 7.8272212350462596 18.037879986508646 2.6975935764165286 1 0 0
453 1 -1.2 8.670383865563794 19.167754435807893 1.9034811391472495 0 -1 0
1391 1 -1.2 11.207347894145318 18.71434093077506 1.7189180385490637 0 0 1
396 1 -1.2 13.43347730145143 18.019011172125964 0.8296253461726232 0 0 0
530 2 2.4 14.743190296732188 17.036917155131913 0.4738777006461191 0 0 0
874 1 -1.2 15.752302642493714 17.551068455629323 1.7494604468867019 0 -1 1
673 2 2.4 16.39467280400195 19.044734830194773 1.836076287768686 0 0 0
587 1 -1.2 26.86515901728513 16.073607053608345 1.6560104454681976 -1 0 0
1683 2 2.4 25.445816822592867 16.876389579628444 1.73931166251844 -1 0 1
200 1 -1.2 25.730398638497174 18.47606764977979 2.045167719146249 0 0 0
1024 2 2.4 2.4154013730670587 20.43684247953904 0.3326487481333772 0 0 1
106 1 -1.2 3.4880293651287366 19.627028574318313 1.4906883957658263 1 0 0
1885 2 2.4 6.369156985775036 20.90523269084539 0.41927968504150176 0 0 1
514 1 -1.2 6.019835749414717 19.37025096621133 0.23966745768074318 1 0 1
2104 2 2.4 10.109509758305075 19.49743943081903 2.503907493742435 0 0 1
1306 1 -1.2 10.26853109797903 21.13734751483832 2.5702440367873565 1 0 1
1070 2 2.4 12.511861299003895 19.29670493104024 0.7908750951105583 1 0 0
703 1 -1.2 12.630787001095111 20.879272070940107 1.3397343389777068 1 0 0
2090 2 2.4 14.151442299676008 21.36217623470333 1.8723517443336857 0 0 1
1698 1 -1.2 15.497960504172063 20.39101907398043 1.6157212618366834 0 0 0
1607 1 -1.2 17.799656960308255 19.396612246969347 1.2355765953905156 0 0 1
1274 2 2.4 18.676381688368544 20.828693207884914 1.3319771735326085 1 1 0
372 1 -1.2 17.660671100075348 22.26658915879397 0.7201530300082091 -1 0 0
1846 1 -1.2 20.021060312533436 20.849977275227193 0.5148206617111972 0 -1 1
1560 1 -1.2 24.45036106519955 20.188947231685763 0.35524231852707844 0 0 1
2001 1 -1.2 25.48959218983696 21.049421951336193 2.326608179216266 0 0 1
1189 2 2.4 25.80257743092802 19.957194244600146 1.2367920914635895 0 -1 0
1583 1 -1.2 27.17550458292507 20.174931544429217 0.42161631538873384 0 0 1
1892 1 -1.2 2.2326926264152775 21.954647066996696 0.33081666705531093 0 -1 1
338 2 2.4 1.7307302145722132 23.50854550187663 0.5021313307819362 1 0 0
353 1 -1.2 6.483496054669866 21.602902027438027 1.9306250065217192 0 0 0
1250 2 2.4 7.229762010873762 23.064395843464936 1.9347547009214296 0 0 0
2112 1 -1.2 7.697386363709794 23.724010900660037 0.5995790035382034 -1 0 1
1111 1 -1.2 6.2741266950000965 24.222637968494503 2.739652932247064 0 0 0
1860 1 -1.2 8.557964790988775 23.257195601828247 2.864228309784802 1 0 1
682 1 -1.2 10.935277676434994 23.40530431353848 1.6619560939584697 0 0 1
1105 2 2.4 10.117268458708006 22.692992566370446 2.818460055617062 0 0 1
1151 1 -1.2 14.233732078619564 22.854107894714694 1.3207992182226782 0 0 0
939 2 2.4 15.072672021043788 24.140515686273048 2.029707963970765 -1 0 0
1653 1 -1.2 16.52173828503642 24.760400152851755 1.4068204220413953 1 0 1
745 2 2.4 17.895000444899313 23.685811438515262 1.359620110370102 0 0 0
1482 1 -1.2 21.685636552912598 23.073202400770658 -0.05499957003605274 0 0 1
1883 1 -1.2 18.593831388384046 23.654513320840493 2.849882037175396 -1 0 1
83 1 -1.2 24.38667308797038 22.906762954491786 1.0151296611413678 -1 -1 0
38 2 2.4 23.08243309507699 23.919396425367104 0.20398467684533278 0 -1 0
1228 2 2.4 24.758701500017388 22.357296225568714 2.470760737593002 -1 1 1
245 1 -1.2 1.2401183944374348 23.97106583720583 2.041782509054023 1 0 -1
1884 1 -1.2 2.0551535529724294 27.3845710598572 1.0758603429876947 0 -1 0
2136 1 -1.2 2.9844654547150973 24.77952844921231 0.23865366916432365 0 1 0
1710 1 -1.2 4.899421376826907 26.9991581810548 0.9347940600334992 1 1 1
1361 1 -1.2 7.415948980236449 27.873201779261308 1.9140606677432261 1 -1 1
1592 1 -1.2 12.049103824938234 27.124750244467275 1.0669044199073596 0 0 1
1851 2 2.4 13.605128437147496 26.852936457630513 0.9780080568666235 0 -1 1
708 1 -1.2 14.15558332302055 25.5072985548316 1.892960792254136 0 0 0
198 1 -1.2 14.20504195241121 27.009826023534693 34.68895349359373 0 0 -1
149 1 -1.2 18.103037258109165 27.071446554870718 34.84204906935124 0 -1 -1
63 2 2.4 21.49281322184394 26.08076787040786 1.023381048797814 0 -1 0
1422 1 -1.2 20.438131393048696 25.58065342337269 2.4796768511089233 1 0 0
1703 1 -1.2 20.73783087275681 25.71789276220089 34.55579649006704 0 0 -1
1145 1 -1.2 22.984574241440523 25.352727808226792 1.1880275019544335 1 0 0
365 1 -1.2 26.840972251280512 25.5648698743212 1.1911594280961995 -1 0 0
722 2 2.4 28.00674066095156 26.317851397429735 2.1184154426525175 -1 -1 0
16 2 2.4 0.262964858825922 24.818002272097317 2.9291817570500185 1 -1 0
295 1 -1.2 29.11922707947625 25.054199230766002 2.192773215078414 -1 -1 0
652 2 2.4 27.171008952125028 25.284710328276574 34.852190766911924 0 -1 -1
746 2 2.4 1.9406133576740323 27.489798847264705 2.656220344441707 1 0 0
141 1 -1.2 0.9964545195465794 28.836481063642985 2.805768921645885 1 0 0
633 1 -1.2 5.827817520495153 29.5249246192276 1.1472592178041718 1 -1 0
1048 2 2.4 6.142421234788241 27.938387741609006 0.8143684785472112 0 -1 1
262 1 -1.2 12.566216997082758 30.016868418211253 1.942419794205981 0 -1 1
8 1 -1.2 13.863044871875742 27.723324268164117 2.3093544255128693 0 -1 0
1354 1 -1.2 17.011580247087615 29.024223548681512 1.4171413417194365 0 -1 0
568 2 2.4 17.713651494832106 28.669637390835973 -0.14028535193585828 0 -1 0
50 2 2.4 20.78533821987089 28.884543725405276 0.052258496841894334 0 -1 0
1187 1 -1.2 19.273815638245967 29.283154061451032 35.02274562779339 0 0 -1
2142 1 -1.2 21.272085163435133 27.66383741399995 1.1788909924032138 0 0 1
2125 2 2.4 24.931186988228383 29.968549454421442 1.1310448390205434 0 0 1
741 1 -1.2 26.574572649833872 29.492601583899177 1.3316971725315212 -2 -1 0
410 2 2.4 28.125606326410022 29.559901666312317 1.2994205128952285 0 0 0
1668 1 -1.2 28.51881910903734 27.883300788713928 1.401117572266694 0 0 0
437 1 -1.2 2.507627612815718 0.1107109230345634 4.073026845608954 0 0 0
1782 1 -1.2 0.2804400910224783 1.0941411479444736 2.9133501366452546 1 1 1
2092 2 2.4 1.036951962735146 30.33955725858612 3.507856792896715 0 0 1
1912 2 2.4 3.859303093051381 0.749049486632805 4.747282894723124 1 0 1
898 1 -1.2 4.501342921987241 2.0118229123031655 3.722179785033423 0 1 1
41 1 -1.2 5.155004515526859 -0.02747679268499203 5.2660164322381995 1 0 0
1386 1 -1.2 11.621544463828982 1.8798984782048733 3.1698921687743224 0 1 1
1940 1 -1.2 15.206011457965166 0.9950059094118419 4.853552318698116 0 1 1
1002 1 -1.2 18.885315868218918 1.915820410275094 3.617512159746349 1 1 1
229 2 2.4 19.807936250741456 1.6963663531706943 4.816960712787578 0 1 0
2012 1 -1.2 21.164154096614478 2.313526074989431 4.48081910813188 1 0 1
2075 1 -1.2 24.668777750814773 2.6125115672987826 4.468853057397983 0 0 0
471 2 2.4 29.15227716336761 1.4786709140327914 2.709041479093045 -1 0 1
1043 1 -1.2 28.505917580711653 2.3328440003034494 4.021066490467917 -1 0 1
1464 1 -1.2 7.178066724172608 2.8121445726948715 5.46374936376436 0 0 1
803 1 -1.2 7.214465668615124 4.739989272959198 3.679561253576697 -1 1 0
1647 2 2.4 7.632560129349564 3.0994646031286393 3.8612958016031604 1 0 1
1304 1 -1.2 9.0179511479894 2.4943454894425074 3.8073058649715366 0 0 1
1453 2 2.4 10.647985400047846 3.1001330254005004 3.4291423279014754 0 0 0
60 1 -1.2 11.234248893566038 3.966461945321671 4.483968140899005 0 0 0
768 1 -1.2 14.368143809396269 4.310189149774962 3.1150086510383788 0 1 0
1537 2 2.4 15.78397493489815 4.699658934742857 3.8076566548772517 0 0 0
1156 2 2.4 18.652318125491345 3.078748470401133 2.5224202463928656 -1 0 0
549 1 -1.2 17.197729357539203 4.120383912806667 2.7700250726306277 0 1 0
2109 1 -1.2 19.863297438760107 4.373884053394361 3.1424862542905796 0 1 1
795 2 2.4 21.100071782896464 4.004929200124446 3.9832203537021975 -1 1 0
2063 1 -1.2 21.01416070008097 4.958864317953725 5.352123623592302 0 0 0
1606 1 -1.2 22.434141724798685 4.823737491513639 3.3031192557581326 -1 1 1
642 1 -1.2 24.70439441388128 5.3057952650735 5.165794361362723 -1 1 0
34 1 -1.2 24.907947210988493 4.414679959120381 2.885363325633098 0 0 0
364 2 2.4 25.282576796564907 4.178893675052171 4.4165889537239496 -1 1 0
869 1 -1.2 26.85048515806209 4.441117759067957 4.678882271769483 -1 0 0
1837 2 2.4 27.988626348475098 3.393509524352714 5.198420252386882 0 0 1
155 1 -1.2 0.9532133559550627 7.8201323200930375 3.7882587375851116 0 0 0
857 1 -1.2 5.161745558541023 6.497901938477404 2.8710121363887664 0 2 0
1900 2 2.4 6.670376179458453 6.38405302840144 3.660486906782411 0 0 1
948 1 -1.2 6.4154126863654035 7.010649023817133 5.126703327545138 0 0 0
1711 1 -1.2 7.927787928481524 7.27420644776773 3.17467667515784 0 1 0
1506 1 -1.2 10.406708322607157 8.363890608763603 4.1420213326737985 0 0 1
255 2 2.4 10.457761537873722 7.855229534168216 5.618403131387082 0 1 0
1056 1 -1.2 15.659985886332228 6.259968695234812 3.811371340251165 0 0 0
1636 2 2.4 16.576175156254667 7.2165425730385655 4.904399158386892 1 1 0
989 1 -1.2 18.239702028482327 7.287346129955792 4.767321022365983 0 0 0
1270 1 -1.2 19.8782186654137 6.996175575535115 2.708612164847571 1 0 1
706 1 -1.2 21.157005917373205 7.682644557705907 5.070485077154393 0 0 0
1948 2 2.4 19.763392328900444 7.928979559131398 4.125377150613929 0 1 1
1475 1 -1.2 26.462700351149856 6.950791852389253 3.0737892635863693 -1 0 1
1040 1 -1.2 25.340716523840186 8.094776225845557 5.297948364125667 -1 0 1
493 2 2.4 25.9521559543704 8.239318501767494 3.8071420227704795 0 0 1
981 1 -1.2 29.47612743545641 7.647237975661491 5.426474986114328 -1 0 0
867 2 2.4 29.80578624202642 8.081727568416722 3.9294832536188107 -1 -1 0
292 2 2.4 2.1692101973907008 8.892377019121039 3.389543268941539 0 1 0
163 1 -1.2 1.8818296490250521 10.43775399058664 3.3727073616842294 1 1 0
1990 1 -1.2 3.2603660727085018 8.808531353705524 4.560621659359212 0 0 1
27 2 2.4 4.520659667801245 9.704762952453803 5.268090872913168 0 0 0
561 1 -1.2 4.896636765629945 8.666835664772558 6.378807493122956 1 0 0
297 1 -1.2 5.783014241805972 10.046583976168739 4.293078373405842 0 0 0
1620 1 -1.2 8.436647890371944 9.778278474195044 3.542261818769423 -1 0 1
1120 2 2.4 9.126268989234198 8.398610918851135 3.021535528593132 0 1 1
341 1 -1.2 13.795000964281728 9.723829164480408 5.561782746292072 0 1 0
596 1 -1.2 16.012834829351863 8.918738470847135 4.871471383595852 0 0 0
2111 1 -1.2 19.734963868437355 9.59474734078123 3.405210109916769 -1 1 1
384 1 -1.2 24.63064341976897 8.529290903092356 2.8437093355356704 0 1 0
228 1 -1.2 26.581213242297284 9.863515189306344 3.8480649434277843 -1 0 0
1165 2 2.4 28.0135904585109 10.333268046542539 3.169473215968739 -1 0 0
1218 1 -1.2 29.370339161365223 9.681932185317036 3.7339482613086523 0 0 0
879 2 2.4 1.729956094243697 11.827833822354652 2.723486276555618 0 0 0
1944 1 -1.2 2.9073883425040234 12.795419850184983 3.045543967744774 1 0 1
891 2 2.4 7.155634314688907 10.675508072054635 3.650331539842306 0 0 0
1182 1 -1.2 7.772599691906528 11.800653442987354 4.8177526447042665 0 0 0
315 2 2.4 8.258400824194771 13.31248091482197 4.592163825763056 0 0 0
750 1 -1.2 11.769594036078681 11.130019379889422 5.05446901585889 0 1 0
1826 2 2.4 12.794597729937987 12.224101393691404 4.169824774957356 0 0 1
789 1 -1.2 12.107165686322606 13.655900453677654 4.442824818946994 0 1 1
1497 1 -1.2 14.418698197008224 12.196722253223328 4.730227518481023 1 0 1
73 2 2.4 15.66183163020384 12.709059583928818 5.506223501784437 0 0 0
1415 1 -1.2 16.61143775800226 13.432870426385739 4.423850377278872 0 0 0
2055 2 2.4 18.14859544298449 13.274285593740522 3.9818763523771272 0 0 1
1799 1 -1.2 18.96932186722683 11.803618444378841 3.8559212080292844 0 0 0
1516 2 2.4 20.477561912843356 11.142005294720477 3.7454159442822172 0 0 0
1728 1 -1.2 21.59655245058395 11.23509265021196 4.816409736803869 0 1 1
302 2 2.4 24.210855998984314 12.387117878340343 2.4416946140967957 -1 0 0
21 1 -1.2 25.3950456290455 12.013585730746504 3.337413275941302 -1 0 1
1924 2 2.4 26.74319311473358 12.623565376657451 4.027463863184758 0 0 0
421 2 2.4 29.632455038218353 13.294025644267037 3.5577093798942903 0 0 0
731 1 -1.2 28.2677939103681 12.001290009152392 3.358958471227544 -1 0 0
96 1 -1.2 29.661545812808374 13.81305773075033 5.040196687468593 -1 0 0
1186 1 -1.2 3.31958413278836 15.128903206271787 1.7886098949904887 1 1 0
254 2 2.4 3.94286363058272 13.988346287315853 2.8031974000191453 1 0 0
1446 1 -1.2 4.626958571780658 14.458516097645584 4.162295721109157 0 -1 1
1329 1 -1.2 5.138180169296901 16.89349137711932 4.47775029261173 1 0 1
1201 2 2.4 5.803022642722255 15.28000549460641 5.021420338230841 1 0 1
1726 1 -1.2 7.328110067057412 14.64210400455104 4.901877861262926 1 1 1
800 1 -1.2 9.230459799932161 13.867212950949762 3.3387525990124334 0 1 0
1388 1 -1.2 10.72558597874401 15.707290893796664 5.560929758538814 0 0 0
1333 2 2.4 10.933020102720402 13.95593717801186 5.3832719279592345 0 0 1
794 2 2.4 18.640694741351346 15.670550687536982 5.163165403310454 -1 1 0
2105 1 -1.2 19.440074914518167 14.264712494698918 4.519635063263867 -1 1 0
197 1 -1.2 23.48958228574097 13.644433622536065 3.2908100272682357 0 -1 0
301 2 2.4 23.259096911890843 15.316662982937817 3.3548396255400377 0 0 0
1518 1 -1.2 22.920271859242845 15.816645592670614 4.850689895358754 0 0 0
1700 1 -1.2 26.753906457933507 14.293763675034917 3.9479056742929197 -1 0 1
248 1 -1.2 0.15629174401077495 19.10615667387665 5.319338914263031 0 0 0
1272 1 -1.2 4.48666214836902 19.514412225228757 4.122082929808755 1 1 1
1444 2 2.4 3.3665999347442255 19.18290716154516 3.0951595275911283 1 0 1
1429 2 2.4 5.581773759456462 18.488941850360998 4.806785138971231 1 0 0
1452 1 -1.2 7.26963555204842 18.96934597917282 4.160679320230817 0 -1 1
2100 1 -1.2 8.886022362317226 16.58238547827228 3.041014244701329 0 0 1
600 1 -1.2 17.622302399305475 16.725962958127685 4.227759971824895 0 0 0
1408 2 2.4 17.57965622137039 18.32010594834268 4.51146386270223 0 0 0
1740 1 -1.2 19.06773831889858 18.911810241002534 4.174662569284445 -1 0 1
868 2 2.4 1.178470669504692 20.28919355307961 4.943701939530107 0 0 1
392 1 -1.2 2.1164749067623676 20.17835910923592 3.6021313713591163 0 1 0
194 2 2.4 10.657380299267668 19.501834009567684 5.625948201626356 0 0 0
1427 1 -1.2 10.15742607695232 18.990258050030228 4.081747179385907 0 0 0
309 1 -1.2 13.669427404818181 21.369633744973882 3.58256421739366 0 0 0
257 1 -1.2 16.56370847515797 19.080752401443984 3.6297692145566347 0 1 0
1878 1 -1.2 19.214809853306477 21.183768669840628 2.724983548361297 0 0 1
818 2 2.4 20.0533323524646 20.350273302942913 4.0971462686983635 0 0 0
1685 1 -1.2 21.624214384146647 20.50003872078924 3.9409828344408044 0 1 1
886 1 -1.2 19.82593338263663 21.20716625375362 5.445671464276504 0 -1 1
2140 2 2.4 22.09400650031142 22.10294923832296 4.496805840651332 0 1 1
354 1 -1.2 26.637132304584764 21.022886564621068 5.135233738173095 0 0 0
910 1 -1.2 27.88517483093701 18.8554432542714 5.140239796127383 -1 0 0
299 1 -1.2 0.16776525282838428 21.498377271952734 4.594968142023476 0 -1 0
2094 1 -1.2 0.06953468098603843 24.066808286197322 4.3721679909864255 0 0 1
216 1 -1.2 6.525618185549486 24.05910945763987 5.397163620357831 0 0 0
1553 1 -1.2 10.756698002148172 23.45954852543856 4.435400870940495 0 0 1
1381 2 2.4 11.767441805862079 24.49715235807966 5.20309973058619 1 -1 0
899 1 -1.2 13.289617678927668 24.001125220010568 5.072201115878018 0 -1 0
1420 2 2.4 14.167841121774568 22.733610905522905 4.465939921385632 0 0 1
559 1 -1.2 15.362713534571206 23.351441118081134 3.3929269018065273 0 -1 1
1471 1 -1.2 14.428887830547293 21.934541846927676 5.873173808934802 0 0 1
343 1 -1.2 21.049403668468617 23.348527027291734 4.110931115803696 0 -1 0
157 2 2.4 20.03305389624861 24.45901117712547 3.5377204537524056 0 -1 0
1569 1 -1.2 23.444051671080924 22.183977164455367 3.5703437566202614 0 0 1
812 1 -1.2 25.908910252440485 23.09532371548421 3.42287336718457 -1 -1 0
1166 2 2.4 26.68697579326976 22.61891653662538 4.791802928271581 -1 0 0
1787 1 -1.2 26.458097129714453 23.716043208588722 5.779107705212836 -1 -1 1
2151 2 2.4 29.578886388271346 22.866553716518787 4.937650144144977 0 1 1
342 1 -1.2 28.198475447180975 22.688595193882986 4.333184856975675 1 0 0
1114 1 -1.2 0.9309726625383122 26.32787933746665 3.236311421152107 0 0 1
1758 1 -1.2 4.563809395199434 25.40051030423276 4.266117508451499 1 -1 1
1336 2 2.4 3.716097173616958 26.769451538436883 4.871339303412114 1 -1 1
1806 1 -1.2 3.2420535633793954 27.374844067324535 3.4455973754617664 0 0 1
567 2 2.4 6.14104113870411 25.032709854802867 4.063863634207894 1 0 0
2062 1 -1.2 7.001112670590869 26.41029362541625 4.201622031727461 0 0 1
1460 1 -1.2 11.557537392420809 26.105933418250917 4.886821394343991 0 0 1
1598 2 2.4 10.678270397685008 27.53849715505469 4.833701552907022 0 0 1
1430 2 2.4 18.69382717469555 26.898037667811856 4.858336005032593 0 -1 0
594 1 -1.2 17.710520294962155 27.239515660939244 3.4211112916178004 0 0 0
1626 1 -1.2 19.533967980876348 25.311154176799686 4.885356243182237 0 0 0
1222 1 -1.2 27.4264559088575 26.78721644991222 3.458942463330837 1 -1 0
663 2 2.4 27.11685576923941 27.33505465942241 4.912666402360585 0 -1 0
1521 1 -1.2 30.250476506468868 29.977199722001142 4.6765249796958015 -1 0 0
449 1 -1.2 4.942276227693065 27.842377723612117 5.250177896535481 1 -1 0
1611 2 2.4 7.872475527017317 27.647112640977973 3.5713132149843387 0 0 0
1526 2 2.4 6.072161932310797 29.08648137515636 5.39438290251121 0 -1 1
1566 1 -1.2 7.3062216249854375 29.102958328551924 4.2500814254767825 1 0 1
1920 1 -1.2 9.638774482168921 27.55356948498329 3.579617310968282 0 -1 1
1372 2 2.4 13.074389146195632 29.043272477112065 3.0687948311325326 0 -1 1
667 1 -1.2 11.866783492897452 28.622327584544756 4.292876361050365 0 0 0
2145 1 -1.2 14.122159421081484 29.58742776647873 4.202487809991086 0 0 1
985 2 2.4 15.403759776964955 29.951510968642623 5.042486007341692 1 -1 1
414 1 -1.2 18.843858486922265 29.59384548966465 2.8767310402633757 1 0 0
1115 1 -1.2 16.646984658418912 29.4487406378157 4.008344381215371 0 -1 1
1803 2 2.4 17.519467586100117 28.747210890564254 2.855124249560776 0 -1 1
972 1 -1.2 19.75319871349879 0.05307434364064386 5.106233835064982 0 0 0
407 1 -1.2 19.93533686765937 27.845748515184827 4.619808541603184 0 0 0
1214 2 2.4 19.968567726091457 29.456708487226283 4.066468813043613 0 0 1
670 1 -1.2 21.55154409265043 29.439899850387516 3.380166607292171 0 0 0
956 1 -1.2 24.10703430644253 29.013757832289127 2.3409701353846115 0 -1 0
1374 1 -1.2 23.42709594556466 27.924915514951692 4.595018306203755 0 -1 0
1065 1 -1.2 24.00116247859894 0.06220921290764894 4.464132518129409 0 0 0
866 2 2.4 23.077418476947763 29.290123665191757 3.745618255744274 0 -1 0
190 1 -1.2 25.875156645956032 28.275342874784787 5.2292558386723815 0 0 0
1089 1 -1.2 28.654566254909668 28.10589522037101 5.230271546456241 -1 -1 1
1524 1 -1.2 1.88822414373008 1.6393969798089028 8.380855537201027 0 0 1
9 1 -1.2 3.2319206809743344 1.7147197155037104 5.9902880817814586 0 0 0
1963 1 -1.2 4.495414107775505 2.4203207701670983 8.244069151428569 0 1 1
644 1 -1.2 8.75104782458698 1.9052622148137783 7.35822580666302 1 0 0
399 2 2.4 9.662581483894689 1.127785932066435 8.421163575336466 0 1 0
524 1 -1.2 11.020090621340035 1.695973089904967 9.167118972814364 0 0 0
290 2 2.4 15.555323829275636 2.319501458180159 5.996086037853738 0 1 0
1337 1 -1.2 14.594178262122677 2.9104648413236234 7.061769447743017 0 0 1
660 1 -1.2 16.71798562998672 1.3583028622492808 6.849141763076551 -1 1 0
481 2 2.4 18.28192697107479 1.3824987907800337 7.314176703148545 0 0 0
144 1 -1.2 18.654302178156577 30.227951240947885 7.459464587856528 0 -1 0
77 1 -1.2 18.947441681561273 2.358575836718065 6.079886317469336 0 1 -1
1262 2 2.4 24.646531270946905 1.1782440167257697 5.442028900087746 -1 1 0
503 1 -1.2 23.64331613907889 1.5529775543427382 6.725507505721643 0 0 0
834 1 -1.2 26.100747799427626 0.8467775929078007 6.10623203678336 0 1 0
184 2 2.4 26.846721865484273 1.5360551066443338 7.360335722502707 0 0 0
1097 1 -1.2 27.87825896392098 0.8820505106162104 8.344340481435465 -1 1 0
1133 1 -1.2 2.7873809016163738 3.9131184065298323 7.080359013280618 1 1 0
1681 2 2.4 3.0924719516132497 2.2723163424251394 7.575383192858692 0 1 1
785 1 -1.2 7.0431770322070335 4.132520615674232 7.785473925597064 1 0 0
52 2 2.4 7.986239858735242 3.4117540344666 6.672098386081388 1 0 0
327 2 2.4 5.795999457750302 3.5689548154604926 8.826300418751083 1 1 0
1318 1 -1.2 9.109277648527419 4.270734805101155 6.028079519766956 0 0 0
195 2 2.4 10.729660913246146 4.67339130063418 5.828068974609646 0 0 0
150 1 -1.2 11.653350105464044 3.620254098069796 7.059089088857668 0 0 0
1383 2 2.4 11.588338272604846 3.224874723825361 8.756065640774986 0 0 0
1534 1 -1.2 15.634396017646207 3.775037109448696 5.0839391364092394 0 0 1
2116 2 2.4 24.14697770793723 2.736294133394244 7.82666365417142 0 1 1
1243 1 -1.2 23.540483189124433 4.124656161221999 7.177064404561597 -1 1 0
423 2 2.4 24.293199069186965 5.395740656948578 6.737242392182374 0 1 0
89 1 -1.2 29.084078472327352 4.642838575894333 5.482878056257415 0 0 0
2002 1 -1.2 27.845303367624552 2.7500111776934824 6.511479022614248 0 1 0
1753 2 2.4 3.418116412093133 5.211419048169581 7.955959407049468 0 0 1
2087 1 -1.2 4.16259901687588 6.324526413469525 7.01846091216029 1 0 0
147 2 2.4 5.5033856924650015 7.015089450105016 6.383896542277086 0 1 0
912 1 -1.2 6.529059267536827 7.366464732295707 7.656887935930402 1 0 0
1061 1 -1.2 8.945724551188187 8.060722470251994 6.446102977340145 1 0 0
630 1 -1.2 11.203287288486264 6.241377231605275 5.7917714845797965 1 0 0
1649 1 -1.2 13.987868144713477 6.392065332016743 7.690161223346847 0 1 0
807 2 2.4 15.565585258098343 7.141226481517967 7.682864020223473 -1 1 0
1248 1 -1.2 16.280940826274126 6.520410668156835 6.458413320344461 0 0 0
409 2 2.4 21.369957016770332 6.473298305660155 6.2937307924722825 0 1 0
945 1 -1.2 20.42303349947853 6.733268105499112 7.533999452426695 -1 -1 0
1825 2 2.4 20.15992575738419 7.6889826589838135 8.930623860146033 0 0 1
552 1 -1.2 23.105630413917293 6.616315229839395 6.753184907387143 0 0 0
1373 1 -1.2 25.37897887831798 6.234920200378242 7.682458526075274 -1 0 1
1981 2 2.4 26.079313479575763 7.43929422700954 6.689121773656462 0 0 1
2123 1 -1.2 27.304649399586108 6.840149153118843 6.086119503699604 -1 0 1
1757 1 -1.2 29.369110297043306 5.811985616168789 7.677846789773921 -1 0 0
806 2 2.4 28.76824416745996 6.193781238634645 6.107113729845465 -1 0 0
56 1 -1.2 5.3690614016583496 10.702731618086592 8.420249224466879 0 0 0
1362 1 -1.2 7.499980146626484 9.995873231971514 7.529798001424875 1 0 1
136 2 2.4 7.888853628794693 8.386187799673337 7.681292531553611 1 -1 -1
1432 2 2.4 6.861219914028714 11.328505697613389 8.436489789457063 1 0 1
1229 1 -1.2 11.35504459824106 9.071407914411216 6.119920659405956 0 0 0
950 2 2.4 12.411723139773917 10.229514644526521 6.40793890672952 0 0 0
751 1 -1.2 12.864159520415901 10.931827296812157 7.9198297024877 0 0 0
112 2 2.4 15.277363709151661 9.952171848177422 6.03722440906232 1 0 0
954 1 -1.2 15.535636260745957 8.901571305111597 7.307391656579285 0 0 0
1555 1 -1.2 20.91335520940906 9.142486223511774 8.162974379028837 0 0 0
1861 2 2.4 22.528042902789842 9.948330485006126 8.48310157328235 0 0 0
210 1 -1.2 22.830106364917544 10.381314460918452 6.822390476073636 0 0 0
791 1 -1.2 26.106897490804442 8.867811482130824 7.8503831571990395 0 1 0
1343 1 -1.2 1.154018863223297 13.139412274529938 7.832687137931945 0 0 1
1009 2 2.4 29.96360932080044 12.909099063790649 8.389512059430466 -1 0 0
1104 1 -1.2 4.010674679978501 10.955071905333558 5.994700012872296 0 0 0
1545 1 -1.2 2.2792985732790503 10.840194380539858 8.214153543695534 1 1 0
1730 2 2.4 3.8350013639849467 10.802287527784523 7.813257221484006 0 0 1
908 1 -1.2 3.906397240120793 12.669557593871108 7.860571863455733 1 0 1
308 1 -1.2 7.040491997118288 12.817612270316525 7.83965638771883 -1 0 0
522 1 -1.2 16.185804836500896 11.196508517830642 5.9357671242833785 1 1 0
466 1 -1.2 17.649520119499403 13.500169032871856 8.045908883978186 0 0 0
1254 1 -1.2 20.476696533399135 11.701391392824497 7.234091871447443 -1 0 0
2005 2 2.4 21.897248605130056 11.765872667837996 6.318470229635917 1 0 1
1244 1 -1.2 22.61373320850106 13.153180260139049 6.5388992758372275 -1 1 0
588 1 -1.2 24.909727549026112 12.748196396533467 7.654410327974392 0 0 0
1967 1 -1.2 27.23409952512601 12.537988103375934 5.568072389004617 -1 0 1
1755 2 2.4 28.418516019095016 13.761288958196952 6.0461890671062735 -1 0 1
752 1 -1.2 28.90877368762005 12.96321204647731 7.319499781461874 -1 1 1
1762 1 -1.2 5.619544729631202 15.00370106604295 6.774037775416665 0 0 1
1171 1 -1.2 9.68888071008186 13.045406928816472 5.482648684190014 0 1 0
1339 1 -1.2 8.892113898540407 16.94856500272519 7.092365173899731 0 0 0
1715 1 -1.2 11.721790830111562 13.610121064434447 6.976973731242613 0 1 0
578 2 2.4 11.928606572991878 14.75839149352971 8.165527943627103 0 0 0
500 1 -1.2 13.452786633366578 14.26465981714518 8.793850767774405 0 0 0
2046 1 -1.2 15.52680784803214 13.828824928407302 6.694513380902193 0 0 1
1877 1 -1.2 15.809902743325592 15.791814566230439 8.448005684668985 -1 0 1
231 2 2.4 16.605209125813992 14.747809216992708 7.474267443410249 0 0 -1
907 1 -1.2 17.62289696398656 15.269076338470382 6.38711550578419 0 0 0
1502 2 2.4 23.554276320136385 13.814503328097445 7.673580883852001 0 0 1
238 1 -1.2 23.954367924145913 15.363848207841059 7.0729501455602675 -1 0 0
282 1 -1.2 23.004179329459394 14.019957953819464 9.31958673533864 1 0 0
2147 1 -1.2 28.075902288310655 15.371481955626644 5.9683455327461505 0 0 1
1033 2 2.4 28.052185868182885 16.4136204329237 7.154010494784009 -1 0 0
1326 1 -1.2 28.146677241264285 16.164916233150176 8.847403682109139 -1 0 1
405 1 -1.2 5.583933980210217 18.947661058741783 6.356639389749039 1 0 0
927 2 2.4 6.330477086231068 19.229439128117168 7.768018022181277 1 0 0
852 1 -1.2 6.651568520531492 17.751725809823093 8.222749898114923 1 0 0
123 2 2.4 8.066508373016113 16.967143018386444 8.455115131126837 0 0 0
952 2 2.4 10.545190207807792 16.84228379271038 6.692315594835408 0 0 0
2155 1 -1.2 11.204986032262783 18.28233534249336 6.405325135327687 1 1 0
876 1 -1.2 11.716897157089031 16.340911779051304 7.8159434087993755 0 -1 0
512 1 -1.2 16.928921534779025 18.2377005471333 6.122663991578902 0 0 0
917 1 -1.2 20.079772415649582 16.46086938214714 5.709307332049718 0 -1 0
693 1 -1.2 19.550699330713712 16.286434090641993 8.264871182861713 0 0 0
208 2 2.4 20.289101105416222 17.17870065416846 7.057001434663077 0 0 0
539 1 -1.2 19.98740817255873 18.725341031028762 7.00239275646041 0 0 0
76 2 2.4 23.038295616835466 16.43270742551067 6.262211773655568 -1 -1 -1
1853 1 -1.2 21.853736792772565 16.739878641932165 7.4072136062477565 0 -1 1
187 1 -1.2 24.216531633362703 17.740068966514777 5.933286586890713 0 0 0
174 1 -1.2 26.52744149320864 16.89136880337701 7.1978275169196415 0 0 0
122 2 2.4 25.38439127583262 17.99955836546548 7.274802647020318 0 0 0
1897 2 2.4 29.228270392453066 18.75235215170345 6.1608593588379525 0 0 0
1894 1 -1.2 29.426375016109283 17.33121204294567 6.851521342348844 0 0 1
1257 1 -1.2 2.2972334038296953 20.721957860597986 6.259732778108203 0 0 0
1360 2 2.4 1.8164870443671888 21.241542848480503 7.675593450478191 1 -1 1
1658 2 2.4 4.611577006928262 21.776244964898165 8.417638306661814 0 0 1
2070 1 -1.2 5.2879163117539525 20.280114521090347 8.440960820048524 1 0 1
1289 1 -1.2 7.624600480291316 20.237943648102515 8.01852809431797 1 0 0
724 2 2.4 8.884581383439237 21.28460558923769 7.559541861053795 0 0 1
72 1 -1.2 9.765890681363963 20.50969237528968 6.396577540255396 1 0 0
859 1 -1.2 9.235141453013785 21.861671511478402 8.83064994718947 0 0 0
2076 1 -1.2 11.978437932652946 20.71741052325945 5.166850435545952 0 0 0
316 2 2.4 13.196633703728486 20.645317989421418 6.108244137583423 0 0 0
1724 1 -1.2 12.949672957388634 20.793916513935372 7.81382460870784 1 0 1
20 1 -1.2 14.156512659298565 19.169632882691914 6.001711030637734 -1 0 0
734 2 2.4 15.637044891398103 19.328195879821706 6.44229434471507 0 0 0
138 1 -1.2 15.760956547039052 19.93886498829802 8.018848302044596 0 0 0
226 1 -1.2 16.522784728427446 20.59013270118732 5.771125380905231 0 0 0
2102 2 2.4 16.92930968488564 21.169723382195937 7.393619749149807 0 0 1
725 1 -1.2 18.319046458340253 20.53828212002738 7.630961559679473 0 0 0
267 2 2.4 19.96007591918513 20.330821061401224 6.9093811656499575 0 0 0
838 1 -1.2 21.044231603899345 20.984528560498447 7.930575812656111 0 0 1
586 1 -1.2 22.76630900059034 21.773206898407132 5.997655159275732 -1 0 0
651 2 2.4 22.320509261709947 22.006340605991067 7.549098366855865 -1 0 0
1426 1 -1.2 23.314195239940304 21.303738543867127 8.738287970541354 0 0 0
903 2 2.4 27.29313627213802 20.008264427512543 6.085459976825465 0 -1 0
413 1 -1.2 26.1157614259562 19.41321090537019 7.017177898549418 0 1 0
1158 1 -1.2 28.681847925382954 20.17152405569189 7.039373952627846 -1 0 0
1233 1 -1.2 0.8411396969687932 22.645247332665285 7.18333937127342 0 0 0
737 1 -1.2 5.428626235246768 22.366783950125235 7.060942532394021 0 0 0
1461 1 -1.2 3.104325937825429 21.840625832362424 8.768126843494988 0 0 0
677 1 -1.2 8.106622379652853 22.305082547187826 6.539118958568067 0 0 0
967 1 -1.2 6.2637109780124325 24.084880333829368 8.08632051863961 0 -1 0
1957 2 2.4 6.719252835082403 23.24995252073874 6.628907219152157 0 0 1
1625 1 -1.2 10.966411995789091 24.1474702765809 6.730616726233488 0 0 1
638 2 2.4 11.849020416383032 24.625561387711066 8.185997397255305 1 -1 0
502 1 -1.2 12.88406617229052 23.530506283678207 8.687438813011676 0 -1 0
1919 1 -1.2 17.44188734827257 22.92341073696844 6.874629478210889 0 -1 1
1407 2 2.4 18.191376720239017 24.155064641410465 7.622886923877836 0 0 1
320 1 -1.2 19.698182236887764 24.499458119260375 7.213594496072514 0 0 0
219 2 2.4 21.217893559160885 24.808677426241907 7.887471637815454 -1 0 0
1445 1 -1.2 22.136385489161782 23.529814234243716 7.620649046216802 -1 0 1
2160 1 -1.2 25.900431164577856 24.846759131860548 8.236511369443885 1 0 1
1646 2 2.4 -0.12318279488398008 24.11195732653538 7.494622841765121 1 -1 1
1256 1 -1.2 28.978233379209975 23.384033062910163 6.568578178247899 0 0 0
1224 1 -1.2 0.6759905735270944 25.25234095124443 6.679275449739905 1 0 0
1084 2 2.4 1.3171793350493126 26.697754109373054 6.82791952457457 0 -1 1
1305 1 -1.2 2.7297777426547807 26.491169401069236 6.1025175682358235 -1 -1 0
1774 1 -1.2 12.338127079916395 26.15705474342511 8.193774229437597 1 -2 1
2061 1 -1.2 16.186412942306212 28.227904722102963 8.072314651443167 0 -1 0
2131 1 -1.2 17.989619670515054 27.075192306721643 6.30372877658352 0 1 0
1563 2 2.4 17.46795400553635 27.142678529717248 7.743114168310796 0 0 1
1193 1 -1.2 21.421558907434566 26.263582075632527 7.121782788008752 0 0 0
153 1 -1.2 24.886091317084666 25.985049811923055 6.02290343397025 -1 0 0
1490 2 2.4 26.23875652318499 25.154794090647673 6.529102063349012 0 0 0
720 1 -1.2 27.608306440215433 26.143716966399314 5.909746160781701 1 0 0
2047 1 -1.2 0.5007407063748803 27.80810236871891 6.040087958124462 1 0 1
233 1 -1.2 5.791894416010335 27.098791849394402 8.564234003163305 0 0 0
188 1 -1.2 6.418958327671725 29.30140821162194 6.879403749330263 1 -1 0
507 2 2.4 6.763527786297097 28.360136279157945 8.2380591816602 0 0 0
417 1 -1.2 9.843327389448746 27.753528790323884 6.139172312706509 0 0 0
1162 1 -1.2 8.263350501538268 27.77467258988402 7.9447524634694435 1 0 0
1690 1 -1.2 9.43511102714975 30.278037246977558 7.564456862510887 1 0 0
1899 2 2.4 9.635888932593248 28.602531662029136 7.617173262226008 1 -1 1
635 1 -1.2 10.744521588345707 28.089602201829777 8.576624921561931 0 0 0
1567 1 -1.2 13.350511606018834 28.64130017826432 8.00281660698842 0 0 1
271 1 -1.2 15.006867890324779 29.588741948830613 6.503715536826208 1 0 0
4 2 2.4 14.892892869060834 29.257576280219368 8.103781533319966 0 -1 0
1292 1 -1.2 18.56129515217549 27.798651542836367 8.661808729313039 0 0 0
1863 2 2.4 19.498150782690846 29.14459611428317 8.362327325833258 0 -1 1
599 1 -1.2 20.703811542102184 28.40052464667809 7.584474548910981 0 -1 0
1705 2 2.4 22.19484513302749 27.553353225943173 7.852696321870022 0 0 0
2113 2 2.4 24.45007538587862 27.617737134389003 5.7961103797967075 -1 0 1
382 1 -1.2 23.59102587180975 28.149199688337685 7.158728609388908 -1 0 0
1 2 2.4 29.804891949765928 28.974791721016704 5.732810054928135 0 -1 0
767 1 -1.2 29.690785425910242 29.840648747421763 7.3283963617915955 -1 1 0
1887 2 2.4 29.004904953268635 30.060168594081166 8.699725495949943 -1 0 1
1263 2 2.4 0.971113158632715 1.1231858034701994 10.004147339900896 1 0 0
533 1 -1.2 2.236585366574937 0.4846624317409307 10.825195164969728 1 0 0
1519 1 -1.2 0.2677258679729837 2.6341726747482856 10.034299560596676 1 0 0
1352 1 -1.2 4.432603694667017 1.4295181850022367 12.066397588329993 0 0 0
121 2 2.4 7.684018558786106 1.8920267408175384 10.733296430088155 1 0 0
30 1 -1.2 8.661594488525456 1.031428105776865 9.803826619284003 1 -1 0
2033 1 -1.2 12.97463811991315 2.576248281145649 9.274677164496296 0 1 1
139 1 -1.2 14.388494935738768 0.41223279876172136 8.574723079436447 1 -1 0
817 2 2.4 14.430407955661284 2.0506605750958413 8.612525211220916 0 1 0
1100 1 -1.2 15.244482331590039 2.2098346636587363 10.102334608578618 0 0 1
2021 1 -1.2 21.53428840296854 2.148523361002471 11.552138367958369 0 1 1
247 1 -1.2 23.151371243295824 2.4637495938671368 9.137736443898815 -1 1 0
984 1 -1.2 22.967742157609745 0.16098346705611574 11.933026420651402 1 0 0
979 1 -1.2 25.723197717320673 2.3297412665917068 8.334598033893194 0 1 1
1570 1 -1.2 30.258406906601362 0.16314656218195642 9.627938842668701 0 1 1
763 1 -1.2 28.085752730560518 2.392899160755751 11.27006665789697 0 0 0
845 1 -1.2 4.898458375421444 4.925339975360144 8.927090082410224 1 1 0
691 1 -1.2 6.693616967519672 2.7742175556609068 9.803938137235455 0 0 0
1773 1 -1.2 10.634359116867504 3.9609032480496715 9.877706843372343 0 1 1
1014 1 -1.2 8.098848650459203 3.2687035700515876 11.708113938756119 0 0 0
45 1 -1.2 18.71615521290449 2.454632685288678 8.422554616251844 1 0 0
395 1 -1.2 18.82541520384633 3.6473316142094907 11.083645887876255 0 2 0
1804 2 2.4 19.30651630238075 3.916937073206146 9.273072830261302 0 0 1
1185 1 -1.2 20.853508137240475 3.697129410631008 9.444717866253027 0 0 0
352 2 2.4 22.08833641804038 2.8634097413275073 10.278501086043127 0 1 0
1331 1 -1.2 22.991252333721405 4.214873754166914 10.600447110769945 -1 0 0
632 1 -1.2 28.71156979294377 4.368246415933197 9.741837796300215 0 0 0
205 2 2.4 29.348393101825458 3.2809855315544723 10.939444903540737 0 0 0
1368 1 -1.2 1.7205328296309228 7.60794124978584 10.760074762563026 1 0 1
261 1 -1.2 2.3028798839745135 5.947418988391607 9.01991494772826 1 2 0
592 2 2.4 2.70005064375429 6.304469525449401 10.572623901608265 0 1 0
1042 1 -1.2 4.220564290140955 7.058993108477092 10.374582044288802 0 1 0
1437 1 -1.2 2.6262925757369224 5.105057984593843 11.62931389691951 1 0 0
1807 1 -1.2 6.740112842592343 7.524718602960206 10.57868772171023 0 0 1
278 2 2.4 8.39830024633096 7.625063163135007 10.397578002526245 1 0 0
728 1 -1.2 9.396193110066154 6.355758382034847 10.870689761972534 0 0 0
1241 1 -1.2 8.82404505747738 7.873517181580178 8.874227896016 0 1 1
675 2 2.4 10.719154156060682 5.636215114324378 10.318356573142701 0 0 0
1830 1 -1.2 11.375100785049291 6.8747587892174105 9.101930225251547 1 0 0
1575 2 2.4 13.042324162467116 7.040477226070937 9.02392692679322 0 0 1
828 1 -1.2 11.383349994038625 5.930275083661142 11.773315517880826 -1 1 0
90 1 -1.2 13.76420765149548 6.637175581257773 10.642310806859493 0 0 0
1952 1 -1.2 18.0018386194693 4.914074454027975 8.74647208773474 0 1 1
1269 1 -1.2 16.183494307434657 6.981621166014236 9.03710210535666 0 1 0
462 1 -1.2 17.5396329384716 6.037814121690614 11.366412050761172 0 0 0
434 2 2.4 17.51814919140204 6.259197222543674 9.703753699143618 0 0 0
564 1 -1.2 20.74312907143804 7.508228439840293 10.354328219426879 0 0 0
639 2 2.4 23.799707331387545 5.4528804789978675 11.474755611364815 0 0 0
319 1 -1.2 23.11667544281477 6.886440505833393 11.541284061367577 0 1 0
949 2 2.4 22.435791080144817 8.11474130514654 10.659372519759874 0 0 0
551 1 -1.2 25.390029114425147 5.5163533681622505 10.731585751818564 -1 0 0
1226 2 2.4 26.49688085307552 6.805199604645181 10.623791899409722 -1 2 0
1451 1 -1.2 27.408120989041382 6.407306075422471 9.377289199414683 -1 0 0
305 1 -1.2 30.19535635092244 6.866351799710623 9.690256655550305 -1 0 -1
1612 2 2.4 28.861293257480682 5.846407784396806 9.124555300534098 0 1 1
1933 2 2.4 0.22649661401128765 8.042791407358987 10.913352963694752 1 0 0
1261 2 2.4 8.087319398064954 10.515723513548446 11.393404058987226 0 1 0
1714 1 -1.2 7.621913933054973 11.3502693145561 9.884140990882194 1 1 1
1279 1 -1.2 8.546349242525759 9.028459749210954 11.17725041155998 1 1 0
1978 1 -1.2 13.309936581929355 8.674996638105878 8.866292159268472 0 0 1
1514 2 2.4 12.757098676200805 10.164613502051987 9.468083334272194 -1 1 0
884 1 -1.2 14.051648363372536 10.565154383258703 10.400890824571052 0 0 0
71 1 -1.2 16.743194743605926 9.757709976072418 11.001773899132317 0 0 -1
1183 1 -1.2 18.562415970009763 7.709796121610633 9.480693156348464 0 0 0
67 1 -1.2 22.022652410343646 9.486648274364232 11.465114970998563 0 0 0
1076 1 -1.2 23.13551414994604 8.579502371418732 9.181387590023284 0 0 0
1511 1 -1.2 25.64888087244281 8.222303389005306 10.394064075941138 0 1 0
1732 2 2.4 26.278066304663838 9.314419261074848 9.280212700829424 -1 -1 1
1572 1 -1.2 30.269205657443617 9.573557761764937 10.924871933638137 -1 0 1
1794 1 -1.2 27.991347630345295 9.490863370549924 9.653016429162122 0 -1 1
457 2 2.4 29.154349402333132 10.480297191085981 10.144035560542251 0 0 0
1964 1 -1.2 28.561772471035273 11.534136926459796 11.159115709121629 -1 1 1
1790 2 2.4 2.4571020401521033 12.522543482259271 8.465739278759743 1 0 0
1686 1 -1.2 30.080525648273234 11.300814491695297 9.068680508165647 0 1 1
761 1 -1.2 2.430922117522438 12.785906777899301 10.088141838235703 0 0 0
159 2 2.4 10.922558126460949 11.16968200557625 11.711664013125613 0 0 0
816 1 -1.2 9.387826419788265 11.417865439382894 11.810482399228329 0 0 0
943 1 -1.2 11.14651118716773 9.962420806631517 10.148631585511238 -1 0 0
2079 2 2.4 15.61664344903947 11.159784260315519 10.724333214112802 0 0 0
259 1 -1.2 16.02627681726375 11.739363647551938 9.366270220798746 1 0 0
815 1 -1.2 18.831837177721933 11.42402779188359 9.600119335115004 -1 0 0
986 2 2.4 17.573186779617256 12.367490970952122 9.279524522711382 0 0 0
1749 1 -1.2 17.843924624812058 13.532170542538921 10.560366055291658 -1 0 1
1095 2 2.4 20.382315890294166 11.921571879850099 8.859758588282721 -1 0 0
1997 1 -1.2 20.61567956090645 13.562307675818918 8.89713133597033 0 0 1
450 1 -1.2 21.23294961087251 13.590848046265178 11.630218627104357 -1 -1 0
1844 1 -1.2 21.957126105501136 11.228092144403973 9.317606999468893 0 0 0
849 1 -1.2 25.789119209528895 10.967832123553293 9.526788433683272 0 1 0
1144 2 2.4 25.702625544747544 12.541881440663648 9.195969706864817 0 0 0
415 1 -1.2 25.134097744550797 13.43964595774183 10.5207659144501 0 0 0
1039 1 -1.2 27.162579587164434 13.272411377532562 9.08393265897127 -1 0 0
1925 1 -1.2 29.506504548870584 13.839676087335947 9.689554896084925 0 0 1
2121 1 -1.2 4.3989709506192485 16.68540685290868 11.111567901085259 0 1 0
1107 2 2.4 4.883961081208006 15.011169118482966 11.015003647989973 0 0 0
759 2 2.4 6.234987855913939 14.210435465936676 8.119741449833121 1 1 0
1608 1 -1.2 7.334071112109515 15.467730514114843 8.712702958141573 0 0 0
1172 1 -1.2 5.3236997982916305 14.31370551063431 9.493969426825926 -1 1 0
1051 1 -1.2 9.206901930194569 14.330557909713324 11.082400399394254 0 0 0
1027 1 -1.2 10.983877615088284 14.17356667130799 9.35592736183298 0 0 0
649 2 2.4 10.841598258721689 14.237268321588648 11.022500562720388 0 0 0
222 1 -1.2 11.859906172688575 15.595042985375262 11.522996111562817 0 0 0
1995 2 2.4 16.635189139794477 13.732621358247528 11.648523157755573 0 0 0
69 1 -1.2 15.491788663152821 14.675767732634267 10.726656201388296 0 0 0
517 2 2.4 14.562261048703599 15.373292031313474 9.446624001205429 -1 -1 0
577 2 2.4 21.344120519287863 14.234763184967225 10.062519610862934 -1 0 0
348 1 -1.2 20.964734129222805 15.856767034305664 10.363140240097053 0 0 0
116 1 -1.2 27.08285367024499 15.18540988659876 10.712561012048045 0 -1 0
253 2 2.4 27.97657220962074 14.633322875706215 9.582120934087147 0 0 0
1327 1 -1.2 1.3823272258988626 18.59614470259611 10.508704173424103 0 -1 0
306 1 -1.2 6.750875226110313 17.76185635381355 11.255805787828601 0 0 0
65 1 -1.2 8.772314017827183 17.88739284884552 9.594114989537045 1 -1 -1
2066 2 2.4 8.401209610021745 18.14148881583397 11.085104392440806 1 0 1
1433 1 -1.2 14.323423108763638 16.911283859000914 9.926708918569464 0 0 1
1852 2 2.4 14.540516614735367 17.93893777416172 11.24768454524678 0 0 1
1271 1 -1.2 17.89655697520697 16.530333458929757 10.434663183805654 0 1 0
88 2 2.4 19.704797869845002 16.834722790088737 9.789714467465732 0 0 0
403 1 -1.2 19.4932547440815 18.260017418040558 10.502975130869396 0 0 -1
1645 2 2.4 20.408479027451147 19.10592354113562 11.494906471930296 0 0 1
1092 1 -1.2 24.76769240447553 17.965669209107112 8.619576530420074 -1 0 0
1131 2 2.4 25.05166960013565 18.243522815167097 10.191679160991256 0 0 0
1258 1 -1.2 26.785757830595074 18.365274210835437 10.476888353905181 0 0 0
1035 2 2.4 28.031642780191447 19.153993504774117 10.995457566036427 -1 0 0
439 1 -1.2 1.0219696375231888 20.13643324486429 8.322058027082011 0 -1 0
895 1 -1.2 0.5735431601977511 21.128979056490486 10.986804574694048 0 -1 1
518 2 2.4 0.5732032132760445 19.881246003643728 9.881864633188696 1 -1 0
1980 1 -1.2 15.038392476694526 19.438708258208962 10.852878632144263 0 0 1
1684 2 2.4 15.31142667245148 20.995369771717215 11.153184967703186 0 0 0
929 1 -1.2 21.63263593892916 19.889719402795887 10.656698596142666 -1 -1 0
2141 1 -1.2 19.187693469086415 20.087994990514325 11.797839994188985 -1 0 0
1663 1 -1.2 24.498110370653908 19.618561168417816 10.6749242861741 -1 0 0
1478 2 2.4 22.99642564696128 20.851963092424803 10.291917667284109 0 0 1
379 1 -1.2 29.170603511456047 19.416646096199507 9.802198942095037 -1 0 0
605 1 -1.2 4.989528340423485 22.592471723851723 9.864781527425315 0 1 0
1370 2 2.4 5.856249906014785 23.957153117931547 9.619588222327904 -1 0 0
1223 1 -1.2 7.6217867171121165 23.932209946113876 9.920831005618444 1 0 0
169 2 2.4 8.15429344131861 24.102473948463047 11.46294134078997 0 0 0
166 1 -1.2 10.720037417640961 24.363012094253456 9.484352334321061 0 -1 0
386 2 2.4 10.213722252979426 22.725708997037604 9.782603679694367 -1 1 0
498 1 -1.2 9.523987918233079 23.118713220835534 11.171640619411324 1 0 0
1161 1 -1.2 11.596921115885133 21.828073883557973 10.027010124905697 0 0 0
1178 2 2.4 13.018696766551928 21.987483473737765 9.076437181800193 0 0 0
419 1 -1.2 14.362908794086257 22.061363459747582 10.087092238160398 0 0 -1
2119 1 -1.2 18.314626761312585 23.315719056741468 9.135729852051645 0 0 1
2008 2 2.4 17.70960544553477 23.172162127626596 10.848907178160308 0 0 1
1074 1 -1.2 16.804589080989064 21.704693997395097 10.866762200089447 0 0 0
1783 1 -1.2 23.22370019075027 22.218748832463767 11.349811132436123 0 -1 0
773 1 -1.2 25.501426149382638 23.566790132631454 10.898026648807216 -1 1 0
476 1 -1.2 1.4870916845308604 26.822706648637816 8.37675711391289 1 -1 0
22 1 -1.2 1.407061180772131 25.538330543670934 10.791768909129502 0 0 0
170 2 2.4 0.5100663402812308 26.01638046433127 9.58224383311853 0 0 0
771 2 2.4 2.6355548956425157 26.981612926517986 11.36410217724106 1 0 0
1987 1 -1.2 4.98886454676572 25.245041827594456 9.90917183952317 0 1 0
310 1 -1.2 4.059636339290984 27.2530346461066 10.540885877627675 0 0 0
1119 2 2.4 5.462476704935312 26.683200861948375 10.205316940417674 0 0 0
1536 1 -1.2 6.77171006507071 26.933464535701457 11.100359650349063 0 0 0
201 1 -1.2 12.622668306571985 27.783702064266855 10.335188324229792 0 0 -1
91 1 -1.2 17.318743625419042 25.559218420702976 8.038801540899923 0 -1 0
2072 1 -1.2 17.412646911729436 24.78514522943973 11.038661940157539 0 0 1
186 1 -1.2 21.385015194036228 25.093942799503324 9.506160029999746 0 -1 0
1210 1 -1.2 23.944611430810998 25.499631337845372 9.837465792371876 1 0 0
1203 2 2.4 22.457999034931515 26.070912096160946 10.3870772654905 0 0 0
443 1 -1.2 22.1457181057423 25.815806215977435 11.862791632945406 -1 -1 0
880 2 2.4 25.499126657629898 25.01938809316827 9.948700323026133 0 -1 0
947 1 -1.2 26.509903892209355 26.009671639629627 10.397988026064509 -1 -1 1
2086 1 -1.2 -0.07709835375412222 24.50121436790092 9.074106303074606 1 0 0
381 1 -1.2 29.412286502115908 26.874162155437944 10.096226599033796 0 0 0
1345 2 2.4 27.91800403489295 26.554441290201662 11.052505210706641 0 -1 0
2084 1 -1.2 7.023471996947371 29.10857445784822 9.895492298165951 0 0 1
448 2 2.4 7.153642762418534 28.566684799923262 11.379040028362313 0 -2 0
486 1 -1.2 8.472908628340601 29.066370487129426 11.998092907546294 0 -1 0
1455 2 2.4 12.251309095569626 27.61855088635089 8.79410886519046 0 0 1
143 1 -1.2 15.070742877620262 28.67250614772993 10.134125929858282 0 1 0
1792 2 2.4 16.04913958041382 29.2151239667889 11.5779172927139 0 -1 1
1893 1 -1.2 17.640143116528336 29.61027197834805 10.942005675563516 0 -1 1
1996 2 2.4 19.38285042796312 28.992791796264804 11.118145746452274 0 0 1
930 1 -1.2 19.86942516440287 29.75927046975395 9.788789837438195 1 -1 0
1196 1 -1.2 22.210995225061055 27.52073669513027 9.74937597089587 0 0 0
1363 1 -1.2 25.281051703823923 29.251100925379465 10.988583090996892 0 -1 0
769 2 2.4 26.973899387422613 29.161176159230873 11.017077889656331 0 0 0
1307 1 -1.2 27.90178194861116 29.0950967975651 9.583449319136875 -1 -1 1
1875 2 2.4 1.32070783392329 2.070896361078222 14.48936904510518 0 0 0
631 1 -1.2 2.112132657410211 2.4608569546126136 13.035654435977547 0 0 0
148 2 2.4 2.7796222158589585 1.1687208277666605 12.179976268648975 1 1 0
1221 1 -1.2 5.603101396870479 0.05254213280339734 14.254728506130864 1 0 0
1236 1 -1.2 6.991233599648758 0.8798394099974278 11.953765295999878 0 1 0
2089 2 2.4 5.519786186883949 0.23611183509145317 12.477662170102823 0 1 1
334 1 -1.2 8.632431800286957 1.7918136102891487 14.14685200807667 1 1 0
1501 2 2.4 8.88260746134888 0.4831180764418328 14.930992533220273 1 0 0
760 2 2.4 15.825479379398415 0.5301139418545098 14.057547735593847 0 0 0
1727 1 -1.2 15.618648676903144 1.4333262030483673 12.597526386813671 0 1 0
1290 1 -1.2 17.551217985738656 0.1488706744253688 14.299254924338262 0 0 0
1276 2 2.4 21.49382822602646 0.6893533634202552 12.351125648462459 1 1 0
1821 1 -1.2 21.568382885885654 1.1564387362252444 13.967707187808697 -1 0 1
2114 2 2.4 20.951511071669962 2.507392142207272 14.649874256524614 0 1 0
1316 1 -1.2 26.52712841572157 1.8043518431110475 13.654687680996943 -1 0 0
1635 2 2.4 29.90090302195934 -0.08029673503727097 13.884363025635617 0 1 0
1351 1 -1.2 27.121661227554164 0.07882353350272264 11.801113468434968 -1 0 0
579 2 2.4 27.677834512121144 1.4539226531073235 12.579424290051934 -1 0 0
933 1 -1.2 28.960383549433175 1.216823943663816 13.49106087585764 0 0 0
864 1 -1.2 0.2676990239931348 3.2208695235427816 14.671691458459195 1 1 0
556 2 2.4 0.00348429664073054 4.422954593057534 13.664326845898803 1 0 0
1751 1 -1.2 30.07840354192856 3.99419024742949 12.182914874089706 -1 0 0
1364 1 -1.2 4.043315696173716 4.551422704674031 14.000257991823464 1 0 1
1717 2 2.4 5.640522588593631 4.895588134620374 14.05906309131042 1 1 0
1941 1 -1.2 6.5743059880957 3.667986362679688 13.352918282170988 1 0 1
135 2 2.4 8.206018527450148 3.299799248883186 13.220644755399244 1 0 0
1532 1 -1.2 9.08660786547085 4.625483939426166 13.689434942408308 0 2 0
488 1 -1.2 11.830594390663215 4.149920649435737 13.841029350239305 1 0 1
2138 2 2.4 13.469517211068784 4.182399751718543 13.4477809225178 0 1 1
723 2 2.4 15.154985534402973 2.642417138361766 11.63281715200109 -1 1 0
946 1 -1.2 13.754753244414628 3.100024959568265 12.208337290707174 0 1 0
792 1 -1.2 16.225581075677642 3.725349609279616 12.18766968595647 0 0 0
490 1 -1.2 14.276799281242972 3.6582318583135183 14.732021699644823 0 0 0
1624 2 2.4 17.705656236837296 4.427939539610871 12.150824196432128 0 0 1
355 1 -1.2 17.93978060847938 4.2523456469601 13.697572295601633 0 1 -1
591 2 2.4 19.495924300752367 5.020758679928949 14.131770494133052 0 1 0
1841 1 -1.2 20.63860122828836 3.9577657071446017 13.770606941493122 0 0 0
1462 1 -1.2 24.050768959409357 5.046972608566183 13.207556237062423 0 1 0
1508 1 -1.2 29.01668980455582 4.886180620757715 14.459184694012748 -1 0 1
1314 1 -1.2 1.4138971252202392 5.116784088953703 13.912696293444755 0 0 0
3 2 2.4 2.8907810043069078 5.398434184206173 13.267017605731892 0 0 0
780 1 -1.2 3.0115248141853352 7.066388262847516 13.929771441412194 2 1 0
892 2 2.4 5.357239721619862 7.401587102335619 11.64802545585977 0 1 0
2022 1 -1.2 5.700826902904477 6.259912948640941 13.006163236294356 0 0 1
28 2 2.4 12.793445314217673 6.618766821260195 11.895372149678787 0 0 0
1127 1 -1.2 12.583584217000853 7.8111684364605445 12.950380424824832 0 0 0
33 1 -1.2 13.703214071177634 5.803455579987321 12.860357553860018 0 0 0
408 1 -1.2 15.76268722133797 8.358096675812545 13.62366161601707 0 1 0
1164 1 -1.2 19.780295869892967 6.356555510826484 13.471580049313285 -1 0 -1
376 2 2.4 19.643156719122914 7.878118862042551 13.909070532576512 0 1 0
19 1 -1.2 27.21163283180408 6.937479134227021 12.046147559113539 0 0 -1
277 2 2.4 24.90443813677307 5.751241114638148 14.399724924767476 0 1 0
699 2 2.4 29.351677358356596 8.023168351456558 13.576335489345082 -1 1 0
1003 1 -1.2 28.350764410732754 7.334556707575729 14.839701934036926 1 0 0
550 1 -1.2 29.778021408215803 7.485481637212336 12.07049450072326 0 0 0
1538 2 2.4 5.249776661491645 10.563797815219292 12.660667424695422 0 0 0
851 1 -1.2 4.284096265042921 11.50871423719064 11.550576032033772 0 1 0
2015 1 -1.2 4.91195473756171 11.013366273008991 14.237201159991079 1 1 0
1301 1 -1.2 5.181946998936557 8.932731449285328 12.308680942340047 0 -1 1
2146 1 -1.2 6.754678603285938 11.042172656025825 12.29849099866658 1 0 0
619 1 -1.2 10.989334624792829 8.848509993292849 14.729455038923588 1 0 0
808 2 2.4 12.179653346632715 9.100390391848732 13.662124755620498 0 0 0
1313 1 -1.2 11.608366865613307 10.40495988008912 12.853961855575594 0 -1 0
1836 1 -1.2 13.78375227756573 9.813688767353007 13.66196699511566 0 0 0
281 1 -1.2 16.153030799922604 10.677750421516478 13.5635215651097 1 0 0
1393 2 2.4 16.669901038722912 9.301224266275403 12.727542946517756 0 0 1
527 1 -1.2 18.184466578004375 8.602233349203605 13.33319294515421 0 0 -1
1699 1 -1.2 20.905162208823103 8.587540769472193 13.317741243865836 0 1 0
2044 2 2.4 22.00030918861499 9.915905471306262 12.956558963038514 0 1 1
1793 1 -1.2 23.510969342554414 9.568600280040018 13.94557308222904 1 0 0
1442 2 2.4 0.6513313669041758 13.69444748934617 13.286223691225029 0 0 0
1412 1 -1.2 1.7406528703810953 12.856726393737228 12.646304208029845 1 0 0
1167 2 2.4 2.9866810194565 12.660293762575135 11.538860236805968 0 1 0
1053 1 -1.2 3.7170129646366252 14.178248417689781 11.687083587011841 0 0 0
887 1 -1.2 11.452587523474891 12.819155967428648 11.78783015745796 -1 -1 0
479 1 -1.2 15.825797055398382 12.220128179743146 11.909036186572184 0 0 0
2016 1 -1.2 19.836347180623658 12.690969899147454 14.46093859070229 0 0 0
218 2 2.4 21.612457977886503 12.301775977551705 14.50552189083216 -1 0 0
1829 1 -1.2 21.464122963777413 11.381042786121288 13.035841164813156 0 -1 0
2158 1 -1.2 27.06531103196054 13.297801703790729 12.606573225518487 -1 1 0
942 1 -1.2 28.2148475082827 11.829383819111806 13.901516925375509 -1 0 1
1293 1 -1.2 29.730491731989652 13.689710317262769 12.351032197226552 0 0 0
1489 2 2.4 28.58842660975222 12.514700562045258 12.467050545080408 0 0 0
460 2 2.4 1.9823324408152927 16.42613586609065 13.773516886636019 0 -1 0
1342 1 -1.2 1.0061230020074345 15.313648868733885 13.365103131950526 1 0 0
263 1 -1.2 3.4132879813024246 15.85537057765948 14.183108088956217 0 0 0
729 1 -1.2 6.581256164708917 14.822661727149772 11.802879802302408 0 1 1
865 2 2.4 8.101732225658496 15.383049930396536 11.921588172250773 0 -1 0
1638 1 -1.2 8.369005055318535 15.390049823974294 13.554371709972827 0 0 1
1124 1 -1.2 9.065609174354684 16.724571584285947 11.775678064293142 0 1 0
340 2 2.4 9.549455577853125 16.4627798747828 14.194221078184029 1 1 0
461 1 -1.2 12.997326882747254 15.743924867459675 13.892704816906582 -1 -1 0
915 2 2.4 12.387201311551022 16.576463698854603 12.747933754198193 0 0 0
1481 1 -1.2 17.24564956426499 14.783938210308778 12.71939969383409 0 0 1
687 2 2.4 17.228603392872934 16.41579618663305 12.05019906306521 0 0 0
499 1 -1.2 20.725044008508068 15.546013289038173 13.601254182998504 -1 -1 0
1346 2 2.4 21.90772897550038 14.51634193052429 12.911534125258118 0 0 0
1523 1 -1.2 22.46168191433088 13.627276002384223 14.094040329555893 0 0 0
321 1 -1.2 22.94891860481139 15.463764659108046 12.06728430127078 0 0 0
829 2 2.4 24.34065626236344 16.06469294627366 12.390124742967524 -1 0 0
2091 2 2.4 26.1603319937738 14.151263953028923 11.58181614261881 -1 1 0
2036 1 -1.2 25.56073219662616 15.15329713419641 12.674981048933962 -1 0 1
1533 1 -1.2 1.743162271418572 17.59020522717999 12.678545874272492 0 0 0
1731 2 2.4 0.589290426208969 18.63035658309309 11.990449859803913 0 0 0
978 1 -1.2 4.475084257336535 19.16342812836368 12.131735954005682 0 -1 0
565 2 2.4 5.301504254877992 17.790188221881355 11.88366974654775 1 0 0
535 1 -1.2 5.596757483160953 17.145456431766387 13.30497081789549 1 0 0
1691 1 -1.2 8.341557160764348 18.099556451892237 14.249941843055394 0 1 0
690 1 -1.2 10.8272566547947 16.63200756045449 13.33003403162227 0 0 0
1589 1 -1.2 13.134228819706626 17.8262081619147 12.074647615067535 -1 0 0
1413 1 -1.2 15.735916043160595 16.95975749533174 11.97899634255042 0 0 0
1721 1 -1.2 18.24323125562374 16.930779068749107 13.192390031657494 1 1 0
710 2 2.4 19.873618660970706 16.942160820384697 13.690192525792668 0 0 -1
103 1 -1.2 20.603510370484347 18.342147134808084 13.054156418459394 0 0 -1
548 1 -1.2 24.438965721567467 16.799783549460845 13.757848603823282 0 0 0
1150 1 -1.2 24.27566820407318 17.108411236971325 11.186058585092741 0 0 0
272 1 -1.2 26.064575658011105 18.79985321165404 13.451636172632353 -1 0 -1
283 1 -1.2 29.288317374737392 18.121197670594043 12.094591763308763 0 0 -1
489 1 -1.2 0.8384966212301398 19.830329389764568 13.113064753603824 1 0 0
388 2 2.4 1.3591309002233805 21.223782141156352 12.552510936631883 0 1 0
1678 1 -1.2 2.8509282098460993 21.24337984066761 12.390576040203657 0 0 0
733 2 2.4 4.206856979585478 20.64782854798014 12.965111441086712 0 0 0
883 1 -1.2 5.502583730103516 21.56976797961147 12.705760445225867 0 -1 0
654 1 -1.2 4.112198112802889 20.632022867422105 14.4985266736071 0 0 0
107 1 -1.2 8.29492036198791 20.65805152062839 14.397207415073938 -1 0 -1
1093 2 2.4 9.10069261091951 19.44947438507648 13.709758778040372 0 1 0
1664 1 -1.2 8.812543664859072 19.21484678771275 12.12453440616261 -1 0 0
969 1 -1.2 10.7188907904425 19.40982175668194 13.959409750029007 0 -1 0
595 1 -1.2 12.494657289807906 21.300750401057098 13.64601099729601 0 -1 0
608 1 -1.2 14.955793956577672 21.43538360077479 12.770500543257581 -1 0 1
1932 1 -1.2 17.866079563377387 20.863304993582407 13.879698434764386 1 -1 1
436 2 2.4 18.99722115984959 21.27475413878743 12.90379277551894 -1 -1 0
1031 1 -1.2 20.462513116539156 21.503751914697023 13.603186003739099 0 0 0
433 2 2.4 26.512392657950752 20.426097883538908 12.631384376846896 0 -1 0
1483 1 -1.2 25.269354854094495 21.565119949099046 12.863371583579436 -1 0 0
162 1 -1.2 27.54082263936237 20.802278462237716 11.507459614503667 -1 -1 0
1375 1 -1.2 27.60371854665788 20.496460963775608 14.193553840361401 -1 -1 0
1895 1 -1.2 0.9139250260534534 22.32678124585432 13.443132699719127 0 1 1
1954 1 -1.2 4.426965939938413 23.980782001977143 13.615920612968612 0 -1 1
298 1 -1.2 6.726550650804645 23.544127176902126 12.193246879552067 0 0 0
1756 2 2.4 5.796348575647811 23.035478763170534 13.346195218172172 0 0 1
576 1 -1.2 6.578035917142359 22.557583875332224 14.693317156767126 1 -1 -1
1067 1 -1.2 13.466566269315564 23.425649211764092 12.47823296631074 0 -1 0
1216 2 2.4 13.829291468234794 22.164092052779083 13.678436341190338 0 -1 0
1596 1 -1.2 18.832885255652883 22.476427153366114 11.825570299743644 -1 0 0
2083 1 -1.2 23.671222557272664 23.89253424454771 13.21608757149863 0 0 1
435 2 2.4 24.538887652121947 22.951138157167254 12.155040241098446 -1 0 0
331 1 -1.2 29.79632963684461 24.578835578221348 14.282327643009014 0 1 0
368 1 -1.2 2.0268267941187386 28.28542149881252 11.813760188435758 -1 0 0
544 2 2.4 3.66706535979406 25.40401541647446 14.04905001872229 1 -1 0
607 1 -1.2 3.250274433472816 26.53519126734753 12.849144309051367 0 -1 0
1881 1 -1.2 6.864633520454656 25.800413758678854 14.551505495611455 0 0 1
1761 1 -1.2 8.39692118065427 25.53004314049466 12.244051908471535 0 -1 1
1417 2 2.4 8.222513803669319 26.067363641704393 13.860572163725564 1 -1 0
1163 1 -1.2 9.029041715187052 27.507292970605597 14.307359536257925 -1 -1 0
400 2 2.4 12.897745410357537 24.789104452115065 13.157957464059969 0 0 0
1927 1 -1.2 12.627906414457488 25.83551496084788 11.89681989098453 0 -1 0
555 2 2.4 12.276510390132028 27.292761966501494 11.824666224559897 0 0 0
1675 1 -1.2 14.028106644093905 25.544781409578462 14.16429408757325 0 0 1
2065 2 2.4 13.793325934884232 27.09308467386997 14.437490125800462 0 0 1
111 2 2.4 17.632518256946742 26.33904501004135 11.815777834950792 0 0 0
234 1 -1.2 18.20281983716705 26.102373200692387 13.43798999633832 -1 0 0
2048 1 -1.2 16.358993803590867 27.241706134624113 11.545009190556883 0 0 1
1530 1 -1.2 19.197725461219594 27.492870050840736 11.501135829267318 -1 0 0
1486 1 -1.2 21.20542378389695 25.146232965288043 14.271135084491553 0 0 0
1312 2 2.4 22.63688785704062 25.30147077152347 13.537776063393965 0 -1 0
1332 1 -1.2 23.836621450560056 26.076149608261964 14.29022000119687 -1 -1 0
904 2 2.4 28.041080062088625 24.903124120485966 13.835217622311868 0 0 0
1689 1 -1.2 27.93899354857654 25.588795739955685 12.33749414545748 -1 1 0
700 2 2.4 1.530837662097323 29.20219616336506 13.276418318264739 1 0 0
173 1 -1.2 0.10277981602351557 29.860345361077595 12.538312671654626 0 1 0
909 1 -1.2 2.7292911895217737 30.2756473815955 13.167114822984164 0 -1 0
655 1 -1.2 5.729383158279604 29.044364614272403 12.308450751003278 0 -1 0
1414 1 -1.2 7.770039002906984 30.124968411140514 15.587447617628387 1 -1 0
300 1 -1.2 10.117689736041253 29.954473244281235 13.806683505045635 0 -1 0
1480 2 2.4 9.596076011965645 28.662127418975455 13.077944318106642 1 -1 1
801 1 -1.2 10.779253377975408 27.73037450356852 12.131243478442606 0 0 0
2110 1 -1.2 13.28386415274618 28.017984612350414 13.04635126338425 0 1 1
2095 1 -1.2 15.626614510378685 29.715665834493148 13.127781897173719 0 0 0
418 1 -1.2 20.296723599418 29.92916291392547 12.251885431204808 0 0 0
1780 2 2.4 24.265760166542915 29.667227413905202 12.530456252330945 0 -1 0
1823 1 -1.2 23.66979307360543 28.17754277094635 12.75316114688889 0 -1 0
784 2 2.4 23.523414198843383 27.77068429107249 14.598107798661115 0 0 0
2117 1 -1.2 24.68946319171907 0.10165665043988512 13.964603931176436 0 1 0
585 1 -1.2 27.361676731258356 27.876987559176207 11.821198350854653 -1 -1 0
1977 1 -1.2 0.8541891095714551 0.5002069875959089 14.788997062917232 1 0 0
901 2 2.4 2.4655826757183212 2.0986245196316053 17.15990990942492 1 0 0
264 1 -1.2 5.830640733116847 -0.023619561770114726 16.851465466072934 0 1 -1
584 1 -1.2 10.050834313557553 0.5472681144878748 16.14483625354339 0 0 0
940 2 2.4 10.721210297606856 1.9889779380078536 16.466885482853083 0 0 0
1041 1 -1.2 12.358914735411437 2.0420461323667696 16.939007324958503 0 0 0
1347 2 2.4 14.150227992120863 1.5164026307535305 16.733187395772983 0 0 0
330 1 -1.2 14.764231554038567 0.6297142628490472 15.193787753833698 0 0 0
1603 1 -1.2 15.038041519206116 2.8677102331121964 16.99769724203637 0 1 0
469 2 2.4 18.774100305366737 0.5819012293772337 15.658647342857018 0 0 0
511 1 -1.2 18.110844812231836 0.35670238792673475 17.39272486447433 0 0 0
606 1 -1.2 19.507927321674085 2.1518003278681728 15.429394555707972 0 0 0
569 1 -1.2 25.000713049943844 2.543699396082929 15.924892382944932 0 0 0
398 2 2.4 25.706971169345596 0.9951726696442028 14.791679435885806 -1 2 0
850 1 -1.2 27.134709487512964 0.7565741312045354 15.794579062457219 0 1 0
1550 2 2.4 27.862584677788465 0.5675684924743832 17.397570979009426 0 0 0
1007 1 -1.2 29.451281301518378 0.708153704062696 17.444791014364394 1 1 0
671 1 -1.2 2.320396153724368 2.4471686778724995 15.61412747076548 0 0 -1
203 1 -1.2 7.641842658357335 4.995759747656166 17.477872171050365 1 -1 0
740 1 -1.2 6.534796286102958 4.96104341732914 15.361126487200366 0 0 -1
482 2 2.4 6.226889547519622 5.5972567175532575 16.704540658697734 0 0 0
709 2 2.4 10.40262238357262 4.390438314815098 14.641100416470614 1 0 0
774 1 -1.2 10.41128139565847 3.567448217854867 16.06012241189294 1 0 0
467 1 -1.2 14.190997308630525 5.529576849934513 17.030055409843612 0 0 -1
1669 2 2.4 14.991199170139621 4.324340158060779 16.17126765712035 0 0 0
1582 1 -1.2 16.551162578299955 5.070237671667152 16.04782427698904 0 1 0
1071 2 2.4 18.010089445814625 5.432627298476071 16.73648506970129 0 0 0
941 1 -1.2 19.206596170613714 4.981838026717673 15.882529204883703 0 0 0
1423 1 -1.2 22.11798964140489 2.9156752696830273 15.803874045844298 0 0 0
1000 2 2.4 23.66033382422304 3.5813167300600024 16.148300323125195 0 0 0
1974 1 -1.2 23.387844422104695 3.3980061350292936 17.868668584087082 0 0 1
2130 1 -1.2 24.30749386182298 5.021701011697667 15.8039286370553 0 1 1
6 1 -1.2 2.218899594264862 6.894901082454163 16.191228215968454 -1 0 -1
2017 2 2.4 2.07308931092305 7.926726486801138 14.80673224652328 0 1 0
2108 1 -1.2 0.5236675184712516 8.161935254236827 14.087535144603057 0 1 1
1353 1 -1.2 6.613801253434564 7.188039189986742 16.46344369882232 0 0 0
130 1 -1.2 10.007456431741861 8.273560485109813 16.792350325404563 0 0 0
167 1 -1.2 10.824829819821927 6.084144155716818 14.991776146004725 -1 0 0
2103 2 2.4 10.885690947423717 7.446107403407391 15.631688705041784 0 0 0
2098 1 -1.2 12.543587331987233 7.530736587851574 16.29888054523314 -1 1 0
1474 1 -1.2 18.03760852052937 7.062829169515006 17.13877078867519 -1 0 0
1441 2 2.4 19.271498204179004 7.926688505069158 16.852841693535034 0 0 0
944 1 -1.2 23.186429041831616 7.315468437703347 17.461115262688267 -1 0 1
2144 1 -1.2 26.495210001425612 5.200106875530461 14.269786646966077 0 1 0
717 1 -1.2 24.76111008010081 7.35758849179756 14.363813175138128 0 1 0
1099 1 -1.2 28.117774243245265 5.705670732726039 16.677399270121594 -1 0 0
447 2 2.4 27.838140387691798 5.675525763711282 15.015744425008982 -1 0 0
224 1 -1.2 2.55043047824207 9.584439489509135 15.042909160427573 -1 0 -1
961 2 2.4 3.9594007600374614 10.361050077060462 15.546246561832069 0 -1 0
473 1 -1.2 4.2031515099199845 11.189292183386282 17.065232744417724 1 0 0
1106 2 2.4 6.48475036330276 8.682690261952379 17.022282714316738 0 0 -1
1554 1 -1.2 5.313632756251102 9.257033082408364 15.91070369516549 1 0 0
236 1 -1.2 7.960719051433359 9.65272330431228 16.963253154391158 0 0 0
86 2 2.4 9.351297915828555 9.50614223224691 17.55568267274829 0 0 0
1847 1 -1.2 10.43195643813421 10.867539676827818 17.285459467790663 0 0 0
1515 2 2.4 15.149164578405939 9.644097403960826 14.447709411879563 -1 0 0
1434 1 -1.2 15.153254156519477 9.921592985265812 15.98229330285471 0 0 1
938 2 2.4 15.865004986219342 11.183516255236688 16.8816073245106 0 0 0
1341 1 -1.2 20.044477663338373 7.6359416378313885 15.49787427044462 0 0 0
196 2 2.4 24.808108856474796 8.929193810149858 14.694211402634604 0 0 -1
1983 2 2.4 23.791488399990566 8.92189186805583 17.47391623062416 0 1 1
1775 1 -1.2 24.64521107581568 9.217835863256367 16.302746572798743 0 0 0
1835 1 -1.2 26.156815536667278 9.700634988534183 14.649591679783493 0 0 0
62 2 2.4 27.67686069062696 10.293571469297163 14.380087857914111 0 -1 -1
911 1 -1.2 28.688567791567646 9.499894832442351 13.393981253519057 -1 0 0
1285 2 2.4 0.8375925567841712 12.777073734815326 16.125976172760694 1 0 0
1781 1 -1.2 0.14375033430623493 13.299344164783614 14.690990377020569 1 0 0
5 1 -1.2 0.3992763724520969 11.20259558315615 16.263306918852503 0 -1 -1
1716 1 -1.2 2.4388428477136403 12.82183525195143 16.011658790128372 1 1 0
1951 1 -1.2 0.5856543807906525 13.56229208430553 17.616578654512526 0 1 1
1052 1 -1.2 4.813741739591636 13.641255203222029 16.359446647999842 1 0 0
770 2 2.4 3.684246558038824 12.719398806846712 17.089230991626895 0 0 0
2059 1 -1.2 15.841771806475398 12.7039887157729 16.197632934154612 0 0 0
648 1 -1.2 17.792307484343546 14.306247411931592 15.464434165246612 0 -1 0
51 2 2.4 19.105635754708832 13.428318490902145 15.679428748814347 0 0 0
1602 1 -1.2 19.03413865646923 12.355431112446134 17.034550537996346 0 0 1
154 1 -1.2 21.761530598471246 11.489899332509921 15.888997385590223 -1 0 -1
916 2 2.4 22.236894420647417 11.698368253208557 17.539981308745034 0 0 0
288 1 -1.2 28.331132522230742 10.171636569070396 15.915631388848416 0 0 0
520 2 2.4 29.290706176349154 10.990923105858254 16.753214653033734 -1 0 0
1102 1 -1.2 3.1203400398960075 17.856518495277165 17.400283413026493 0 -1 0
483 2 2.4 5.42841393251504 14.958958005625819 17.11709295072098 0 0 0
1733 1 -1.2 5.668658357106633 15.914747212815099 15.747148242259259 0 0 0
571 1 -1.2 9.577524858845536 15.81432531194771 15.823397209664748 1 0 0
756 1 -1.2 12.846419801699293 15.62018209740938 16.30478634378482 0 1 0
1334 2 2.4 16.17325131368348 14.273536474511356 16.18777847163504 0 0 0
1209 1 -1.2 15.093692514994087 14.733520162632296 15.06113240055796 0 1 0
458 2 2.4 13.975295117782322 15.811335732485787 15.190574622408278 0 -1 0
1811 1 -1.2 16.257272100557117 15.475982570820749 17.229492997501787 0 0 0
1188 1 -1.2 20.142802540074065 14.591197012670674 16.101278349678804 0 0 0
1840 2 2.4 20.541075562897078 16.24072275470013 16.391916276519837 0 -1 0
1217 1 -1.2 22.219913585654158 16.504974173886513 16.13621075536818 0 0 0
1601 1 -1.2 27.936726393003894 15.038402154167182 17.250120645373137 -1 0 0
1529 1 -1.2 1.3126209210552617 16.86044998731399 15.332759459032117 0 0 1
1670 2 2.4 1.862103900134036 18.00976537085857 16.322528802719088 0 0 0
2013 1 -1.2 1.9468835964475264 19.43431172052829 15.739041142219731 1 0 1
350 2 2.4 4.79215698506207 16.803831543743264 14.519507520498623 1 0 0
758 2 2.4 3.6933870278844325 19.635837685093048 15.608282804195666 1 0 0
521 1 -1.2 4.138214847634077 18.140882874728945 15.023321877626067 0 -1 0
1242 1 -1.2 12.759148924555657 19.366993476908572 15.714374083674272 0 0 0
1324 2 2.4 14.003773361224061 18.53299617697342 16.325387492984888 0 -1 0
1470 1 -1.2 14.727950943083245 17.283210430125038 15.603743718624916 0 0 1
814 1 -1.2 20.0488937820426 17.287414763902316 15.320817799408301 0 0 0
1548 1 -1.2 24.2186412479903 18.461428017648792 15.584272256289427 0 -1 0
472 2 2.4 23.236884522603617 17.822136507088906 16.77302680100744 0 -1 -1
109 2 2.4 25.399731764528752 17.84539963220965 14.521093942689076 0 0 0
1629 1 -1.2 26.454813093738288 16.74134350193287 15.451451044697693 0 0 1
1286 2 2.4 27.53998842572261 16.60804034697884 16.939632613879887 0 0 0
1064 1 -1.2 28.544562274098656 18.047608769294424 16.298062075725593 0 0 0
523 1 -1.2 29.91377879801599 20.39185593495058 17.1429156407259 -1 0 0
1080 1 -1.2 4.170233656543363 20.26698813617881 17.19515871262338 1 -1 0
888 1 -1.2 6.591039998020259 20.18633214735641 16.240374887408187 -1 -1 0
1876 2 2.4 7.467418799205739 21.56741385522448 15.43664636954619 0 0 1
704 1 -1.2 9.967182193957834 21.91970031752143 18.6607753831236 0 0 0
252 1 -1.2 10.968583915623555 21.088913717915805 16.068948154584604 1 0 0
580 2 2.4 11.678619449110778 20.392610005407647 14.788999221517285 0 0 0
646 1 -1.2 15.205484071154737 19.59128451030108 16.72958145346236 0 1 -1
378 1 -1.2 17.696221961412263 19.54892238134826 16.500418326096757 0 0 -2
590 2 2.4 17.658171140506088 20.911190912775353 15.543532830968095 -1 0 0
1278 1 -1.2 19.147541401280687 21.752855445644922 15.908824642669071 0 0 0
1642 1 -1.2 21.55069512238881 20.38479147951222 15.535022056401319 0 0 0
1994 2 2.4 20.573219250654454 21.81762194260336 15.245189030151202 0 0 1
1148 1 -1.2 23.65132626696844 21.447353826740926 16.680605873134546 0 0 0
1389 1 -1.2 25.66727359085537 22.68575125353855 15.681167093664026 0 1 0
506 2 2.4 29.811605318043547 21.883352136014704 16.646760622222537 -1 -1 0
1662 1 -1.2 28.44299059634287 22.284390973433457 15.745847747898287 -1 0 0
1240 2 2.4 0.8751715768586553 23.535519034807976 14.582189114957725 0 0 0
1037 1 -1.2 2.3502723125563865 24.362209251600987 14.537119301350254 0 0 1
1101 1 -1.2 0.7195004426423749 22.677773816971285 16.003492553930343 0 0 0
824 1 -1.2 8.097976604831409 22.397832666446632 16.6644229091378 0 1 0
665 1 -1.2 10.634328658641188 23.692173630235114 16.657427917485876 0 -2 0
24 1 -1.2 13.979688129615715 22.5790536608273 15.161673644268154 0 0 -1
2115 2 2.4 14.956204687671665 22.531180435594077 16.41643359220489 0 0 0
1029 1 -1.2 15.45481226463393 24.0960281177193 16.543984332926627 0 -1 0
1764 1 -1.2 16.293320769707368 21.726422331144576 15.700293920172117 0 0 0
906 1 -1.2 21.541329897195588 23.041621624750984 15.798300275889877 0 -1 -1
1695 2 2.4 20.840904338053782 24.725915869481433 15.664141839413062 0 0 0
1173 1 -1.2 23.96077994958658 24.06468005659684 16.66361409077759 0 -1 0
1366 1 -1.2 27.031563620448527 23.587083401880477 13.479768768600465 0 -1 0
1130 2 2.4 27.072686656823336 22.101040598358196 14.689703787108476 -1 0 0
402 1 -1.2 4.403514835341517 26.389853799883465 15.116283148787234 1 0 0
158 2 2.4 5.893589255362463 26.757309953920867 15.561432280092227 0 0 0
357 1 -1.2 6.408574177425259 26.763037113103078 17.016536993894114 1 0 0
1610 2 2.4 10.52896329721179 24.87805372083328 15.491607676309824 0 -1 0
156 1 -1.2 9.380356774181605 25.15329452763676 14.461485238082426 0 -1 0
647 1 -1.2 10.675902561421438 26.266035947246806 16.237386362276045 1 0 0
2118 1 -1.2 11.887661175132846 24.572434869625255 14.318820662912657 0 0 0
1299 2 2.4 12.188255091865566 26.628242915242506 16.936223236984947 0 0 0
1989 1 -1.2 13.032477824272528 25.104425197796044 17.01662858226364 0 0 1
1505 1 -1.2 15.27346876865887 26.637609722785363 17.410476670265798 0 -1 0
1239 2 2.4 14.657700298447686 25.159480235165272 17.575183009538154 0 0 0
1416 1 -1.2 17.26273689290891 26.78413025391634 15.97693543127092 0 -1 0
363 2 2.4 18.50303815524623 26.16871960087393 15.196953004933347 0 0 0
1340 1 -1.2 19.63018782334787 27.327231567752477 15.426873696360976 0 -1 1
918 1 -1.2 19.334866211098337 24.84007863580101 15.994146817024381 1 0 0
698 2 2.4 23.39419650310244 25.343693964157918 17.26874135588547 0 0 0
1542 1 -1.2 21.857922021765354 25.716993124569044 16.572132917372727 -1 0 1
1701 1 -1.2 24.39053063032926 26.466322902774163 16.672044685260914 0 0 0
890 2 2.4 25.224210759463052 27.84487916225131 16.83955031423621 0 -1 0
84 1 -1.2 26.77973653189484 27.80837563165801 16.370774969455542 -1 -1 0
102 1 -1.2 27.02270807530421 25.6448584665925 14.828216098725992 0 -1 0
2020 2 2.4 27.84771034487191 26.579924374860763 16.19071051329894 -1 0 1
168 1 -1.2 29.20955020715597 27.16023216775366 15.837907985153992 -1 -1 -1
491 1 -1.2 27.920849120763616 25.472072596019572 17.45926546961361 -1 -1 0
2010 1 -1.2 0.9291422738737686 28.18949562403991 14.309638089442963 1 0 0
64 2 2.4 30.163422290283847 28.380028428733993 15.600332980224598 0 -1 0
477 1 -1.2 0.3183961720882667 28.890261090332956 16.985848216236462 1 -1 0
960 1 -1.2 5.950757971520967 28.276732477953004 15.086996156187867 0 -1 0
531 2 2.4 6.270965943568029 29.688574587232107 15.43757005105109 1 -1 0
1320 1 -1.2 12.799638310639073 27.658855623290574 15.914087150124473 0 -1 0
1109 1 -1.2 15.38479295854462 27.84266921703257 14.776421175817148 0 0 0
988 2 2.4 15.783927579293264 27.618478082912482 16.281424550742944 1 -1 0
837 1 -1.2 16.488867287265293 28.900376695988463 16.887323111725944 0 0 0
1159 1 -1.2 19.91777479003253 29.97536830635929 15.751031640757928 -1 -1 0
841 2 2.4 20.678151452607445 28.555949880917865 15.84459983196731 0 0 0
2082 1 -1.2 20.964437944145054 28.18178824886603 17.483736704890443 1 0 1
1796 1 -1.2 22.084766002809932 28.293220513706576 15.141087044098466 0 -1 1
1820 1 -1.2 24.53731371616048 28.780934349948833 15.428587178017155 -1 -1 1
1090 1 -1.2 29.144577104516323 29.369982379787327 14.809824702781329 -2 0 0
1619 1 -1.2 1.848483398341748 0.650742461080116 17.287135383405285 0 1 0
2039 1 -1.2 3.9748103763938847 1.9386022398029692 17.71998093844262 0 1 0
1179 2 2.4 4.299741547231474 1.1528479172138921 19.13582957871393 0 0 0
185 1 -1.2 3.056726614954361 -0.03410393112151116 18.990605801804115 1 0 0
1026 1 -1.2 4.008518522517481 2.624703816554038 20.038559608598167 0 0 0
1001 1 -1.2 5.697442509759216 0.5371625285941457 19.31299560579903 0 0 0
1868 1 -1.2 7.330299230688018 2.651965095858579 18.430511636070708 1 0 1
762 1 -1.2 9.949563989631539 1.9267631032032793 18.082353524369317 1 1 0
686 2 2.4 8.64016221427004 1.6812014138964377 18.80248764149297 0 1 -1
788 1 -1.2 8.66564937098938 1.3211674908941056 20.56853655912484 1 0 0
293 1 -1.2 12.419673853687332 0.9851453285539796 20.107462434579148 0 0 0
566 2 2.4 13.703851559552444 0.20609252773595793 19.66190823967492 0 0 0
119 1 -1.2 14.266585939408499 0.6663449625844163 18.043812823254395 0 0 -1
1019 1 -1.2 15.014664779287328 0.8700575629047317 20.440437707901737 0 0 0
23 1 -1.2 17.62555346372576 2.034796064180569 20.543745970041666 0 0 0
1791 2 2.4 26.492021447890654 1.5081051439274318 19.719762035347202 0 0 0
836 1 -1.2 25.441077004699896 2.8232281767304284 19.894301346522305 0 1 0
1556 1 -1.2 25.444842548108333 0.22754647766581615 19.589164988140283 -1 0 0
1030 1 -1.2 27.53476898727023 1.8137267298758315 18.504818650063335 -1 1 0
1472 1 -1.2 1.6076589933070007 3.1195800319264024 18.09266096785673 0 0 0
2019 2 2.4 1.490211257584254 4.2800152311533965 19.26856498399064 0 1 1
1544 1 -1.2 0.026629846492440122 4.93307131440257 18.814684621275934 0 1 0
2026 1 -1.2 4.6618296363826515 5.501767040072431 17.133931376776978 0 0 0
1142 2 2.4 8.228754176259478 4.033097886891299 18.51683064651964 1 0 0
1013 1 -1.2 8.181877006352677 4.527048126411121 20.40134092692839 0 0 0
451 1 -1.2 10.00203789921543 4.69277746533256 18.630045638541183 0 -1 0
1310 2 2.4 9.884130092131901 4.642007413973248 20.30417997054118 0 0 0
572 1 -1.2 15.627243019190342 5.538251559956254 19.621141050523335 1 0 0
2037 1 -1.2 18.04194587601013 4.9966480082391875 18.378869981684858 -1 1 1
747 2 2.4 17.372384220730808 5.822708988545135 19.780271574004743 0 0 0
858 1 -1.2 22.001781367005513 2.7197663959650424 19.936194119518255 0 1 0
268 2 2.4 22.752125461217226 4.0086503654145655 19.179005892782968 0 1 0
669 1 -1.2 23.830393254643926 4.980097386388839 19.8801839498112 0 0 0
1564 2 2.4 25.49778524692461 4.421191296862269 19.850118520851066 0 0 0
1004 1 -1.2 26.27295173544076 5.0295022371316875 18.57932328347036 0 0 0
597 1 -1.2 2.589245145073687 5.27959079485255 18.68009035077393 0 0 -1
529 2 2.4 3.168896639010354 6.3694215743618035 17.511759133544963 1 0 0
1207 1 -1.2 3.563185249015175 7.767541856263617 18.343848021550414 0 1 -1
1600 2 2.4 13.213383935273544 6.744579754923772 17.591711665122965 -1 1 0
1325 1 -1.2 11.955173662203633 6.49235599628936 18.52177236999619 0 0 -1
1707 2 2.4 11.898581269148494 6.750106841662931 20.131227453390565 1 1 0
1522 1 -1.2 14.307852216836748 7.652236324292978 18.49141297054176 -1 0 0
424 2 2.4 14.597282008822784 6.868294232532642 19.961051550381796 0 0 0
2069 1 -1.2 17.961908538867768 7.548087778930669 19.829588269079476 0 1 0
894 1 -1.2 20.355008008598773 7.691261860991011 18.126058241677203 0 0 0
601 2 2.4 21.925055452792108 6.97861562563259 18.588458182473524 0 0 -1
322 1 -1.2 22.46400710349099 7.292270961825728 20.003601320798044 0 1 -1
1640 1 -1.2 21.701140424430374 5.396118881440887 18.720577573711655 0 1 1
454 1 -1.2 25.03349458898472 7.379233885806263 20.548767293214876 -1 0 0
1082 2 2.4 23.545456845889674 7.801898014360596 21.093185451089955 -1 0 0
1198 1 -1.2 26.073660457399505 7.394455179431837 18.14338485073959 0 0 0
1322 2 2.4 25.779891291642187 8.221939441895252 19.354761872095057 0 0 0
1190 2 2.4 27.299858460604174 6.149979376066414 18.119553585059247 0 -1 0
1913 1 -1.2 28.164546219183418 6.75564792859128 19.33929364471735 0 0 0
1168 2 2.4 29.68421193403068 5.823287173472248 19.98865490977484 -1 0 0
1302 1 -1.2 4.715377144579767 9.441796349243553 20.5906164001814 0 0 0
1970 2 2.4 4.817460882635011 8.184955069234938 19.522957196028372 0 0 0
1398 1 -1.2 5.897267432551638 9.129227474927506 18.408631509585284 0 0 0
2058 1 -1.2 9.498032373987806 9.34330935796266 19.182561920300646 0 1 0
428 1 -1.2 11.193751269548612 11.088010039454266 19.700364462983384 1 1 0
1597 2 2.4 10.717251605344199 9.5191284691093 20.19466282017165 0 0 0
429 1 -1.2 17.239051049023843 10.49607307883413 17.743151961506342 0 1 0
70 1 -1.2 19.56784515411012 9.56039713738107 16.937102056177608 1 0 0
604 2 2.4 18.94147086744035 10.98545217376581 17.73104527236488 0 -1 0
1128 1 -1.2 22.659482092936727 10.13123811077687 17.7377404028333 0 0 0
1966 1 -1.2 24.847758526649187 9.171923962113606 18.65523800156374 0 1 1
1463 1 -1.2 27.00624114833527 9.177637095229773 19.90408245897739 0 0 0
1227 2 2.4 28.438769714960223 10.051035790452753 19.697083994133667 -1 1 0
754 1 -1.2 29.0764034882518 10.250721640113209 18.321268223841134 -1 1 0
802 1 -1.2 1.0091654909230083 14.471997665975016 19.940518518672505 0 0 0
325 2 2.4 1.7787029059076516 14.124001616956592 18.554062891508487 0 0 -1
935 1 -1.2 3.13978732025776 13.191587008272906 18.438282782965604 0 -1 0
1630 1 -1.2 9.016615457392009 12.513607392507154 18.535822185397258 0 0 0
1012 2 2.4 10.668566094190028 11.863410458399308 18.421027377271415 0 0 0
1525 2 2.4 8.086542268915327 13.975939354718687 18.53272142813716 0 0 0
1401 1 -1.2 11.566716965476411 13.136086255435629 18.752334583249155 0 0 0
688 2 2.4 12.63784323774778 14.17839053437592 19.447865823934276 0 -1 0
1498 1 -1.2 14.869878393913378 11.386704475752103 18.306298596623783 0 0 0
2 2 2.4 15.308397957326074 12.632964912528783 19.454659894206042 -1 0 -1
127 1 -1.2 13.934004315788407 13.365267533957127 19.534582861138787 1 -1 -1
993 1 -1.2 16.59156250623508 13.650312493447993 19.22618698920892 0 0 0
1798 1 -1.2 19.413514929247732 10.820645016875572 19.448690974885494 1 0 1
1369 2 2.4 20.456596015778548 11.829245896964267 19.903167126242746 0 0 0
2064 1 -1.2 21.26969460190261 12.596032547692442 18.346790865263827 0 0 -1
1493 1 -1.2 21.81240445915827 11.070964561901157 20.55825485830072 0 -1 0
1063 1 -1.2 23.844922330199775 12.259058834635603 17.413012498606072 0 0 0
713 1 -1.2 24.444093906724046 12.741877996453702 19.938390659014395 0 -1 0
805 2 2.4 24.808206634101154 13.284482279664532 18.41114273173725 0 1 0
318 1 -1.2 26.340949124001693 12.685534280202504 17.707804225121507 0 0 0
1789 2 2.4 27.851904072655834 13.502023490092595 17.660497215375468 0 -1 0
1722 1 -1.2 28.802514177128284 12.47050777761542 16.91362995425316 0 0 0
992 1 -1.2 1.6856800801037932 15.826750999308764 18.051940033654684 0 0 0
2006 2 2.4 3.206493326474146 16.698754080520686 18.38621244202881 1 0 0
1979 1 -1.2 4.511699369264747 15.550496340951955 18.339521070591356 0 0 0
1882 1 -1.2 6.664689448364255 14.270123319775763 17.841729871839917 0 0 0
1206 1 -1.2 7.713964402043666 14.389560142552032 20.17305931129264 1 1 0
614 2 2.4 9.611254484891086 16.231850489663618 17.311917720465587 0 0 0
1917 1 -1.2 9.414190415641514 14.942217316272497 18.216738081131183 0 0 0
1477 2 2.4 12.328622908636781 16.661402931520918 17.712997053556503 0 0 0
452 1 -1.2 13.044682530705147 15.726961530345372 18.80358230766158 0 -1 0
1747 1 -1.2 15.463720518845427 15.99307342171325 19.815691215578717 0 -1 0
1191 2 2.4 16.466333562183035 15.273640230074184 18.781227433534742 0 0 0
538 1 -1.2 17.97122040981238 15.663528777338648 18.92462768871129 0 0 0
1694 2 2.4 19.335091971489362 16.556982379863214 19.23835614961737 0 0 0
1355 1 -1.2 20.24716848354352 16.05663832962163 17.937961951674804 0 0 0
2133 1 -1.2 19.976373970495146 15.837707533208714 20.579362374589554 -1 0 0
1176 1 -1.2 24.61247787556907 14.963051888695402 18.242584381969696 0 1 0
928 2 2.4 25.16761515805392 16.372050212935537 18.71149716490272 0 0 0
1245 1 -1.2 28.209767050200885 13.877857567264513 19.24596964830244 -1 0 0
1113 1 -1.2 0.8378245396350689 18.433537640351275 17.459376967360143 0 0 0
2097 1 -1.2 3.239511495025071 17.191672037410157 19.87462609947314 0 0 0
1971 2 2.4 8.34570021972414 18.716314266593262 18.723601953341593 0 0 0
1931 1 -1.2 8.459348933494345 17.310953481705994 17.875844926932096 1 -1 0
1126 1 -1.2 9.1906162682687 19.52169336462411 17.22895987732007 0 0 0
1541 1 -1.2 9.206861412528623 18.519910809841676 20.007546505409135 0 0 0
1962 1 -1.2 13.252451798946069 17.985722967863982 17.69095102013064 0 0 0
1277 1 -1.2 10.807199662692515 16.959189405793662 17.95627246678153 1 1 0
721 2 2.4 16.209743625762197 17.535571832649953 20.162858797593586 -1 0 -1
896 1 -1.2 16.65739457184443 18.160725628799284 18.48634844211106 0 -1 0
1152 1 -1.2 19.136997173984458 18.161461737728846 19.435109742990353 1 -1 -1
1296 1 -1.2 22.554579021810248 18.97413313128587 17.949927151701413 0 0 0
965 1 -1.2 24.246284110323757 17.387841983543574 18.05534683439105 -1 0 0
1580 1 -1.2 26.623911650819252 16.806169377272617 18.23611064338446 0 0 0
628 2 2.4 29.580015030049164 18.873429218617122 17.41140844716346 0 0 0
966 1 -1.2 6.7931194048355765 19.43540042578823 18.525102871620515 1 0 0
1077 1 -1.2 5.339566072814155 21.710790637280216 18.676203506140798 0 0 1
830 2 2.4 5.74160366098367 20.349737426708607 17.724156074115474 0 0 -1
1467 2 2.4 10.277010641843104 20.60848847167135 17.43655806573328 0 -1 0
846 1 -1.2 11.756609878107545 20.129439223507827 18.185157318510857 1 1 0
640 2 2.4 13.103494632080817 21.215651108766362 18.619728911303767 0 0 0
1273 2 2.4 16.58981092989145 19.54635063153431 17.67735820267697 0 0 0
1907 1 -1.2 16.695397608954966 20.716323392084586 18.869642042770657 0 0 0
1247 1 -1.2 13.734155779524336 20.437295303077633 19.836430278771033 -1 0 0
1153 2 2.4 17.16214758655137 20.95008665313439 20.545149735665902 0 0 0
509 1 -1.2 18.315058727722853 20.003429101860192 21.05756967141697 0 0 0
679 1 -1.2 21.546458558686144 21.034021357396462 18.283986268213116 0 -1 0
337 2 2.4 22.301223538480617 20.308259272118523 16.9490899101072 0 0 0
1616 1 -1.2 28.753030171563577 18.845214265929926 18.842334078744912 -1 0 0
118 1 -1.2 29.529852416470842 21.900005375135947 20.636121930738643 -1 0 0
541 2 2.4 5.251877377500024 22.347584916407378 20.269560922144706 1 -1 0
871 1 -1.2 5.580111282051158 23.848172818562954 20.035413155750863 -1 -1 0
998 2 2.4 9.446426764343256 23.328222353670544 17.740912661508485 1 -1 0
329 1 -1.2 8.41503118959733 24.157005778002297 18.753429903589552 0 0 0
1622 2 2.4 9.02296728627327 24.42038350075816 20.26464100026052 0 0 0
1049 1 -1.2 12.408641883261124 22.424506732476686 19.722428059415506 0 -1 0
1246 1 -1.2 14.11404639374777 22.219065189564386 17.763844226972594 -1 0 0
999 2 2.4 24.670639096155032 22.606299543765953 16.930118575058643 0 0 0
1473 1 -1.2 25.559739109109326 22.62913207969683 18.450113848320257 0 0 0
764 1 -1.2 -0.10668804270454911 24.436416527435004 20.172100285438823 0 0 0
270 1 -1.2 30.032102205965078 22.706101657311414 18.11307938850969 0 0 0
1718 2 2.4 29.39553098124863 23.311925891833226 19.58117254852468 0 0 0
1805 1 -1.2 27.86603923955332 23.617167694830574 19.417517922453275 -1 -1 0
1739 1 -1.2 6.014470969660512 26.246305675576536 19.683447548170186 0 -1 0
554 2 2.4 6.839748414578132 27.242552167786155 18.68956130062355 0 -1 -1
164 1 -1.2 8.473623245920164 27.000098293502706 18.650938143811953 0 0 -1
1969 2 2.4 6.068561934306322 25.076470650313517 20.960605567084464 1 -1 0
15 2 2.4 9.443122313663071 27.089144388239504 20.192451331313404 0 -1 0
389 1 -1.2 10.201580442186259 25.57522546854998 20.44847748862589 0 0 0
1291 1 -1.2 14.574923741162417 24.809248241559047 19.11622784191863 1 0 0
39 2 2.4 18.761091268188096 26.063406902315798 20.395015495580385 0 0 -1
1005 1 -1.2 17.120517087493557 25.829714543880286 19.959371111411922 1 -1 0
953 1 -1.2 20.096472792244388 26.292853050304828 19.36932765797718 0 -1 0
1112 1 -1.2 23.2562649186641 25.309313584706185 18.883371384588006 -1 0 0
1143 2 2.4 24.524068132231516 25.131676927384145 20.018273031044114 0 0 0
478 1 -1.2 25.80706095791141 25.35900771496722 18.95110925809096 0 -1 0
1396 2 2.4 27.44774390850923 25.215840030190908 18.861404998193496 0 -1 0
209 1 -1.2 28.057540596659116 26.476006473776373 19.68051926576345 1 0 0
1371 2 2.4 0.4923651283891177 -0.07147925731103953 17.693244426482767 0 1 0
1410 1 -1.2 0.49947805648002463 30.101602619048876 19.269526915693312 1 -1 0
1025 1 -1.2 7.99431841639259 0.25521316930232735 18.474334331532305 0 1 0
532 2 2.4 6.552765080833142 30.187627933309443 18.277499069399543 0 -1 0
47 1 -1.2 6.504666090653381 28.82894184515881 18.849117608022425 1 -1 0
1409 1 -1.2 10.517483705182379 28.337111816141675 19.85231613354053 1 -1 1
1499 1 -1.2 12.108236540365427 26.908245598613615 18.57021547138192 0 0 0
1911 2 2.4 12.102255255224662 28.02935551263616 19.65141681842836 0 0 0
1184 1 -1.2 13.536483083616707 29.25594154357091 19.471574555533113 0 0 0
176 1 -1.2 17.21639030519272 30.098785907395026 19.634741643488557 -1 0 0
1777 2 2.4 17.45724896896125 29.427855159464688 18.174199703058072 0 -1 0
2154 1 -1.2 18.539359282980367 28.202781324444942 18.575626939497262 0 0 0
2080 2 2.4 20.002293915673846 27.79298167070664 18.84080119169206 0 0 1
2096 1 -1.2 20.822566060341945 29.014203556746352 19.90389562251291 0 0 0
1110 1 -1.2 25.005227737039498 28.330107636080577 18.38166347089082 0 -1 0
962 2 2.4 26.025152496024557 29.29096286091675 19.19886337983721 -1 -1 0
1942 1 -1.2 27.197297021199883 29.029004071037626 20.298182986031218 0 -1 1
53 1 -1.2 27.139380268861704 29.903468313718964 18.056214386077947 0 -1 -1
57 1 -1.2 1.6805336035144065 0.8619115518734373 20.85829345055448 1 1 0
925 2 2.4 1.4798769095871085 2.0886930830284 21.84707222596897 1 0 0
823 1 -1.2 7.538705169055715 0.8920328601498454 23.00912702233991 0 1 -1
913 2 2.4 8.865446920208978 0.43874409897332445 21.95379830306263 0 0 -1
1365 1 -1.2 10.714844828554574 0.6990622528275343 21.964015950674874 0 0 0
914 2 2.4 11.675188470998078 1.9443332685128119 21.408898835700214 1 0 0
1213 2 2.4 16.57048697452098 0.8072112647333659 20.70918411207376 1 0 1
581 1 -1.2 16.860546011414694 0.4557125740884645 22.390397212480636 -1 1 0
695 1 -1.2 21.037283206316687 0.8650266291082775 21.281159651443797 0 0 0
970 1 -1.2 24.59948320522316 0.5907130155859333 22.568034886547586 -1 1 0
1587 2 2.4 26.176973906431474 1.0732036623551848 22.48574035850258 -1 1 0
1349 1 -1.2 27.17344893486186 0.8844430885325638 21.094802822038655 -1 0 0
1655 1 -1.2 1.2466720213798197 3.578636713718278 20.8742432304827 1 0 1
863 1 -1.2 0.2886908730291935 1.9235101543202668 23.191792020241085 1 1 -1
2045 1 -1.2 3.084896707244274 2.6685971917381295 22.43414524207792 1 0 1
637 2 2.4 4.483437518058182 3.267470833975005 21.537192719915552 1 0 0
657 1 -1.2 4.291747027422218 4.9278719932488055 21.876681920133084 0 1 0
361 2 2.4 7.149575426756228 2.3722728395348844 23.269375986237346 -1 1 -1
1121 1 -1.2 6.023428254947325 3.1384932716269285 22.32936119949177 0 1 -1
1175 1 -1.2 10.816486924320778 3.3935831562676384 21.007005033307625 0 0 0
32 1 -1.2 12.674197841536476 2.6175758253105417 22.71103215194525 0 -1 -1
620 1 -1.2 18.16746463474944 4.860491096060707 20.903017954995594 0 0 0
1788 1 -1.2 17.647598893206414 2.8289426801323723 22.867998451257105 0 0 0
1659 2 2.4 18.363666887719585 3.2410771930198763 21.340753488243855 0 1 -1
496 2 2.4 21.36518315114276 2.365969058594991 21.367595945103815 0 0 0
860 1 -1.2 19.912434448595327 3.107229205331103 21.350489140171824 0 1 0
2073 1 -1.2 22.49034956769912 2.940867647574373 22.380763130951536 0 1 0
653 1 -1.2 24.68439255187187 4.356310114376422 23.46140782836134 0 0 0
1692 1 -1.2 26.544364041948523 2.7733495523796625 22.72559363394652 -1 1 0
1822 1 -1.2 25.994011052488432 4.903764928724334 21.30340407280208 0 0 0
973 2 2.4 26.20547569589786 4.244260939484999 22.80816205006627 0 0 0
1149 1 -1.2 0.49433048387935064 6.7716707692652065 20.91458530897894 1 1 0
1769 1 -1.2 3.7486957851488407 7.219808073779266 22.030644021718853 0 0 0
1910 2 2.4 5.094720902825266 6.316757756661638 21.777303922966905 0 0 0
1208 1 -1.2 5.993130474715561 6.39302345482149 23.042424159114997 0 1 0
621 1 -1.2 5.510942600610583 6.887921354283704 20.313197880488893 1 0 0
1656 1 -1.2 10.613222581914352 5.93858642585557 21.050295071342592 0 1 0
1637 1 -1.2 8.182361521304767 7.778103185289516 23.554297982100238 1 1 -1
1066 1 -1.2 13.283509142168583 6.1837947059743446 20.75684432765895 0 0 0
285 1 -1.2 15.499818231467032 7.689907491728996 21.109693350292346 0 1 -1
1765 2 2.4 17.002469092325516 8.43275666176233 20.941798083229223 0 0 0
778 1 -1.2 17.87069314535385 8.465189053285153 22.181887409250297 1 0 0
777 1 -1.2 20.740442345098813 7.1301894714193725 22.847809138952012 0 1 0
1535 1 -1.2 23.255692670165807 6.62681990983624 22.13394440728974 0 0 0
1960 2 2.4 22.172322769102443 6.59538172771146 23.352176948344955 0 0 0
1771 1 -1.2 29.142394613001578 5.385624853384988 21.392451335627218 -1 0 1
1249 2 2.4 28.90845793254586 5.308666443216424 23.159899813337756 -1 1 0
465 1 -1.2 1.7738187387598396 8.99895638145454 20.724106491859786 0 0 0
1406 2 2.4 0.4833735538430733 8.384607760771535 21.264226209584212 0 0 0
1929 1 -1.2 0.18984413421057675 8.685996417972135 22.945571200434536 1 1 0
611 1 -1.2 3.20099692229009 10.084148015535444 22.371109617688308 1 -1 0
843 2 2.4 3.3123215316044994 8.784780927949281 21.547937951196673 1 1 0
1986 1 -1.2 5.415472062424699 10.993854178410698 23.25343515495588 1 0 0
641 1 -1.2 7.616290486473289 9.944801114383509 22.206167600279233 1 0 -1
1973 1 -1.2 9.96123018209569 9.303622672156203 21.67909086240869 0 0 0
1934 2 2.4 8.95357183252904 9.12708278178371 22.956487800598055 1 0 0
715 1 -1.2 11.886662597480958 8.474407623298001 20.466860227425645 1 1 0
736 2 2.4 13.284744926577421 11.299713368082953 22.86313617690016 0 0 -1
926 2 2.4 15.800784655905371 10.738953775736764 21.528150228799177 1 0 0
885 1 -1.2 14.2196412521999 11.1851937292573 21.571982732441246 0 0 -1
1651 1 -1.2 16.358494465112027 9.740557452359937 20.30805936740896 -1 0 0
1458 1 -1.2 21.414162772339687 10.539735417525323 22.97307672265693 0 1 0
385 2 2.4 22.638653204041535 10.72619611887586 21.85378797636187 0 1 0
1378 1 -1.2 23.35961127423106 9.39360118008133 21.431927554894976 -1 0 0
371 1 -1.2 29.596152197977624 9.236532009143595 20.705992205034438 -1 0 0
367 1 -1.2 3.848428569252372 12.792211833349306 22.43967811516828 0 1 -1
1623 2 2.4 3.941293957602334 11.325721702680815 23.037759538245965 0 0 0
124 2 2.4 6.947894949189264 11.134454242550921 23.084767765134348 1 0 0
2156 1 -1.2 7.295452440581046 12.417090331488454 22.149222058132803 1 0 1
1212 1 -1.2 9.738878335065008 13.193352195884767 22.115536424231905 0 0 0
853 2 2.4 8.126686345108862 13.690228221686159 21.840686624647542 1 0 0
1294 1 -1.2 12.327335000161876 12.467406632911983 22.443602931754995 1 1 0
674 2 2.4 11.28521691513642 13.67896889568763 22.32865580987936 0 0 -1
1854 1 -1.2 11.80933152903674 14.672074651486357 20.91503829374947 1 0 0
1494 1 -1.2 16.21235124939875 12.127113028079412 20.76271287396588 0 0 0
202 1 -1.2 20.152700524671456 13.20907138736918 20.54212118922446 0 0 -1
1594 1 -1.2 23.28096852541212 12.074327103250694 22.183418670843817 -1 -1 0
508 2 2.4 23.61920901985104 13.347452196446811 21.184978140056014 0 0 0
732 1 -1.2 27.512804496663072 13.469501914350065 21.955370159862255 -1 0 -1
1734 1 -1.2 28.12099776322513 11.463819239159061 20.54597245092381 -1 -1 0
74 2 2.4 28.42567552938178 13.108191576432542 20.53690083984622 -1 -1 -1
2003 1 -1.2 29.926990399664394 12.698481180211301 20.731995016785827 0 0 0
7 1 -1.2 1.481302904624196 13.47439238654168 22.433125280755473 1 -1 -1
937 2 2.4 0.5178426877854901 13.877469587919977 21.24001473480049 0 -1 0
1404 1 -1.2 -0.09954803570076111 15.123991171794254 22.241223497711868 0 0 0
1736 1 -1.2 3.493191503226183 15.322112617720707 21.30705263602583 0 0 0
1060 2 2.4 2.996475638843743 14.26204373441799 22.564693416356608 1 0 0
360 1 -1.2 8.164806727476627 15.010417174553869 22.933124644914162 1 1 -1
2129 1 -1.2 20.778691820094625 14.836031117703985 22.829877249162386 0 1 0
1036 2 2.4 20.781559212877735 14.597295851597776 21.11231923276575 0 0 0
1759 1 -1.2 22.457559603830806 14.42038695553385 20.816673020548166 0 -1 0
1385 1 -1.2 24.671932829177738 14.45736595411178 21.997807551129146 0 0 0
49 2 2.4 24.99711562317856 16.00971547372641 21.902145206237485 0 -1 0
714 1 -1.2 26.451845329307282 16.01561344488141 22.754191975545066 1 0 0
1448 1 -1.2 25.287353414902437 16.454273106144885 20.410907186095386 -1 0 0
1205 1 -1.2 1.4774021846184004 17.23154661828934 21.911855274051476 1 0 0
976 2 2.4 3.037636431023182 17.001534015236047 21.325299674280437 1 0 0
1953 1 -1.2 3.8356980749362184 17.739789209312065 22.509013216384346 0 0 1
878 2 2.4 4.869103770656254 19.108387522987368 23.1227201257647 0 0 0
1507 1 -1.2 10.460429476061377 18.854138677711955 22.372316494684227 0 0 0
1155 2 2.4 12.076933550651175 18.358859822384964 22.898179208822295 -1 0 0
1697 1 -1.2 13.149457168739705 19.270663518367023 21.82514827786873 0 1 0
617 1 -1.2 15.025312605773397 18.364882201031705 20.850125008866353 0 0 0
2128 2 2.4 18.595315634744914 18.345279023297167 20.99203508771164 0 0 0
1356 1 -1.2 17.192190639117594 17.448307623281735 21.471660366797206 0 -1 0
1614 1 -1.2 20.04488561752467 17.816329829979296 21.815791735977644 0 0 0
416 1 -1.2 22.24103632214319 18.956133188965836 22.641480604554268 0 0 0
589 2 2.4 23.880384915837652 18.761038639017286 22.773909654305317 -1 0 0
1520 1 -1.2 24.230004066415923 17.22670793298135 22.89700370326593 0 0 1
1283 1 -1.2 24.802365884438405 19.10101167137001 21.19912698432446 0 0 -1
1180 2 2.4 29.060070906916355 18.491231085362653 20.418283766567438 -1 0 0
1443 2 2.4 -0.0530347000567101 16.789525884124373 22.11054157704295 0 0 0
1617 1 -1.2 29.561007003867733 17.047519080560853 20.585028081146554 -1 0 0
1613 1 -1.2 29.369743842836396 17.52574922563449 23.13000782493788 -1 -1 0
54 1 -1.2 1.3620975317408683 21.173515038877103 21.957994542779105 1 -1 0
401 1 -1.2 3.531432156984731 20.008323219786185 23.35536629591853 1 0 0
359 1 -1.2 6.134857961428702 19.278407443849424 22.02921168182776 0 0 0
1335 2 2.4 6.987453800633066 20.737760938323383 21.99745598507318 0 0 0
659 1 -1.2 6.851010150808608 21.67385320720475 20.713637664719673 -1 -1 -1
664 2 2.4 9.68344367324668 19.73233432903483 21.21111566836234 0 0 0
1869 1 -1.2 8.47812337792792 20.19005176722516 22.228915411410092 1 0 0
214 1 -1.2 10.542542030421323 20.927524086259762 20.519017457399027 1 -1 0
1958 2 2.4 14.40003078208422 19.826775858390498 21.217459391791387 0 0 0
1044 1 -1.2 15.81775183106223 20.62805000047584 21.577748058817306 0 0 0
844 2 2.4 21.6294291007433 21.244548707187608 19.780175249413944 0 0 0
101 1 -1.2 21.281289367613287 19.859573495581174 20.615160851575986 0 0 0
1238 2 2.4 20.813793304349296 19.25940499858573 21.946501593288943 0 1 0
1146 1 -1.2 20.188677655046618 20.145289668040057 23.198771252184375 1 0 -1
1676 1 -1.2 23.439376781002565 21.664258321941006 20.18964704858828 -1 -1 0
2122 1 -1.2 26.361288841889554 21.31265452195421 20.51910716150104 0 0 0
1562 2 2.4 26.515402270326348 19.736557626117385 21.4033980427066 0 0 0
1282 1 -1.2 27.50179427488521 18.61739331834304 20.84799714141925 0 1 0
1800 1 -1.2 30.151680499981996 19.47910957773283 21.082784715264545 0 -1 0
613 2 2.4 30.17475432717817 20.979641483988456 21.79417121431805 0 -1 -1
81 1 -1.2 29.852211242516493 21.14422435151777 23.391843930169035 -1 0 0
696 1 -1.2 1.7966695652544418 23.49527610927634 21.811219415064098 1 0 0
735 2 2.4 2.5691690522068193 22.26691279893062 22.37762587347057 0 0 0
2152 2 2.4 0.6621006136669227 24.60462792398205 21.632513490064948 1 0 0
142 1 -1.2 3.946472957832902 22.10843625366278 21.351675794979506 1 -1 0
1017 1 -1.2 7.7056504210809855 24.571182703338643 20.884977704170076 -1 -1 0
1135 1 -1.2 10.15177583348293 23.434406119478922 20.973880053571058 0 0 0
160 2 2.4 11.321190724561925 22.21823147740569 20.923660480273885 0 0 0
932 1 -1.2 12.081755258541293 21.870043796074825 22.370767045081273 1 0 0
1428 1 -1.2 15.271268328164917 24.450711468772866 21.5484145410739 1 -1 0
1315 1 -1.2 17.742638579473955 22.345276217946413 20.721307641755985 0 -1 0
237 1 -1.2 19.521031323511938 23.063456175475196 22.714987253875332 -1 0 0
1459 1 -1.2 19.105795517647547 24.461175737285526 20.47121818379291 0 -1 -1
672 1 -1.2 20.429725426377207 22.215530497389466 20.445094266853307 0 0 -1
1528 2 2.4 19.254090129206844 22.99187224950016 21.130312251085346 0 0 0
374 2 2.4 24.950399116527272 22.12094501278088 20.045988845568058 0 0 0
776 1 -1.2 24.677127036546572 23.720229723458306 20.71149976459519 -1 0 -1
825 1 -1.2 30.077607797801488 25.00934647633521 22.876837366577682 0 0 -1
1784 1 -1.2 1.5147751302796688 25.971304626232993 21.13733585258844 0 -1 1
193 2 2.4 2.100266231883041 27.458627227823676 21.82894261849816 1 -1 0
1838 2 2.4 5.144819387695758 27.091309863069018 23.020998605423795 1 0 0
743 1 -1.2 3.5220395687093107 27.18232360877521 22.332232676683113 0 -1 0
474 1 -1.2 5.409637755721933 25.64258452480754 22.217510959943002 1 -1 0
560 1 -1.2 8.401412351303964 27.085672846697186 21.480185556571417 1 -1 0
2106 1 -1.2 13.853005610710678 26.358921543882733 23.02948700431845 0 0 0
1858 1 -1.2 12.671876012270527 27.316429687577152 20.980122180728905 1 0 1
171 2 2.4 14.101187954104317 27.141430826756444 21.75957840920426 0 0 -1
1778 2 2.4 15.696253308429391 25.408552672990897 20.329315359437285 0 -1 0
1999 1 -1.2 15.071623242465249 26.869141082944754 20.544835494482296 0 0 0
232 2 2.4 14.611760002458935 24.92446286705357 23.052543589899283 0 -1 0
344 1 -1.2 19.160996752667725 27.217127572320475 21.506631492187758 0 0 -1
811 1 -1.2 24.155539887920416 26.142486288915745 21.391655995250083 -1 0 0
304 2 2.4 25.046128410939744 26.78235236232931 22.59020213819166 -1 -1 0
1939 1 -1.2 26.60336058276334 26.828678833418103 22.006360238915082 0 -1 1
855 2 2.4 27.65372525313446 27.470322242714907 20.94372888085973 0 0 0
1022 2 2.4 1.894156438244706 29.99679315371223 20.085973069890777 0 -1 0
1199 1 -1.2 2.0981668421679505 28.36154232340904 20.272527448481775 0 0 0
126 1 -1.2 1.0464656798085787 28.361595929534413 22.643260131060696 1 -1 -1
2134 1 -1.2 6.174449605020667 28.03826115573202 22.270302824968976 0 1 0
519 2 2.4 8.009106356383121 28.03976506057553 22.551156712255008 0 -1 -1
1738 1 -1.2 8.962703499417865 29.362038169522638 22.493278670204237 -1 -1 0
2120 1 -1.2 14.585131626353949 28.621417310009253 22.219632421289507 0 0 0
1088 1 -1.2 17.50404606994016 28.36929507053604 23.509953618029996 0 -1 0
616 2 2.4 19.112811290563137 27.852702705607705 22.925667133178234 0 0 0
1959 2 2.4 21.062160232760267 29.71834601466756 21.44740018266093 0 -1 0
2051 1 -1.2 19.870415710133248 29.186214755404915 22.622594765516936 -1 -1 1
1073 1 -1.2 22.205744858395715 29.500595466972083 22.587390998159865 0 0 0
1492 2 2.4 23.87364266354214 29.722278348994838 23.01760595140313 0 -1 0
235 1 -1.2 24.68970335074334 28.557665979906616 22.410012716834235 -1 0 0
1905 1 -1.2 28.913297422423465 27.88622934961383 21.889623751653343 -2 0 0
1503 2 2.4 29.769730202318822 28.317865031769912 23.220515089746154 0 0 0
1834 1 -1.2 3.9103275732588387 1.3301985050340004 24.710396974581 1 1 0
459 2 2.4 4.2323876865014345 -0.006891979509271536 26.03721506852099 0 1 0
668 1 -1.2 6.444618035343958 2.587571857012637 24.717330840104623 0 1 0
1079 1 -1.2 13.919509660748401 0.5475400169147484 23.94965846846955 0 0 0
99 2 2.4 13.71403949191627 2.1418276864597465 23.89535104388424 0 0 -1
217 2 2.4 18.24313574411469 1.2229893655918214 26.024945518874436 0 0 -1
251 1 -1.2 17.335656256714746 2.437016499935199 25.44263565425961 0 0 -1
151 1 -1.2 19.90320346768544 0.8376765033988433 26.21658627622063 -1 0 -1
1998 1 -1.2 26.964226019697072 0.23765594915870983 23.398034288409935 0 1 0
335 1 -1.2 27.569349473466882 0.7857736038073755 25.854448525249232 0 1 -1
370 1 -1.2 0.40533664086701776 2.9438006516452218 25.841618513316877 1 1 0
1139 1 -1.2 1.5677721337980146 4.444504328601518 24.187395637360087 0 0 0
387 2 2.4 0.48141111888987875 3.341765648274152 24.338665717822213 0 1 -1
61 2 2.4 4.866534497500836 2.7855112328317344 25.115044744837775 1 0 -1
1745 1 -1.2 4.298831026421291 4.251340309065947 24.775677550508792 0 -1 0
1915 1 -1.2 8.791965263553271 2.993679000475211 23.358954609774546 0 0 0
13 2 2.4 8.762816038653657 3.910190018351699 24.892381550098015 0 0 -1
1908 1 -1.2 10.484790413550833 4.17034777004196 24.961601851828778 0 0 0
1709 1 -1.2 13.071449515648766 2.8713754859743723 25.331300515470282 0 1 0
2032 2 2.4 11.948202162666767 4.165158888227794 25.489890868780083 0 1 0
1818 1 -1.2 12.529506717768722 5.641004921939478 25.080392531615214 0 -1 0
2057 1 -1.2 15.191408736184844 2.7242783088153715 23.833212134506127 0 1 0
1403 1 -1.2 16.541772649932245 4.80725031925699 24.438474427007044 0 0 0
2126 2 2.4 16.84554377267951 3.278200873033817 24.178025975477354 0 1 0
1839 2 2.4 23.298303454580875 3.719230322799422 23.988871077427923 0 0 1
1450 1 -1.2 23.669818664239603 3.109143981850552 25.43042738001498 0 0 0
1627 1 -1.2 27.272760024265022 5.1399078337611455 23.538966006806948 -1 2 0
2027 1 -1.2 29.546918713427782 4.033770040033652 23.542018939220124 -1 1 0
1938 1 -1.2 0.9081478284881277 8.048945777808413 25.24193674696045 1 0 1
1141 2 2.4 2.9061102274737025 5.069874734361718 25.09345529299004 0 1 0
827 1 -1.2 3.0441178423236037 6.8057045832492005 24.945557997911553 0 1 0
1308 1 -1.2 7.986247907631048 5.246932646713946 24.228969136643816 0 -1 0
1816 2 2.4 7.183383371367439 6.657740553829037 24.190549455268563 0 0 0
623 1 -1.2 12.117800726890879 8.12905274309424 25.27864695651435 1 0 0
786 1 -1.2 16.321292847024388 7.131280203379313 25.396301543326654 1 1 -1
1923 2 2.4 17.630670888143303 6.044372203344324 25.205323842332444 1 0 0
1665 1 -1.2 18.351356126038052 6.583184822488729 23.73432256618673 0 1 0
1491 2 2.4 19.21772335972448 7.768436925587756 23.100684806036064 0 1 0
29 1 -1.2 22.425181629752885 5.074730166049035 23.94585268792961 0 0 0
1181 1 -1.2 22.80071500770276 7.875175791496742 24.27202968644466 0 0 0
189 1 -1.2 29.401962297887707 6.711853026817216 23.631599422586465 -1 0 -1
1540 2 2.4 2.3489451711022906 8.048752467315927 25.89295839766155 0 0 0
1350 1 -1.2 3.202143153796854 9.484383299340788 25.68856669635782 2 -1 0
1028 1 -1.2 5.423515902425758 10.477487638077408 26.18942139826739 -1 0 0
1880 1 -1.2 6.343870247333773 7.076865438864481 25.44725792931839 -1 0 0
2060 1 -1.2 9.934982051446221 9.385839192897517 24.345694144739365 0 0 0
707 1 -1.2 12.746861489116728 9.9087745811447 23.391376486235608 0 0 -1
1083 2 2.4 11.578644790971136 9.608494795264955 24.500205917803747 -1 0 -1
924 1 -1.2 11.982163502210518 10.835907426767386 25.47495133607804 0 0 0
1487 1 -1.2 16.090161927655632 10.200962700877698 23.25486202840997 0 0 0
1842 1 -1.2 15.388223780665966 10.57790056711903 25.901143284084995 1 0 0
1265 1 -1.2 19.42782198276527 8.89957572720971 24.272469910903883 0 1 0
1768 2 2.4 20.332677762094303 10.200325798533093 24.089625854984778 -1 0 0
1926 1 -1.2 21.419710477549 10.098893021766884 25.436503603269106 0 0 1
1321 2 2.4 22.85201983555118 9.264681376414211 25.095173228524924 -1 -1 0
68 1 -1.2 24.07324922997191 10.407408621273257 24.77231844826201 0 0 0
1147 1 -1.2 23.504786002441083 8.73476179991623 26.461421269929023 0 0 0
55 1 -1.2 26.520985271457032 10.356155972236907 25.732487290845533 -1 0 -1
951 2 2.4 30.027124415962927 8.079825221613776 24.324038353155505 0 0 0
1819 1 -1.2 28.661187277420787 8.691917271453065 25.246800388829648 0 0 0
314 2 2.4 28.05968610418238 10.215377288801466 25.372042916626416 -1 0 0
1766 2 2.4 3.906531100432781 10.912344765564447 26.000602951585424 0 0 0
1809 1 -1.2 3.372231578619451 11.846882268505768 24.74185533530756 0 0 0
2050 1 -1.2 4.758324064032422 13.541578976304104 25.833928893726597 1 0 0
1103 1 -1.2 7.861673518262774 11.189122317554599 24.519890104701513 0 0 0
242 2 2.4 8.376912817674837 12.232050614689026 25.62616722948774 0 0 -1
1400 1 -1.2 8.51663564381235 13.759742332331733 24.972982987861666 0 0 0
902 2 2.4 15.715650369488865 11.276313699042374 24.530898974555868 0 0 0
1712 1 -1.2 14.493234941693203 12.0235449964043 23.875588026286845 0 1 0
2034 1 -1.2 16.958806965080665 12.231482982997461 24.92043205937673 -1 0 0
1479 2 2.4 18.575842010848895 12.76803520240814 25.096901013807997 0 0 0
108 1 -1.2 19.322435929307815 11.524439499873347 24.317331699756256 0 0 -1
1096 2 2.4 25.40433218316795 11.401155917561283 24.918928666131432 -1 0 0
612 1 -1.2 25.884513052628442 11.956913074628607 23.460870138653693 0 0 -1
1648 2 2.4 27.330257333107763 12.647542086925165 23.42147489685107 1 0 0
718 1 -1.2 25.098502979296757 12.593701204683024 26.208047947172744 0 0 0
1865 1 -1.2 28.293485573162005 11.427093606956388 24.20729806213847 0 0 1
1903 1 -1.2 3.451761031851935 14.785473998681772 23.99384706000099 0 0 1
291 2 2.4 4.860216937258644 14.91577016397908 24.765784227626693 0 0 -1
1581 1 -1.2 6.115817332927 15.025574329868904 23.87243155792158 1 0 0
207 2 2.4 7.700878426442223 15.156000577590152 24.385481958688874 1 0 -1
1904 1 -1.2 8.113196714978278 16.488249700531277 25.117663623844148 0 0 0
1680 1 -1.2 10.814442976681681 16.777040968116374 25.62241701166158 0 0 0
1485 1 -1.2 11.601947352929686 14.52064594188355 23.70956287782513 0 0 0
1874 2 2.4 12.211828041097837 15.97984611063472 24.476060717010945 -1 0 0
893 1 -1.2 13.09694257957311 15.574092387255357 25.818432380812222 -1 -1 0
775 1 -1.2 18.599484855156547 14.36525176839777 24.369841028932786 0 -1 0
1886 2 2.4 20.044995478643802 15.01956646606188 24.419101861608034 0 0 0
643 1 -1.2 20.784543384649158 14.580219940967387 25.710431488935285 0 0 -1
1038 1 -1.2 25.1954125986146 15.326706886334085 24.995206861562224 0 0 0
676 2 2.4 26.761159902662303 15.642488790496278 24.16092280651597 0 0 0
609 1 -1.2 27.244956679701623 13.99971159527364 24.264400757677063 0 0 0
2157 1 -1.2 5.476990716332466 18.769533734735663 24.760773961056007 1 0 0
1956 1 -1.2 13.01111475537438 16.859401367122295 23.117420962571018 0 0 0
1338 1 -1.2 12.0661569731261 18.952099643599336 24.39622153385526 0 -1 0
105 1 -1.2 14.337620118600558 18.937362895357303 25.465330226120784 0 0 -1
1468 2 2.4 18.640267184479484 17.68890252324963 25.750455506165938 0 0 0
1857 1 -1.2 17.04949524317049 17.98525063743171 25.33510620995585 0 0 0
833 1 -1.2 19.27494994291688 16.34989818169281 25.00971323040683 -1 1 -1
790 1 -1.2 24.50598912309462 17.479585644151513 26.430720726828408 0 0 0
738 1 -1.2 -0.12335006431096104 17.789837481583852 25.659651977099976 0 0 -1
1866 1 -1.2 27.823686051899365 16.574060330510132 25.10829320762261 0 0 0
1873 2 2.4 28.782297493643096 17.79439966201613 24.735612104835063 0 0 0
273 1 -1.2 28.027198270321172 19.336371365763124 24.518133964039126 -1 0 0
246 1 -1.2 2.509830051137021 20.609489471742318 25.737169301087718 0 0 -1
1309 2 2.4 3.4238941127472664 21.24979827564054 24.52157712904919 0 -1 0
995 1 -1.2 4.79942945996855 21.884739202437377 25.160637669961126 1 -1 -1
934 1 -1.2 6.535979053752942 21.537201888705134 23.270640449977027 1 0 0
347 1 -1.2 7.364996117396401 22.113754254120682 25.793679387578692 1 0 -1
494 2 2.4 12.856043275950404 19.805353026335652 25.50393796735878 1 -1 0
2132 1 -1.2 13.245959420170776 21.43548851932016 24.940269686302805 0 0 0
94 1 -1.2 19.389096520648287 19.17501340624169 25.47026721092909 0 -1 -1
1513 2 2.4 20.37882284918098 20.270199651888387 24.75959180034443 0 -1 0
840 1 -1.2 21.82376855873167 20.33540640905073 25.339922792482202 -1 0 -1
131 1 -1.2 19.806599263904797 21.833908618799438 25.15281809042621 0 -1 -1
1735 1 -1.2 24.202759094963454 19.604011955403198 24.11600848156117 0 -1 0
1813 2 2.4 23.4318201832488 20.661680660912612 25.281427897239382 -1 0 0
1776 1 -1.2 23.917187090688405 20.215541951352456 26.78065578989204 0 0 0
296 1 -1.2 27.219320354004115 20.69432276970832 22.601769041066635 -1 0 0
2054 2 2.4 28.184216579876093 20.804387986164304 23.82754701677989 1 0 0
971 1 -1.2 28.097868079421936 21.872080908625385 25.16478686622639 0 0 0
1392 1 -1.2 0.5600782774902998 25.306200629155672 25.389263651586294 0 0 0
79 1 -1.2 2.74360476371824 22.63135259150956 23.92781886749151 0 -1 0
375 2 2.4 6.211513793030316 22.410561491166067 24.640207169974065 0 0 -1
810 1 -1.2 6.591989971514412 23.915936707717666 24.331889442862078 0 0 -1
183 2 2.4 6.372879329007068 24.767220743227018 25.782143698300548 0 0 -1
575 1 -1.2 11.321502383218501 23.237542719647696 24.513532796110354 1 -1 0
14 2 2.4 12.744748314917473 22.5321220523445 23.78011242442217 0 -1 -1
312 1 -1.2 13.973165860209889 23.58367639998314 23.521224162649883 0 0 -1
1546 1 -1.2 15.895342369467238 22.933753355867715 25.712550781911546 0 0 0
1850 2 2.4 16.70742590451873 24.377294279858756 25.31296270801296 0 -1 0
835 1 -1.2 18.416653650981267 24.078007106352572 24.850027303490016 1 0 0
602 2 2.4 19.71778495805106 23.15484716207579 24.284657835072178 0 0 0
431 1 -1.2 21.023732087367236 24.24831311792737 24.485782789830218 0 0 -1
1976 1 -1.2 23.725127334379525 22.129230285825216 24.947649433707753 -1 0 1
662 2 2.4 24.366978578393436 23.294678656074687 26.026569866915022 -1 0 -1
274 1 -1.2 25.95440944577961 23.293703651508736 25.869287918230967 0 -1 0
1947 2 2.4 27.740885579355496 23.238450104365388 25.979354171393965 -1 0 0
1641 1 -1.2 2.1026075906421973 27.193406798090045 25.641337986609823 1 0 0
75 2 2.4 1.2167321904611672 26.3189222886391 26.526694492766993 0 -1 -1
2088 1 -1.2 4.977536535640946 26.636849621438735 24.6142270435757 1 0 -1
1046 2 2.4 3.7238625803545315 27.646182370697282 25.538717504837287 1 0 0
1599 2 2.4 8.226840511182186 27.317863864387377 25.524587365786957 0 0 0
2000 1 -1.2 7.027298219867465 26.285014837058156 25.709850409529874 0 0 0
179 1 -1.2 8.020810563534631 27.318904782247518 23.93828294448395 0 -1 0
31 1 -1.2 11.590914624523103 25.388918930037818 26.024638556604547 0 -1 -1
1737 1 -1.2 16.177301730638266 25.042654826884004 23.84040590770105 -1 -1 0
287 1 -1.2 13.89838829842722 26.641311197798906 26.133534583613237 0 0 -1
1849 2 2.4 20.71844389105161 25.707639223228146 25.17365666845338 0 -1 0
1571 1 -1.2 19.935506611200918 26.95449050010669 24.066721669375973 0 0 0
1832 1 -1.2 24.722264014649223 25.897879249878006 23.772273130442926 0 0 0
1856 1 -1.2 22.350408229567325 26.49076835409247 24.931646772093206 0 -1 0
1300 2 2.4 23.83767607765261 26.23995302733168 25.168036862129945 0 0 0
1253 1 -1.2 23.666918930934695 24.65193350174015 25.566459683030853 0 0 0
332 1 -1.2 28.19938026859097 24.391699633160474 24.87545285588487 0 0 -1
303 2 2.4 29.684153447007677 25.29503358439564 24.52370971259496 0 0 -1
1421 1 -1.2 29.392801655800533 27.11411049661219 24.225682082639242 0 -1 0
882 1 -1.2 3.9272580043603638 29.18632295136742 24.980669382615783 1 0 0
870 1 -1.2 13.0920246657755 28.763001172487563 24.55408651925095 -1 -1 -1
1859 1 -1.2 15.676670413742215 29.50956339281355 24.59544373562973 0 -1 0
2068 2 2.4 14.373872904133137 29.38716162116561 23.708326443394046 1 -1 0
1888 2 2.4 16.97491060844006 29.933511645729073 23.621476121374013 0 0 0
1411 1 -1.2 18.170525969970356 0.2628580904077535 24.68910871738065 0 1 0
1687 1 -1.2 24.67151107949834 27.192910270773517 26.134711136498467 0 0 0
922 1 -1.2 24.087029130007824 29.301082229411964 24.6168187237552 0 -1 -1
445 2 2.4 25.14746371622237 28.85809155867161 25.831263678551178 -1 -1 0
1268 1 -1.2 26.590046479363632 28.648048025497285 25.15643780843635 -1 0 0
1323 2 2.4 27.716327518922355 30.094841169606283 24.651752780217464 0 -1 0
804 1 -1.2 29.191515393177593 29.584504783977522 23.866902118934693 -1 0 0
1547 1 -1.2 0.5897140188209604 1.2334162685327543 27.989027488432928 0 0 0
1215 2 2.4 1.5894270027580044 0.11530164656784853 28.196117624710848 0 1 0
1785 1 -1.2 2.929090523367925 30.369813759103685 27.196874011414362 1 -2 0
213 1 -1.2 8.256588540511991 1.1957175544763143 27.0428668815829 1 1 -1
349 2 2.4 8.61346711200649 2.783504527145027 27.762425012025528 1 0 0
1517 1 -1.2 10.200512733946416 2.76571526107079 28.293139022347003 -1 0 0
873 1 -1.2 15.214281646458062 1.3015785161031146 27.724961569160318 -1 0 0
328 2 2.4 14.650721443039666 30.305766180756446 28.13642965474728 0 0 -1
889 2 2.4 16.67357287640306 2.0893351829535995 28.214344336049543 0 0 0
546 1 -1.2 17.952535830605637 1.2070322638777349 27.551429736050867 0 0 -2
1729 2 2.4 20.898574268572112 0.05964189017837014 27.359597619498693 -1 0 0
1230 1 -1.2 20.98269484028835 1.2754667642424966 28.6033884599319 -1 1 -1
1639 1 -1.2 23.448308862766282 2.318753817874307 28.279634822436844 0 1 0
133 2 2.4 22.577369383072032 0.9999244969348605 28.76809983399413 0 0 0
1195 1 -1.2 22.564511651962984 30.370593907406633 27.432735780665105 0 0 0
955 1 -1.2 25.724683679750168 2.0090124095113806 26.69245728754669 -1 0 0
256 2 2.4 26.58856882384048 0.6791938362314573 27.09922859867376 0 1 -1
990 1 -1.2 26.868695310571464 0.6074703470860927 28.658686857465565 0 0 0
241 2 2.4 0.8224503630759024 2.801337954226968 27.505936128005757 1 0 -1
1930 1 -1.2 2.0223805127292547 3.4318417308133977 28.674868517086995 1 1 0
727 1 -1.2 2.7702655981215543 5.0517616188341234 26.551125753338493 0 0 0
266 2 2.4 2.9939339700983756 4.556381096075013 28.103926380256894 1 0 -1
680 1 -1.2 4.63341053679577 4.3596219790506465 28.589867296917614 0 0 0
1650 1 -1.2 5.013440974378123 2.6561247217831525 26.793687169505027 1 1 0
1311 2 2.4 5.632292988376723 3.072528996006025 28.290445342078158 0 0 0
1748 1 -1.2 7.248784489980512 3.1128679694676493 28.83235586964832 0 0 0
11 1 -1.2 8.212659845458358 3.683330808481988 26.425785020569485 -1 -1 -1
1287 2 2.4 10.93588841785149 4.220741506304593 28.53693210901027 1 1 -1
2023 1 -1.2 10.059716146159824 5.543120181581401 28.75837200651278 0 1 1
536 1 -1.2 11.837869126742477 4.22120685247397 27.13604124951755 0 0 -1
1943 1 -1.2 16.259528236766602 3.7484468838174116 27.994457326934313 0 1 0
1814 2 2.4 17.2194565963074 4.892287570631993 27.777521006143317 0 0 0
1719 2 2.4 24.302674582866917 2.743224928317914 26.937386331554794 0 1 0
2067 2 2.4 24.4963673518937 5.387746705231662 28.59035904193499 0 0 0
1763 1 -1.2 24.66439627191497 4.41171519572817 27.234312168028517 -1 0 0
1918 1 -1.2 26.032139601772045 5.887858673855118 28.744667339183984 -1 0 0
545 1 -1.2 29.87799161554909 3.6054072976030014 28.32218149027135 0 -1 0
1810 1 -1.2 2.506189718866342 5.652999872565787 28.99916642755231 0 0 0
875 1 -1.2 6.200242808877735 7.775336664214923 28.1023951559324 0 -1 0
1358 2 2.4 7.213370365012909 7.763052803503359 26.855833331663746 0 0 0
1068 1 -1.2 8.635478130790068 6.853452470613051 26.899202506915785 0 0 0
146 2 2.4 9.965181882321337 7.0836840666963194 28.126633364440355 0 0 0
1922 2 2.4 12.645406292161045 6.9209613290673735 26.04789688345982 0 0 0
1255 1 -1.2 11.72706086102898 6.987305445239865 27.617025522367527 0 0 0
525 1 -1.2 14.153634682449225 7.2668437171214 26.417001944592545 0 1 -1
856 2 2.4 15.698048345858286 7.377705824008956 26.90520526412332 0 0 0
1618 1 -1.2 16.359376549569852 6.202122106372223 27.662507366417092 0 1 0
1376 1 -1.2 18.277336470300146 5.447867150610406 26.504170098772313 0 0 0
1746 1 -1.2 21.16847091949987 8.08162926095017 28.039799623672486 -1 0 0
897 1 -1.2 23.618060948748976 6.6287920387397445 28.045442601148746 -1 0 0
1720 2 2.4 22.85333003012406 8.077406787730906 27.955015767949 0 1 1
492 1 -1.2 2.432915160413422 8.318254769917083 27.5817128145379 0 0 -1
1059 2 2.4 1.6559158456773024 9.281685001695337 28.876464901661908 1 0 0
480 1 -1.2 0.2910312567300048 9.53656729929816 28.18596743870435 0 0 -1
959 1 -1.2 7.7658935959106445 9.464836539130527 26.963959075951117 0 0 0
1348 2 2.4 6.714832116454508 10.693081733610855 27.28138786673516 0 0 0
820 2 2.4 15.973579821247899 10.246577523042909 27.329464624395147 0 1 -1
390 1 -1.2 14.929716428647405 10.401963996639722 28.654090399952086 0 2 -1
501 1 -1.2 16.409674131123428 8.695711088728094 27.50029415919606 0 0 0
294 1 -1.2 19.611614458711408 10.448487416297578 28.01559566877662 -1 1 -1
1395 2 2.4 20.21996962720937 9.333759682552603 28.933217576589016 0 0 0
1916 1 -1.2 23.095087635142463 9.22742603036645 29.083975154052773 -1 0 0
1431 2 2.4 24.675176762057923 10.007794129519485 29.386477492605913 0 0 0
377 1 -1.2 25.976728517420923 9.055816427241721 29.064700435666953 0 1 -1
1425 1 -1.2 3.41955245028823 11.739035665284176 27.342126496100974 1 0 0
1576 2 2.4 3.606869703992457 13.289626584242558 27.182432008753704 1 0 0
920 1 -1.2 4.996745038495818 13.777442507365956 28.452266018171546 1 -1 0
1808 1 -1.2 7.28863160331441 12.449535587833607 26.872878119580808 0 0 1
1955 1 -1.2 6.183350652556396 11.521245379403016 28.79803383658939 0 0 0
697 2 2.4 6.495108312065507 13.052312953731374 28.25456873454209 1 0 -1
1440 1 -1.2 9.74746490506122 11.989407872766423 26.157083494608877 1 1 0
1961 1 -1.2 11.111222212428167 10.898293592318254 28.20238424121466 0 1 0
1982 2 2.4 11.346280418894432 11.662854276036633 26.730543544014434 0 0 0
1723 1 -1.2 12.284518415425689 13.009165854661008 26.454289472410956 0 0 0
475 1 -1.2 17.197705890702323 11.229802036013124 27.969355744383453 0 0 -1
1604 1 -1.2 18.868761255347415 12.846335434196796 26.65034729693489 0 0 0
182 2 2.4 18.670094924690584 11.71795619578272 28.120204412876483 0 0 -1
1559 1 -1.2 18.99150504319982 12.835689698892352 29.27577701821458 -1 0 0
438 1 -1.2 22.417074911378275 12.716866749430917 27.296479342928418 -1 0 0
626 2 2.4 23.969420750133324 12.443393914282645 27.37281056961926 0 0 -1
848 1 -1.2 24.445106384470186 13.365041619615296 28.93323441015588 0 1 -1
968 1 -1.2 24.566323243186346 11.150774256720789 28.169239929222865 0 0 0
543 2 2.4 29.29580626176367 10.570749166618405 28.294887536049103 0 0 -1
645 1 -1.2 28.989517807002258 10.878361368581078 26.785495967875946 0 0 0
983 1 -1.2 29.642076453564496 12.083660173660213 28.97164328704911 -1 -1 0
1527 2 2.4 1.8225693273709869 15.298195986110391 28.32092952205022 1 0 0
1137 1 -1.2 1.0857950266137202 14.150574317746441 29.01183863339009 1 0 0
921 1 -1.2 0.8831988751562101 16.225411620145497 27.53435082069926 1 0 0
178 1 -1.2 5.02299243915957 16.158941456643383 25.74997491660495 1 0 -1
2035 1 -1.2 2.7534529440479263 14.628865346666599 26.97006788242363 1 0 0
1280 1 -1.2 7.541531911487628 14.134429785204944 28.87482352752297 1 0 -1
627 2 2.4 9.390529622944973 16.512126382217573 26.334503392349855 0 0 -1
1848 1 -1.2 9.184618179872873 15.0461896784065 27.184386851319204 1 0 0
181 2 2.4 9.196757685938724 14.244443453567202 28.661928824069278 1 0 -1
1032 1 -1.2 11.308525693716858 15.5422813218738 27.69218309098908 0 0 0
1465 2 2.4 12.67823054185757 14.555161146448135 27.203731889646647 0 0 -1
2011 1 -1.2 13.83152803680219 14.60885684270512 28.2476114284734 0 0 0
862 1 -1.2 21.20617094618526 14.523420471455841 28.487122801399604 0 1 0
165 1 -1.2 18.72434445809156 15.36031369195487 28.86050800260456 0 0 -1
748 2 2.4 19.894194827931507 14.256087617737828 29.376221835661312 0 0 -1
484 2 2.4 21.82090313411775 14.30603280260498 26.95108771280428 0 0 -1
537 1 -1.2 23.257543039327253 15.328342243127183 26.82678862035913 0 0 0
1831 1 -1.2 25.696329847065297 16.13330253008444 27.886110881688317 0 0 0
1058 2 2.4 0.21896215417697798 17.653569244915214 27.17127269529661 1 0 0
323 1 -1.2 1.49777655369359 18.745867995051956 27.442272103813817 0 0 -1
1418 2 2.4 5.033370913426464 17.76639019878349 26.032773869639634 1 0 0
821 1 -1.2 4.078332786002636 18.79044368786523 26.652892893734677 0 0 0
798 1 -1.2 6.370699380911075 17.6903338757739 27.07435548871817 0 0 -1
172 2 2.4 7.604427873106372 18.205651005057934 27.964955501191245 1 0 -1
1595 1 -1.2 7.581119634406266 17.22516910882469 29.234791711643513 0 0 0
1390 1 -1.2 8.747095580475852 17.846111646876455 26.957539021259446 0 0 0
872 1 -1.2 11.080030621118256 17.891920046093993 29.105963386816473 0 0 0
313 2 2.4 11.848638510440292 19.086104828089475 28.331757407378788 0 1 -1
765 1 -1.2 13.24626303938548 18.417596969576877 28.111082281390907 0 0 -1
757 2 2.4 15.872174747206987 18.749041698411496 25.91132966487303 1 0 0
369 1 -1.2 15.960810711184006 18.104343039236117 27.464476644241596 -1 0 -1
2042 2 2.4 14.884574034269573 18.143606761402815 28.722271962435553 0 0 0
1303 1 -1.2 18.84406842859238 17.331991918334346 27.38820423107214 0 0 0
25 2 2.4 19.193947947074445 17.016864815479863 28.79894229238469 0 0 -1
1891 1 -1.2 20.98727836215166 17.150486939308383 28.835199779532136 0 0 0
1008 1 -1.2 23.339226885153202 18.399247621294403 28.65561618074158 0 0 0
1633 2 2.4 24.84915580728471 15.89430048637755 26.44925792781645 -1 1 0
1679 1 -1.2 29.250698961117774 18.082116943737766 28.01672887413189 -1 1 0
1935 2 2.4 2.6882756756425463 19.685801210738976 26.93300055839728 1 0 1
1495 1 -1.2 3.03519675031646 20.770338462260444 28.124922500107868 1 0 0
17 1 -1.2 7.5218311058865295 19.733381387983883 28.212962533829618 0 -1 0
2153 1 -1.2 8.717896932133558 22.022972433890207 28.337357423341963 0 0 0
593 1 -1.2 11.73226283795453 19.5822205451603 26.83493346170928 0 0 -1
636 1 -1.2 15.898659826268865 20.404428480232248 25.845871134860076 1 0 -1
279 2 2.4 15.988303862909802 21.649836827179417 26.68782372294054 0 0 -1
573 1 -1.2 19.59234705706234 20.900817836024647 28.763910399123 1 0 0
712 2 2.4 24.412573328605486 18.80197906520637 27.503763029554644 0 0 0
2004 1 -1.2 25.82299992710443 19.396274053714475 28.237374588563117 0 0 1
716 1 -1.2 26.802588740335672 21.67233597938167 28.84821161296339 0 1 -1
276 1 -1.2 2.2680543060578575 25.38016101883906 27.46010253921115 0 0 -1
78 1 -1.2 4.925339344525121 24.771115055316013 26.962132759959992 0 -1 -1
455 1 -1.2 7.19192950585346 24.238635966194224 26.943980610440175 0 -1 0
2150 2 2.4 8.15675349907546 22.809919764428457 27.03443487502381 1 0 -1
175 1 -1.2 9.778694044896277 23.399320648371212 26.554631270113283 0 -1 -1
650 2 2.4 11.330669881071058 23.700138780620456 25.984780281201907 0 -1 1
1211 1 -1.2 12.345109539142689 22.942769702530683 27.009958454216452 0 0 -1
1108 2 2.4 13.663797592927372 23.187173684875233 27.915270356233364 0 0 0
656 1 -1.2 14.804332571101467 22.031835105335155 27.842993369508644 0 0 0
563 1 -1.2 17.47338613523733 21.88691338503202 27.25210705576621 1 0 -1
1827 2 2.4 18.562735320841444 22.214676648884875 28.342634987593453 0 0 0
113 1 -1.2 19.29803132801753 23.663528879566094 27.863248693180203 0 -1 -1
59 1 -1.2 21.821072359753625 24.53131079460393 28.01025155502704 0 -1 -1
115 1 -1.2 23.76819387068895 22.87466419161103 27.558341273491916 0 0 -1
1672 2 2.4 22.721070543362856 23.39090284239884 28.675997899414693 0 0 0
1786 1 -1.2 22.25717456729324 22.15578822985735 29.72613461129392 0 -1 0
1634 2 2.4 27.33693474659923 23.055934146992662 29.23220980057176 -1 0 0
610 1 -1.2 28.16037779592624 23.263181017574457 27.772662741225364 0 0 0
583 1 -1.2 -0.04869670059633427 26.90338828525442 27.529195346823386 0 -1 -1
2137 2 2.4 3.9107701743373604 25.78950139758739 27.55691448957752 1 0 0
42 1 -1.2 4.315287294318018 27.416934636917297 27.223292914731314 0 -1 -1
980 1 -1.2 9.768939938094764 26.809079183770752 26.207858345856614 0 -1 0
905 1 -1.2 10.77206433139442 26.488719437732517 28.602429559349105 0 -1 0
1357 2 2.4 11.264716883361597 26.633099519719757 27.058065240953546 1 0 0
1319 1 -1.2 14.446379270749134 24.450180895194002 27.86720976117685 0 -1 0
1192 2 2.4 15.034231975426033 25.8885698109704 27.140049940566147 0 -1 0
582 1 -1.2 15.216703808692213 26.729306161687326 28.526948599652954 -1 -1 0
1968 1 -1.2 16.58588333095304 25.55026852161385 26.43462530649493 0 0 0
957 1 -1.2 17.710061665210603 27.865569442920783 29.054356535705033 -1 -1 -1
1949 1 -1.2 20.39014869361428 25.919364820179805 26.612314848600693 -1 0 0
1708 2 2.4 20.33979452991301 24.835964203991633 27.977551124974607 0 0 0
177 1 -1.2 19.874594695088486 25.70313028622984 29.208296788541364 0 0 0
249 1 -1.2 0.7888185996827933 29.230188869286476 28.265648849893914 1 -1 -1
1693 2 2.4 29.93859882055773 28.36358465272189 28.439924875268005 -1 -1 0
2135 1 -1.2 5.7962386367212755 0.019830754255554552 26.383283554745155 0 1 0
975 2 2.4 7.3197291260687285 30.233553446406145 27.137803596797827 0 -1 0
441 1 -1.2 7.795723883792101 28.961463826820765 26.03690574637583 0 -1 0
1591 1 -1.2 6.9195986007793975 29.639263262381526 28.82454687813519 0 0 0
1509 1 -1.2 11.936414954837883 27.997012510942454 26.794131163716138 0 -1 0
446 2 2.4 13.268212684706537 28.326906124734677 26.13108935023039 0 -1 0
1688 1 -1.2 13.60638973317508 29.772252806122413 26.922599358225003 0 0 0
2099 1 -1.2 15.75073046036025 28.979325830676128 28.06386389607325 -1 0 0
2053 2 2.4 16.16179191547571 27.82111552591168 29.131376497951702 0 0 0
1704 1 -1.2 20.403810094634764 29.116283622687614 28.182782733330928 0 0 0
93 1 -1.2 25.42104841409741 29.997267925448547 26.90677015052816 -1 0 -1
1284 1 -1.2 28.669967693437727 29.21902896621342 28.126719706045996 0 0 0
505 2 2.4 27.672399701984645 29.978987934382612 29.331457478585282 0 -1 0
1500 1 -1.2 0.42271618661580646 30.047614344851237 31.259191605617104 1 -1 0
510 1 -1.2 2.544653207289356 0.07639572484633832 29.778541503767016 0 0 -1
557 1 -1.2 3.9743858666239618 1.0668025966649017 31.742153365512507 0 0 -1
1713 1 -1.2 4.884918417422266 2.2283407910446855 29.61928852306223 1 1 -1
440 1 -1.2 6.784294889364271 0.03540038279310038 31.636935836033643 0 0 0
2071 1 -1.2 14.431190474467511 -0.05812561640751851 30.020535264650317 0 1 0
1266 1 -1.2 17.43620896560584 2.062688918424588 29.756442488593684 0 1 -1
997 2 2.4 18.293489075331863 1.301390084097317 30.929694207097263 0 0 -1
1543 1 -1.2 19.360287836629315 2.2142012174938386 31.89643407023533 0 0 0
726 1 -1.2 23.401394930413048 1.08770682214883 30.2824180516903 -1 1 -1
46 1 -1.2 25.232867060170463 1.8239332063353593 31.55981635541294 0 0 -1
110 2 2.4 23.15297337539278 30.126616144530086 31.185334388425293 0 -1 -1
781 2 2.4 29.67644538212823 0.786327221077186 31.356099379924686 0 0 -1
2159 1 -1.2 30.08502693640849 2.2618382290811265 30.43396150963951 0 1 0
822 1 -1.2 28.32667713618034 0.04478662672396125 30.81957302060961 0 1 -1
819 2 2.4 1.8349987055621406 4.875894635599089 31.678354408837382 0 0 0
1054 1 -1.2 0.20962055203693766 4.7390363480566275 30.867357900546306 1 1 0
464 1 -1.2 2.683452804341307 3.5830731401536 31.39036706026192 0 0 0
1802 2 2.4 3.879984912490696 2.663458548168663 31.099131601091447 0 0 0
1833 1 -1.2 5.115406840024357 3.481820580045039 31.85103996838559 1 1 0
1047 2 2.4 6.114184716933013 4.909898613667032 31.74443331542686 0 0 0
730 1 -1.2 12.006114822139528 3.8472809850771075 29.682032759976085 -1 0 0
1132 2 2.4 12.76802418514399 4.618258646016842 30.916312323092267 1 1 1
692 1 -1.2 14.550540801657608 4.604337831747303 30.674288603282484 0 0 0
324 1 -1.2 18.38406947141726 5.1507836826954625 28.996396555121894 0 1 0
1889 1 -1.2 17.12054639418306 4.465538799893062 31.332857972406764 0 1 0
1288 2 2.4 18.591168269840086 5.22124706335739 30.626017267394896 0 1 0
739 1 -1.2 21.992662057185957 3.573179508165711 31.480939697200206 0 1 -1
132 1 -1.2 24.232721706485833 4.427813981089892 30.1549288684584 0 0 -1
1504 2 2.4 23.064444652466488 4.748518799189869 31.54426216953647 0 0 0
1123 1 -1.2 26.41817359475988 3.9267265298175973 32.76748849515428 0 0 -1
1531 1 -1.2 28.01455085437977 4.476977029601816 30.10199444855066 -1 0 0
244 2 2.4 29.59884149170481 3.9566260910129296 29.862409130779604 -1 1 -1
1078 1 -1.2 2.8586547460029594 6.219523875814177 31.407051326628572 1 0 -1
1743 2 2.4 2.8757581518394613 6.9531397159175565 29.980083218958246 0 1 0
1673 1 -1.2 4.350423383204227 7.70798818038341 29.829688977401133 1 1 0
797 1 -1.2 6.2030816547906324 5.95170349648858 30.25308421718094 -1 1 -1
1779 2 2.4 5.928104189163152 7.372773854405822 29.603905997896096 0 0 0
1666 1 -1.2 9.303801852852171 7.9370810255730895 29.245183272237476 0 1 0
847 1 -1.2 12.806510014207758 6.2501047455753875 30.803416161391848 1 1 0
1992 1 -1.2 18.328523663555174 6.82452536369369 31.233847930963925 1 0 0
289 2 2.4 17.890607035007104 8.310267935053782 30.553065892516507 0 0 -1
753 1 -1.2 19.114905444715568 8.393921016746647 29.51662931587355 0 1 -1
2040 1 -1.2 22.58303300207607 6.368906648781834 31.127454142845302 -1 1 0
430 1 -1.2 23.896150150869314 8.690559316850248 32.152315813531054 0 0 -1
1328 1 -1.2 26.33958538216705 6.1289288438189 31.381286977073042 -1 0 0
87 2 2.4 27.058859498535924 5.945222915006511 29.943086742362006 -1 1 -1
2024 1 -1.2 28.004752561185043 7.398349434723688 30.071812931725 -1 1 0
1772 1 -1.2 1.6666488972925178 8.003470933373231 29.91716401792815 1 0 0
1157 1 -1.2 2.1595206749921174 9.890701309737643 32.111143112615494 0 0 -1
1628 1 -1.2 6.823771223025166 8.681718392347344 30.318260300399864 0 -1 0
114 1 -1.2 9.106627442447484 8.479721279133923 31.907599705100697 0 -1 0
1202 2 2.4 8.65021714942563 8.72956380263197 30.4990728828946 0 1 0
558 1 -1.2 9.061109476858157 10.374762473819944 30.196148289113165 0 0 0
1466 2 2.4 13.259735094509272 7.688694355693631 31.39245444715971 0 1 0
1795 1 -1.2 12.05855751060456 8.901189074029576 31.889206753192433 0 0 0
1565 1 -1.2 14.143246205095437 8.089988173158675 30.001504352472534 0 1 -1
2043 2 2.4 11.99136182443093 10.375913559055302 31.972903019027893 0 1 0
362 2 2.4 15.180096186938142 9.399817014487425 29.962238531226692 -1 1 -1
1379 1 -1.2 16.388497611850894 8.364579214679555 29.874449801448712 -1 -1 0
1985 1 -1.2 15.146343150016408 10.227097500790038 31.42394442610123 1 0 0
1750 1 -1.2 18.43467155145682 9.413591670647664 31.608640562015236 -1 0 0
497 1 -1.2 20.766241259474455 10.10092406617036 30.181674495121605 0 0 0
100 2 2.4 19.910568937091554 9.981762373412792 31.57318789654193 -1 0 -1
192 1 -1.2 24.363319274041956 11.013524793726418 30.69763447821562 0 1 -1
1588 2 2.4 24.078766286118196 10.22812564913287 32.163323349744196 -1 0 0
964 2 2.4 27.389130569094316 8.94477520343668 30.10522720432711 0 0 0
1232 1 -1.2 27.529870816399917 9.331836800776813 31.712645197240857 0 1 0
1824 1 -1.2 28.259010438979185 9.808042796254867 29.306497691323262 -1 0 1
1682 2 2.4 2.3110674660085455 11.144645511749907 31.025426230052908 0 1 0
1872 1 -1.2 2.5460393510436563 10.49441728289566 29.462896925396944 0 0 0
1399 1 -1.2 1.1906647560221226 12.247808788658851 30.76991053561802 1 0 0
82 1 -1.2 3.898007460540703 11.612173993116096 31.450473233729692 0 0 -1
1138 1 -1.2 9.610381280515604 12.716752368174255 29.06589897544111 0 0 -1
1177 2 2.4 10.270272165274172 11.215347129651645 29.559194590484694 0 1 0
936 1 -1.2 11.694637258405152 11.099228032168295 30.525000005337414 1 0 0
1298 2 2.4 0.09996001696690028 13.13590332732571 29.929723027947894 1 0 0
1435 1 -1.2 2.9327409003756917 16.00980053817197 29.15870717904695 1 0 0
809 1 -1.2 3.1752609642201395 15.88444101866748 31.674148214648596 0 0 0
534 1 -1.2 5.003223453669978 17.10417376558811 30.404532401835805 0 0 -1
1367 1 -1.2 7.449876284654776 16.512976464533367 31.643698966116176 1 -1 0
1812 1 -1.2 9.836629262771277 15.113217554656929 29.846143376533064 0 -1 0
1045 2 2.4 11.078524618867391 16.196152333221818 29.131708324451957 1 0 0
1476 1 -1.2 12.316297322724255 16.055044302827778 30.17021120837618 0 0 0
1909 2 2.4 13.915828812288115 15.568448432583342 29.50744772108985 0 0 0
694 1 -1.2 14.718454211302529 14.393837631780928 30.644275140013477 0 0 0
540 1 -1.2 20.318701805057866 14.176213661393627 30.98000876616609 0 0 -1
772 2 2.4 20.994471207681116 14.410576403026724 32.41871282738112 0 1 0
199 1 -1.2 22.46392399015541 14.821978985741426 31.71683018932712 0 0 -1
1643 1 -1.2 24.631769313536758 15.453033319633139 30.396325895285262 0 0 0
373 2 2.4 25.423295504593874 14.724494130789486 29.10734761430001 -1 0 -1
1397 1 -1.2 27.113210575264524 15.142949614613224 29.494623197410938 0 0 0
2052 1 -1.2 29.693924745089763 14.229298573470025 30.7434869991775 -1 0 0
420 1 -1.2 27.320267862346597 14.742391563673488 32.02337398014362 0 1 -1
1454 2 2.4 28.2811873652131 15.332026581896768 30.50764930232542 -1 0 0
1946 2 2.4 1.3324295623080598 19.546334001844926 30.998211368953058 1 0 0
258 1 -1.2 0.11115181447110804 19.096317208948534 29.97851806569206 1 0 -1
1496 1 -1.2 2.5741257278625826 18.36189464199229 31.258317404982837 1 -1 0
97 2 2.4 3.3130371154815754 17.05395456705756 30.67877108757963 1 0 -1
1741 2 2.4 6.640794180475198 17.5241324134825 30.466640453193534 0 -1 0
204 1 -1.2 6.795402179025637 18.858056995216984 31.20007515897227 0 0 -1
742 1 -1.2 15.251832123895957 16.84767662091884 29.555393973444946 0 0 -1
832 2 2.4 17.980458276007017 18.59707363264632 31.4726813621871 0 0 0
1652 1 -1.2 18.284838667221546 17.640408721822133 29.987845293800476 1 1 0
1586 2 2.4 23.471558385345567 16.043662892021665 31.419575373094094 0 0 0
1419 2 2.4 22.087498015200946 17.95021830089516 29.53993085699843 0 0 -1
1075 1 -1.2 22.714970101722745 17.344424636568913 30.817524757452325 0 -1 -1
406 1 -1.2 28.804236702390515 16.762903756833325 30.233691031215027 0 0 0
1021 2 2.4 29.17607312226916 18.130392346946927 29.61387009206883 -1 0 0
861 1 -1.2 2.3799804563961 20.762767191651857 30.480835014089344 1 0 -1
1661 1 -1.2 4.842678572553612 20.273805363396125 30.22798866228139 1 0 -1
1609 2 2.4 3.5696828086949544 21.204746497202446 29.567332419500904 1 0 0
974 2 2.4 6.0883603868442355 20.494907473046066 30.96714912304747 0 0 0
1510 1 -1.2 7.275409140826744 21.429199385691344 30.47163110372544 1 0 0
2056 2 2.4 8.285146490525431 20.731084171355512 29.159676429202904 0 0 0
1906 1 -1.2 9.440124190618691 19.863354444249897 29.8878647766071 0 0 0
793 2 2.4 10.933250826324002 20.700948553574314 30.451934291442278 0 0 -1
1584 1 -1.2 11.949779894453103 20.14046776561409 29.298359569667443 1 0 0
211 1 -1.2 11.633490326276567 20.42452472437835 31.93025185577029 1 -1 -1
456 1 -1.2 14.990856219595171 19.50868219101387 29.552243478954672 0 -1 -1
1237 2 2.4 15.203791646701998 20.014446475281257 31.00844560489462 0 -1 -1
1674 1 -1.2 15.29952684420693 21.78507144511771 30.851895259168238 -1 0 0
1424 1 -1.2 14.18460492687581 19.44299549441832 32.01831833342957 0 -1 0
345 1 -1.2 16.68335236614833 19.569104459226875 31.451193485728 0 0 -1
1797 1 -1.2 18.926958066611267 19.255565745394055 32.67146119275616 0 -1 0
1359 2 2.4 20.944305384055344 21.00861751342406 29.811759646146793 0 -1 0
570 1 -1.2 20.05161462611985 21.470974114269488 30.91211974660111 1 -1 -1
269 1 -1.2 21.586201677413023 19.528956760314255 30.094940881609997 0 0 -1
1174 1 -1.2 25.734000333242335 20.636949948511383 30.83204336625343 -1 0 0
685 2 2.4 26.373585523386026 20.127427303189645 29.494176815367645 0 0 -1
48 1 -1.2 27.907433378643542 19.314906862064177 29.718334784922707 0 -1 -1
250 1 -1.2 0.7597135912246544 22.912307269932377 31.356926427428565 1 0 -1
356 1 -1.2 2.788465317774278 24.526223575803197 31.623717842660177 1 0 0
311 1 -1.2 3.8299744837362404 22.754092690181512 29.457541886417907 0 0 -1
351 2 2.4 3.9893312987394784 24.28582546682774 30.274158826149534 1 1 -1
1402 1 -1.2 5.441120864602849 24.14762494627124 31.175757749682273 1 0 0
994 1 -1.2 10.536608079452614 22.244438646231785 30.708526790996466 0 0 0
2107 1 -1.2 12.884269061979396 22.83741652432909 29.47341336127985 0 0 0
422 2 2.4 11.625239957856047 23.398200174704705 30.375608299384957 1 0 -1
317 1 -1.2 10.444577091443895 24.443029452394356 30.038710954639512 1 0 0
358 1 -1.2 12.319031169452906 23.698573765669497 31.9416022474624 1 0 -1
1170 1 -1.2 16.647900580905944 24.09655684675245 31.7386156943395 1 0 -1
813 1 -1.2 17.729507084997184 22.549690334246804 29.6710919128246 0 0 0
1549 2 2.4 16.766309364201412 22.595288227461626 31.26024391211326 0 -1 0
1122 1 -1.2 17.830853391731377 21.665385373256903 32.237241189755444 0 0 0
900 1 -1.2 24.97086792357902 24.675691841024648 31.73423983212666 0 -1 -1
719 1 -1.2 26.18670617967699 24.0294572350636 29.585263598861285 0 -1 -1
397 2 2.4 29.559918296985902 23.650945098760214 31.22932683632418 0 0 -1
1568 1 -1.2 28.580404015947504 23.133055855231035 30.161432279107277 -1 0 0
1950 1 -1.2 30.153627019018586 25.070025835446334 31.11016950566929 -1 0 0
1136 1 -1.2 3.8860670514740856 25.461718457848235 29.345562475258138 0 0 0
1204 2 2.4 7.841203874476006 27.18590958856268 31.452082468375398 1 0 0
958 1 -1.2 7.245170457443913 26.154093335986087 32.57474245694684 0 -1 0
1631 1 -1.2 8.7230977695762 26.44925983254634 30.419671465215195 0 0 0
1744 2 2.4 10.22864631753212 26.085063064774555 30.02377914489202 0 -1 0
689 1 -1.2 11.37386062550825 26.591309509763967 31.132184411245365 1 0 -1
2049 1 -1.2 17.91112043881285 25.98697173414723 30.689965239484152 -1 0 0
339 2 2.4 18.831370599346393 26.879339687595166 29.787220803298215 0 0 -1
1275 2 2.4 17.287715537092357 25.671503787486266 32.18473649664308 0 0 0
923 1 -1.2 23.66786880796065 24.45623846089177 29.718654526714673 0 0 -1
1574 2 2.4 25.132614222925028 25.038486668000964 30.2538056880906 0 0 0
1579 1 -1.2 25.592041806595272 26.503775245372058 29.9854768168836 0 0 0
1862 2 2.4 29.73142710191427 26.679443264414612 31.143524460333524 0 -1 0
427 1 -1.2 29.366887080186178 27.687758415788124 29.91466636691271 0 0 -1
1267 1 -1.2 28.472676080705444 26.639414359856527 32.207974288909455 0 0 0
227 1 -1.2 0.5230206410338798 27.305206728767317 32.22799887933744 1 -1 -1
1725 1 -1.2 2.628661976034982 29.24962429076569 31.67874246655791 2 0 -1
1742 2 2.4 3.4612310058386195 -0.12500057031577047 31.044206153853796 0 0 0
128 1 -1.2 4.755274315448475 29.54754601696093 30.26002483101456 1 -1 -1
1767 2 2.4 6.320992374562079 29.46498355369736 30.275704644643987 -1 -1 0
1871 1 -1.2 6.595683948268209 27.91478205412092 30.83294530891272 1 -1 1
526 1 -1.2 13.22668580529356 28.566800705620615 31.862858460390747 0 -1 -1
404 1 -1.2 15.422458383384889 28.172292375851047 30.573427783500854 0 0 -1
85 2 2.4 14.482298940490322 29.217899782800878 31.29078004140206 0 0 -1
92 1 -1.2 19.17329141785133 0.1492532136617438 30.103286016440066 -1 0 -1
1991 1 -1.2 19.864224053574212 27.940866107810674 30.489342863528005 0 0 0
412 2 2.4 20.253860968571573 29.488838114322593 29.872195546195865 0 0 -1
442 1 -1.2 21.649705930486544 29.954767456183305 30.469255276237945 -1 -1 -1
36 1 -1.2 24.11431727558583 28.999572040240807 30.569774820091133 -1 -1 -1
95 1 -1.2 26.46344511161178 28.98565041050411 29.639852142960432 -1 -1 -1
26 2 2.4 25.55831029608456 28.20896692809619 30.553263969859326 0 0 -1
1605 1 -1.2 5.610598396836331 0.1427809715242747 34.057746317260516 0 1 0
796 2 2.4 7.012849935279881 0.3426982609894908 33.22895188462906 0 1 -1
1770 1 -1.2 7.322774101910024 1.8873602789135098 33.24444921951793 0 -1 0
1667 1 -1.2 16.250479013552958 1.1680939105452377 34.37008081154776 0 1 -1
307 1 -1.2 17.218538803295925 0.6767810817552192 32.11919395399565 0 1 -1
1870 1 -1.2 23.072826803862515 30.374236596181674 32.71324948214738 0 -1 0
1539 2 2.4 25.744403219123488 2.2260498815944922 33.02436793851937 -1 0 0
468 1 -1.2 26.965087232106693 1.1865109813188672 33.69528975866188 0 0 -1
2041 2 2.4 28.30589544807819 0.13925758748462283 33.92332970685274 0 1 0
683 1 -1.2 29.387618510542598 0.9384466120172797 33.03228946016149 0 0 -1
1200 1 -1.2 1.298026508584099 5.484449208518778 33.00352849881315 0 0 -1
744 1 -1.2 7.692281350460028 4.411044708358146 31.97163648574621 0 0 -1
1098 1 -1.2 8.007071884568274 4.309387561434531 34.54063695872991 0 1 0
1034 2 2.4 7.890657221019644 3.350130272784086 33.15874367123337 1 1 0
2124 1 -1.2 9.469211902982442 3.189711494533113 32.642964406017605 0 1 0
1552 2 2.4 10.561970506809184 4.45488616609078 32.99018007610393 0 1 0
996 1 -1.2 10.775936487401438 4.336776553908698 34.67467759857429 0 0 -1
513 1 -1.2 12.06476343742041 3.988805121494573 32.13411346194187 0 1 -1
831 2 2.4 15.544986751897524 4.587800589914325 31.9916146080085 0 1 -1
977 1 -1.2 15.501820616984999 3.4470670997332586 33.182176699204724 0 0 0
661 2 2.4 16.178747111840323 3.0270266318263386 34.5088953744729 0 1 -1
10 1 -1.2 17.797964279201576 3.84310195009349 34.3309112911893 0 0 -1
629 1 -1.2 20.059366228275373 4.70889032099744 31.275677873640817 -1 0 -1
987 2 2.4 20.471958831706054 3.415614776879181 32.03036583093217 0 0 0
1235 1 -1.2 20.126748538792402 3.5248296025495165 33.71251051220326 -1 1 0
1344 1 -1.2 24.621136202073757 2.338185374868914 34.19118468179709 -1 0 0
1125 1 -1.2 24.133094156284837 5.204651417006042 32.66605977074731 0 1 -1
603 2 2.4 25.741923421073395 5.322759074163289 32.6269205840588 0 1 -1
58 1 -1.2 26.405850565006336 6.083457607134413 34.04857315648046 0 0 0
1593 1 -1.2 0.9170343983893787 6.718827703947801 0.11382386380312348 0 0 1
1615 1 -1.2 0.7769823477680351 7.937683099966151 33.01492860500928 1 0 1
625 2 2.4 0.33465454405989636 6.754080703171145 33.82791847869992 1 0 0
1469 1 -1.2 5.657122523720712 5.7210438081032695 33.153002730258805 1 1 0
1225 2 2.4 7.111430079369359 5.886968058676796 34.24859450775336 -1 1 0
394 1 -1.2 8.241195162056522 7.111173291563248 34.04174757448713 1 1 -1
191 1 -1.2 10.368789537482211 6.255593652549039 32.82468827054318 0 0 -1
2139 2 2.4 9.458573424695286 7.543444879758848 33.14741140192756 0 1 0
80 1 -1.2 14.013120171790902 7.732689216607726 32.69824064960647 0 0 0
1330 1 -1.2 15.361595403650826 5.922243720677769 32.870987287399686 0 0 -1
553 2 2.4 15.394005022386391 7.401480678457101 33.527872718892354 1 1 -1
40 2 2.4 22.316025986761584 7.60321432348244 32.33973168128097 0 -1 -1
1260 1 -1.2 22.556434040669853 6.879009223072718 33.789864066820236 0 0 -1
1057 2 2.4 27.8150401571255 5.985826590259071 34.59835488262003 -1 1 0
2025 1 -1.2 29.018360805479634 6.862631587907783 33.69712337399687 -1 0 0
1512 1 -1.2 2.819428605287521 8.452430695295673 34.51106399293636 1 0 -1
495 2 2.4 1.5876355572246363 9.308487076425989 33.446773651249444 1 0 -1
1062 1 -1.2 0.6275202093554624 10.00364183590065 34.49933399343119 1 0 0
515 1 -1.2 9.777309828884187 10.97288028305243 0.06801265790600589 0 -1 -1
225 1 -1.2 10.302943332412552 8.565600873108972 34.1487856982656 0 0 -1
487 1 -1.2 16.924127731164607 8.105099473111327 33.3798485953043 0 0 -1
1377 1 -1.2 15.275377334175909 10.601073482642562 34.060235166849836 -1 0 0
2148 1 -1.2 21.086411609222527 8.698786945460204 32.124307997786225 1 1 0
44 1 -1.2 20.33459334344471 11.26072639101177 32.29603685164103 -1 0 -1
383 1 -1.2 23.085144818598337 11.321308353352777 32.717219170524885 -1 1 -2
1297 2 2.4 26.965418699339764 10.402554365660885 32.87224821732775 -1 -1 0
463 1 -1.2 25.508301658012304 10.136271963484983 32.99951251328798 -1 0 0
681 1 -1.2 27.8778529073996 9.452146571202439 34.09983176302562 0 0 0
1551 2 2.4 1.2907568350114746 11.416504412970912 34.78307913580634 0 0 0
624 1 -1.2 0.37751833625862363 12.670868665176927 34.26048286032033 1 0 -1
1011 2 2.4 3.8245712204479756 12.282392888748431 32.965309261971115 0 0 0
1018 1 -1.2 2.733750037894408 11.366191689080013 33.97028175618194 1 0 0
1091 1 -1.2 5.348745024319957 12.388176318266103 33.46366601668309 -1 1 0
1936 2 2.4 7.057208394817578 12.725917384395814 33.6939611158061 1 0 0
336 1 -1.2 8.114945892909148 11.554393842791956 33.30870938088572 1 0 0
622 1 -1.2 9.892815876000265 13.305029982994627 34.04364320707634 0 0 -1
1706 2 2.4 9.669267053325758 11.788520094669844 33.83359553480066 1 0 0
1843 1 -1.2 10.872762588191284 10.946942836881412 32.97039885560718 0 1 0
333 1 -1.2 13.237423343780934 11.292541524947183 32.65078851497502 0 1 -1
1901 1 -1.2 15.584862111801367 12.73363686099139 32.7073313540383 0 0 0
206 2 2.4 14.80452674501803 11.195665001981084 32.561631292139296 1 0 -1
1578 1 -1.2 18.144449182789593 14.290747021279026 34.6778659612526 1 0 0
881 1 -1.2 21.343496131886734 13.199654274794092 33.381977975087054 0 0 -1
1081 2 2.4 21.652223336357554 11.525439184515324 33.371404513576124 -1 -1 0
18 1 -1.2 27.326185468937215 12.01522847282134 32.69286189487605 0 0 0
666 1 -1.2 26.123135803353446 13.930259234161822 34.14427506160164 0 0 -1
1154 2 2.4 27.335223176165346 13.626301439341965 33.20495801822759 -1 0 -1
2143 1 -1.2 28.80072985900694 13.978153857303035 33.74797418480633 0 1 0
1484 1 -1.2 0.1124659224881789 14.955495282161925 0.053608995486983946 1 0 1
1557 1 -1.2 0.6580002953220045 15.116041413537555 32.720327103240166 1 0 0
1117 2 2.4 2.3524899977878864 15.143408281366092 32.861211936224706 0 0 0
215 1 -1.2 2.30702374309928 15.884076332455754 34.29968970526713 0 0 -1
1264 2 2.4 -0.12950340381889403 14.206520413398703 33.87599122869416 0 1 0
37 2 2.4 0.7932427576757037 16.437917983530816 35.02840787385729 0 -1 -1
1259 1 -1.2 3.1160672848330284 13.752865628202537 33.25285407555052 1 0 0
12 1 -1.2 7.184899935652538 14.109759182910121 32.81875308869555 0 0 -1
2031 2 2.4 7.558466623836403 15.831622891382052 33.10517273949172 0 0 0
1573 2 2.4 10.054704868227649 14.823613150310473 34.72168375180327 1 0 0
799 1 -1.2 8.870079408755563 15.679871112443076 34.11142776342888 -1 1 -1
1815 2 2.4 13.140073493795931 14.71283414378381 34.86566175524665 0 0 0
787 1 -1.2 11.622842641684066 15.390863536756697 34.39275566173272 1 0 -1
1050 1 -1.2 13.864374787578846 14.817759570231164 33.4016007823376 0 0 -1
393 1 -1.2 16.16362178710731 15.252739154263429 33.288854029690405 0 1 -1
842 2 2.4 15.165572826494442 14.424065549308402 32.305367858443844 0 0 -1
1023 2 2.4 19.236003484351766 15.51800187735707 34.54343993731444 0 0 -1
2081 1 -1.2 18.060477397650462 16.59150978035923 34.495335935531756 0 0 0
1380 1 -1.2 19.941076701558167 15.376961779271932 33.07461310703562 -1 0 0
1160 1 -1.2 0.12586174805817799 17.61443654032454 34.140063482656686 0 0 0
1902 1 -1.2 0.6193080813505489 19.93675891770399 32.50571137263082 0 0 -1
2007 2 2.4 0.22032471965980654 19.41224041899036 33.88475479657551 1 0 0
137 1 -1.2 6.798699514159656 17.085281307027408 34.13878226307177 1 0 0
634 1 -1.2 12.575671647530484 19.694148144073434 34.401686668112504 1 0 -1
1436 1 -1.2 15.518963160686498 17.67974446626971 34.22795258206098 0 0 0
1945 2 2.4 16.676267389263394 16.780520480613777 33.63181219748175 0 0 0
1116 1 -1.2 16.98152979909854 17.23868118988452 32.048800780508316 1 0 0
779 1 -1.2 22.831850113239437 18.314655611831995 34.54257042862545 0 0 -1
749 1 -1.2 24.097089655958218 16.519101976582082 33.00905444815826 0 0 -1
1069 2 2.4 23.55943730249025 16.881905138475638 34.535744477895186 0 0 0
221 1 -1.2 24.363226669685854 19.60037659139651 33.1060878579645 -1 0 -1
1449 1 -1.2 0.885845670048488 19.976447297516366 0.00932897688229421 0 0 1
755 1 -1.2 5.521436317165934 21.00715545941008 32.578129466121084 0 0 -1
239 1 -1.2 3.1614387738738565 19.97749498310822 34.24279032145896 0 0 -1
230 2 2.4 4.337476162542837 21.195580532035255 33.54489921671136 0 0 -1
766 1 -1.2 3.3172845506592123 22.348371686250523 32.826608972230616 0 0 0
547 1 -1.2 7.788415515884513 21.410593886653228 34.94568976225176 0 -1 0
1382 2 2.4 13.067783742556742 20.24103958490213 32.87454270838571 0 0 0
1890 1 -1.2 13.764260203808893 21.783683651967767 33.13863682100499 0 0 0
411 2 2.4 19.30251884792743 20.93186046625559 32.279507680494156 0 0 -1
1394 2 2.4 21.035429163076927 21.547601532675735 34.530577863213864 0 0 0
1845 1 -1.2 20.056762936566944 21.867146424335346 33.364686093175486 0 0 0
346 1 -1.2 22.16834801481952 20.6300939989063 33.95620232010283 0 1 -1
711 2 2.4 23.484918711542218 19.792652518225903 34.54663553890165 0 0 -1
1817 1 -1.2 24.520564782635052 22.156310025620485 32.747591654400324 -1 0 0
1252 2 2.4 25.356326355692524 20.81711677946563 32.34959539943754 0 0 -1
1439 1 -1.2 26.76509180138576 20.725477324873673 33.14076142737637 -1 -1 0
1085 1 -1.2 28.931868305525956 19.552337190523726 33.86028471560613 -1 0 0
1993 2 2.4 27.87132441930654 20.678664521850994 34.13894360324051 0 0 0
117 1 -1.2 29.199040568433876 21.897021546399035 34.57200765726501 0 -1 -1
854 2 2.4 1.9718138458542303 23.40481358445851 32.378623416587665 1 0 0
212 1 -1.2 0.854082441607237 23.45267185510588 34.07198984000299 2 0 -1
1016 1 -1.2 5.2355117380484195 21.787995715975004 34.68890940085254 0 -1 0
1020 1 -1.2 7.087321496500524 23.496141821551145 33.035946996552745 1 -1 0
2149 2 2.4 8.057235356244512 22.902378028002353 34.41514718552882 0 0 0
1621 2 2.4 6.274859648084142 24.78746556528076 32.59239237033632 0 0 0
2030 2 2.4 10.822164477114532 23.864384954799597 0.013568414696678773 0 0 0
1387 1 -1.2 9.74568090504853 23.064643000278206 34.46268151626698 0 -1 0
125 1 -1.2 12.328569147356086 23.763041121934428 34.40821536837641 1 0 -1
2078 2 2.4 13.236320701706527 23.245760971521175 33.21148906697126 1 0 0
1654 1 -1.2 14.402433053029815 24.37193879641839 33.67222756027386 0 0 -1
2014 1 -1.2 18.767378485249235 24.49508891886246 0.2770858867456862 0 0 1
504 1 -1.2 23.60837681248979 24.32367784132015 33.99195135958511 0 -1 -1
1585 2 2.4 24.898436521467076 23.799408475278963 33.035646899111214 -1 0 0
366 1 -1.2 26.346558231795566 24.16642104188953 33.67030060071243 -1 0 -1
220 2 2.4 29.50461942972733 23.446796206780764 34.11705763554117 -1 0 -1
43 1 -1.2 28.493992055532935 24.400133022260388 34.95467396911177 0 0 -1
1447 1 -1.2 29.143056494970317 23.32329344985895 32.72299953863865 0 0 0
265 2 2.4 4.0660201605344914 25.89574356913218 34.74067255199758 1 -1 -1
391 1 -1.2 3.3420132451253677 27.323230669432416 34.187032538338585 0 0 -1
1194 1 -1.2 4.864842082323774 25.32708401815123 33.43421813851455 1 0 -1
1855 1 -1.2 7.154609320261327 27.91184974185923 34.75779855220702 1 0 0
1632 1 -1.2 10.331696034399473 25.603327476802736 34.997403403274284 0 0 0
1801 2 2.4 10.899691110208565 27.21826161275841 35.04619289902916 0 -1 0
2029 2 2.4 12.296693539524354 27.19990355094765 32.31856101586534 0 0 0
826 1 -1.2 13.380039384681428 26.07781945553876 32.24664825113927 1 1 -1
782 2 2.4 14.57640618328621 25.838208245075045 33.375988146409725 0 0 -1
919 1 -1.2 15.970874617395333 26.491378288150877 32.60252992240893 0 0 -1
1975 1 -1.2 18.458205724968927 25.15461134421799 32.98193178953357 0 0 0
326 2 2.4 18.963240002483232 25.749929250257065 34.46939227412374 0 0 -1
1644 1 -1.2 26.57690623841984 26.685694001808827 34.005025815058204 0 0 0
1251 2 2.4 1.0154422198873359 28.90222825728492 32.23223619000037 0 0 0
1231 1 -1.2 1.4370669365618396 29.149402389968284 33.92809130012968 0 0 -1
1072 2 2.4 2.5160673259870614 28.537680511451278 35.02241813680439 1 -1 0
1988 1 -1.2 3.267228725872867 29.77211105183665 0.35207893049620304 0 0 1
1914 1 -1.2 8.302242716467049 30.239000461252594 34.09503376757685 0 0 0
104 1 -1.2 9.703543930739434 28.31763075442111 -0.13285620385617034 1 -1 0
1086 1 -1.2 8.584929568218751 28.20547470614028 32.51765941624223 0 0 -1
2077 2 2.4 8.344265926863107 28.52027096265223 34.10777817740564 1 0 0
35 1 -1.2 11.651249845607627 27.394639582934698 33.59892129615444 0 -1 -1
1937 1 -1.2 14.684135973651049 30.33393284472454 32.508748803645524 0 -1 0
1898 2 2.4 16.145922374918992 0.06735361592507119 33.251473506452484 0 0 0
562 1 -1.2 16.64666880225564 29.025669654725963 33.94977543886841 0 -1 0
2085 1 -1.2 21.70733511660221 28.532625264970378 33.84032211319905 0 0 0
2127 2 2.4 22.564053489756887 29.915872471226194 34.18709536712839 0 0 0
1488 1 -1.2 23.907435529031225 29.61452950942775 35.01269456683612 0 -1 0
705 1 -1.2 26.143549918309503 28.09841364559922 32.15192256561669 0 0 0
783 2 2.4 27.52444547927735 27.562393421599364 32.97823335832351 0 0 -1
426 1 -1.2 28.026764039949025 28.97980874702223 33.677257369350656 0 0 -1

Velocities

684 -1.6390202576606137 10.932862098411217 4.019034788158434
2018 -8.473810717344172 13.815316891979222 -1.6387322027356417
1921 -7.906594104147386 -4.865878403661425 -12.673829021830239
425 -4.930137155377599 5.826595137091454 6.258832978714509
658 -15.796410913803726 10.918181627785916 -4.27021535277593
275 -4.156302953903787 -1.7027210571353582 5.128858887096704
1140 4.600651489179501 -17.008247454202866 -16.644225784214402
678 6.147396785686016 10.061010531420997 -18.16856970364782
528 2.939449181986385 8.041577328180809 12.125801325598587
1864 12.086854875884683 4.585003192005553 -15.5575618401713
485 -12.36862964953301 7.04197374143875 -7.9443863483853105
2009 -7.2459075272349285 -14.09429484934419 5.4021263352705144
240 -10.832157761993859 -12.395263342584478 16.91453494926424
963 -4.160916089667727 1.2877722580620146 -6.549040824221891
2074 1.548193275363373 -0.15631016068143538 4.2772567651801525
1828 9.440238418722428 -2.0625316282105275 -8.067306812709083
1677 -13.129791044270268 -16.15880733414923 10.887688067762074
1972 3.314586774764536 -12.035222651380554 -13.96616390224009
380 -0.6035666717503617 7.5786289889195935 -11.013600499081916
2028 0.2038741518617382 8.920979849493438 -1.1833479919456271
1317 -7.649464955887724 -11.895688311527865 5.349739265600599
1561 5.398014562579742 -3.597291278886673 -5.464267766616615
1657 10.007036685567975 2.4330706099227486 0.19466778580266667
1867 -1.4522314925011113 -1.869331763525424 -15.713244846653824
1134 1.8133912237533236 6.020158825924177 -2.2309351206550487
66 0.27875870050243645 -13.153901385419923 -5.200273473031611
1384 -2.0784085609884015 -4.183360846822434 5.016647298720953
1879 14.310707974367405 11.8190739546556 2.778552553173788
1671 -3.935919842357183 0.21324088861452498 -7.021019320001596
134 4.06870200482303 9.152298452526319 7.119164313908566
129 0.621042880408908 0.39259627872487557 9.659992293650356
1281 13.98684334442078 -18.294461745111526 -0.7176758595513295
260 0.7169529422547362 -3.6862922045271933 -12.742661286624001
161 -9.248889497017652 -3.7489522393768455 7.322788140209787
145 -1.152533278420116 -13.979464730982297 2.276707543768195
180 -7.3061524668063855 -8.538318607651368 26.194031192570257
1984 -4.251235063222708 4.499272845820647 6.08715133097496
2093 3.8405383746641033 14.006110367816513 -2.457523263380395
140 -10.540976088614903 -10.421931080383374 14.996123910632994
280 -6.949303115903733 0.6081416495821925 5.710750325831841
931 -5.245888350715342 24.476998144727922 13.743722980201737
1438 6.846955795536494 -1.306607424929118 20.02938596624849
432 -2.790366414280156 -1.3169083825451204 15.682613988760455
615 -2.8760965904166422 -14.594823029159757 0.9919953832172288
702 5.532432162405761 -20.29714657485271 0.07240125133396644
444 7.42847860708711 29.522502281137644 -13.751852216645352
1456 22.11299675880352 -9.00557053702793 2.017105636086733
470 4.375493647694308 -0.5599955242389626 1.1831204798016175
1558 -1.8590799312087631 2.626063562102399 -9.026817907253944
98 0.5890974978737964 -3.316961514817806 -1.2951421251487099
120 10.641482016684662 -7.124104316080354 -3.870102458788828
1660 0.8441165174160702 -1.5043194791930856 -2.512979041437326
516 -22.919468666272728 3.6736451081177615 -3.4437821546771428
1752 9.100249029139931 10.908985098550218 1.2503731292429154
1015 10.823801774329068 1.7707427364953803 17.837474307629613
284 0.30220928939006786 15.336471388233708 -11.952464917012698
1010 -2.877714063292165 0.602759191881936 -2.878280022647829
839 18.90376408108853 11.597054568311497 13.244929353590683
1129 0.4642742073651736 3.026611425272487 1.3364186445193844
1577 2.1036668405243835 -0.29972051151877577 9.338304652538195
1220 -11.972215920406475 -13.933519863404007 -4.852413163772565
598 4.68665096457586 -2.639514042740956 6.226857262956108
286 -17.852458490569415 -4.029562293132292 18.853668857133403
243 -3.769319386210011 5.4180308262838315 -13.36387013431244
618 -4.419877524553276 -0.5544769673086366 -6.0667737501247005
1234 0.04472822290402557 15.364414187384105 -4.92220570085925
2101 -6.332340053334351 10.498237181111001 -8.555046813028692
1928 5.915373440382543 -8.573094366061026 6.5360100740797975
1087 -0.7463305802301741 6.760809667033982 -2.7349691313268316
1896 6.2232555948414525 -5.875407117469915 -9.32372222063534
574 23.081711371778916 4.319391848060241 -1.976197651435443
1405 0.8194630534222461 2.9884387175723868 -9.544554727575308
1702 3.4025453804529886 -10.823037034290827 11.37149868072263
701 -7.525693712583096 -7.636113659757658 -6.006766016361119
991 7.8232850840508394 19.92565165913402 -3.9801663267840457
152 1.3086580223494806 15.271760491957075 -8.933448079009704
877 1.9756328165712702 -8.193709541097647 4.56774939932286
1055 0.26012463775521194 -8.851102763091186 18.74325334508347
2038 -0.7307327112464276 -7.991139155977077 11.101376561289683
1169 7.266434020026878 -0.37400127038907294 5.692456295724759
1696 -7.803181007974182 7.665034088039311 -3.305677623103198
1590 -2.035063509012274 -4.315236898567778 6.356450017044907
1760 -12.88305537598862 4.1026266652345456 11.181414011513812
223 18.790717788255524 -1.8057859842522344 3.149657182166482
1965 -6.121407113277247 -19.545469365677334 0.977214113962476
1457 7.816080036094878 -5.883994351746247 -5.4327123056483675
542 5.805370226802922 6.346717106559512 -4.075216285656547
1197 9.500289642880281 -8.850895000982097 4.021074841153858
982 3.8577555644091004 -3.2630259339535446 4.712928352163877
1219 9.271436903850569 16.793406932358717 -12.148673182955347
1094 -8.318098629555092 -4.167183894179939 4.872754175085031
1295 5.387108250705238 14.883179286357155 13.053750677103615
1006 3.9249243119833097 -6.166288767031306 0.5549915472864168
1754 -7.020119334562289 -4.912120646896391 -5.757244076167698
1118 8.015994533641374 5.06449392848984 -15.324858611894294
453 -5.703275111538338 -11.259368677605512 9.107730607954498
1391 -10.668931129872401 -10.653428333079017 -1.0931394098601672
396 6.149780742245706 -23.519225299164738 -8.822253865783255
530 3.981277037460307 6.486084240414685 -8.749154145075938
874 -5.430614646282143 -11.641244038494934 -13.879202522129905
673 -4.136674947642537 -16.22632259488152 2.2025313903659534
587 -12.566491935571372 0.5826515700215332 5.034781006810971
1683 -0.1295604120198523 -8.235997401139981 13.053042460782596
200 -7.0624973490098375 16.772407533548552 8.94826223483956
1024 -7.8817735537470135 -6.321198224678987 -4.0639877465852585
106 -15.135790816386649 -7.786868928355497 -2.033618113847958
1885 -0.8603484378167491 3.004073183369798 -2.0754622377422454
514 -6.159065838374178 -11.386357056297255 0.22217336930913115
2104 6.928410061009748 -3.570765025599259 6.689476876596411
1306 -10.760822356822446 3.9344969290340845 -16.619341000060075
1070 -5.569085933117166 3.0536385267666484 5.074363662711765
703 -1.9907416394356323 5.264681531806528 -13.45855264778
2090 -4.556423415274577 -1.4291567991446683 -5.751288004097305
1698 -10.910995113329768 15.467309897448391 -0.30702335206253745
1607 15.787697242889084 17.498763646875183 5.814875037442362
1274 -0.48263278761631884 10.989872147049377 -0.5553378038938793
372 -5.186600781158248 1.3962916914182604 -7.84379733492603
1846 -4.426858735629672 -5.49953297988475 25.170189074878195
1560 -5.499844434897512 -15.991218019365622 -8.407979545031935
2001 11.87536927489311 2.5417047234756938 12.320908664412183
1189 -6.045466727792074 0.018320740622158455 7.905573504842303
1583 10.899933742680712 8.697095558411853 6.349769406526865
1892 -12.42487207243556 12.858891760933249 -0.8425179253007916
338 -4.168816998843001 1.060184703502684 5.316416315468565
353 20.46935664264741 -7.933549031920352 3.8431022060482154
1250 1.5155514014875624 -1.2102332849283028 3.0081456414902417
2112 -0.6791616119575291 4.421411311249773 -0.7108050338878661
1111 -21.529167093273408 -2.2353760185504945 -9.089395808461516
1860 -6.370510363329878 9.99358814807573 -4.674140771782274
682 -2.3067651265318805 5.64302603239343 -18.658658472694107
1105 -1.6476066396064823 11.929869184521209 -2.5019186398279794
1151 0.8436492241276146 -8.870481938786057 0.06211930078524343
939 2.245227087922593 -4.842397517614105 1.4861249709140398
1653 -7.683258898260643 3.0769639576032346 -2.6129908044746832
745 -11.20468749393236 17.53847279768085 1.233301290909074
1482 -12.508704250123651 20.726278084726143 -4.671595351279225
1883 1.0723662342852267 -3.664460206066185 -29.564430295794523
83 10.592955971744649 0.9417796068296936 4.1597023962243345
38 -13.695045289943524 -16.25744480063795 -15.449378653361412
1228 7.533653744730694 7.857448160341337 -16.929916698932313
245 -4.239733703925213 -9.658243749686129 -11.839727198977249
1884 10.95202830837166 -1.4209868144032614 -28.74790788401071
2136 0.9111769552592239 14.763089485857675 3.28180881148686
1710 6.444517089044982 -0.22805263172711573 6.354788343785309
1361 14.765279287002333 0.835877718233904 3.783919304102966
1592 4.099510996163454 -5.199063036482788 -14.030207608961055
1851 -5.464834488242555 10.799429703980827 -1.736711307502514
708 2.6386392000290186 -9.032094321637388 -6.375910419301823
198 21.904883786685215 -7.827114014545447 -2.9438580307929496
149 -2.876722050154857 -0.11826821286572035 -6.5295192697271744
63 1.3664408065889448 -9.412638332259178 4.60722402289975
1422 -1.7062190325592568 -3.2214757860242886 14.745166780251962
1703 6.9839811585874525 -1.6746323027619716 9.971757786773422
1145 2.243146195704492 8.110485957736767 -8.971552918801551
365 -1.2577390362347347 -11.881098712472882 4.303563801319486
722 4.64877450485024 -2.5417932327503765 -20.441386204157393
16 10.196066351501367 3.0144348665586125 2.2910373243747992
295 -0.7315007679977135 -2.592395437184302 2.4003004303510083
652 2.4716936894900665 -2.8306211915789756 0.7773457161557437
746 -19.418347557573856 -5.199923989946102 -10.850083742655896
141 4.005513001403418 16.792624975466776 -11.288813817707176
633 -16.513612323690975 -4.56250932162493 8.430160077528795
1048 -18.348020091979816 -7.37091316516848 -1.7778210318839913
262 12.765415561297635 3.1719323914401945 8.584352705162662
8 2.1373458792159568 -4.129027532967062 10.451382714591505
1354 -1.1974592130632324 13.793265750855422 -21.213746438725114
568 6.262624761408991 -3.306323833742693 3.1697269219056214
50 -1.3173663385159207 0.013796934168445086 3.641475671605256
1187 1.7669437925132148 11.7677713975094 -2.7563759494865088
2142 6.249520369763282 -14.330480560231639 17.675682015876582
2125 -10.175617193353627 -5.910757971340633 -4.564791475009448
741 -13.850050017479822 -2.191815805035692 -13.570511454239604
410 -8.357935115405088 5.423002850097381 6.6825042699219
1668 -8.85822830257271 2.750866178412736 1.146927467368579
437 -0.6928103482153591 9.23961309616287 -3.8532709458856815
1782 3.2574009468178122 -0.5425614708240938 8.743710729288715
2092 5.247512616299102 -5.498062507925397 2.5075285775584946
1912 -1.1080047323062645 -0.9930699269577755 4.66145252568137
898 -0.34634450327349 7.241083173591549 32.30578694904863
41 -6.007407151386039 -3.4394144956364756 9.60491165329126
1386 -28.706905673582156 2.60049470257503 -13.27863669828575
1940 13.216920124786734 23.01464740920441 9.25806769926074
1002 11.276165463106452 5.574058879115375 -3.808151536099624
229 -3.415459040715015 3.729147268839818 -10.198336524260283
2012 6.239184313468549 7.11638371572906 5.50262364019212
2075 9.850648785284589 0.3458070585364601 -10.344357992753777
471 -4.46531381466584 -15.302353914426087 0.3157398907805892
1043 -5.106615051957699 4.838325801312709 7.323726830596673
1464 -2.762050156713419 7.165661354936125 -3.0075163777723346
803 -18.490694405118578 3.58376928406039 9.577086798882032
1647 -10.216527777024597 -3.9511123686399516 -0.824758743549615
1304 10.01032140263918 -17.99319873563102 -4.766583931353928
1453 -4.539736691570663 -8.092247588806833 -10.321178475128704
60 -0.3183084778808318 -14.021061845780842 0.7273516173617877
768 -16.094236346933553 -6.94248890619788 -5.018339767347837
1537 2.241343863178034 5.777367586152013 -7.706044860580776
1156 -8.749570503007504 -4.374370428772991 7.061573231882227
549 -3.6107047781733184 11.095510064678257 7.108061403431506
2109 3.155201456441843 -4.870946574480986 9.721855679800472
795 7.049627985855106 5.092053558745385 16.530677631480533
2063 4.271902920378988 24.697389738147244 -8.315743318654805
1606 2.012741504057951 8.078413131745569 0.07479692974686743
642 -19.279377275345723 1.9534816688961767 -1.481219745528608
34 5.01480353377093 -5.750554952448418 -1.5331048637252371
364 15.955516718754001 -6.842288147487116 -5.341942330998121
869 19.329610586374848 -13.151021419207238 18.15836351594914
1837 7.426358111398236 1.416756576859536 -4.645078662880962
155 5.864449555576852 -7.122782837138134 17.88345204663997
857 -0.8802602806048305 2.336548543277846 -9.051096218097337
1900 9.069168434972285 12.166375041057067 3.5486776309653405
948 12.735645147492294 5.843630756059197 -4.859565694114895
1711 -3.616885044112173 -1.4352070698485466 21.00364688924087
1506 -1.0940142477212753 6.2885359019945195 -3.810920990530762
255 17.50506972348135 2.8215479754731354 2.8699748210904894
1056 13.449838166651272 3.065075024546575 -4.583844103223458
1636 -6.479232401179499 0.12881966432541297 -12.338445686866915
989 -0.6941976550638271 14.716151360831947 -6.701000550538151
1270 17.383858278447185 3.8619296878296474 9.173031621758039
706 2.771506015922574 7.224387663709235 0.9010562040416902
1948 0.8098593920927053 -2.3051518709722667 6.832180054671843
1475 -20.953498114065138 2.6477773321459908 0.46799541442898446
1040 1.8086097490709938 4.591123869649249 -14.757055530338974
493 -3.303202123059304 -4.434179625932012 1.9635029231675838
981 15.469496840847949 2.4754053334331703 -15.855137549039801
867 -7.200353245808582 4.06789187529505 3.6617064321984247
292 2.1330248594016927 -12.104522355552467 6.625733564956257
163 4.142674705841107 -2.117758456982332 -8.13393740026518
1990 2.2764267692692552 -3.849031410378251 12.187822347032782
27 -8.254941482506633 5.138346686404651 -4.31517147113729
561 -4.23920063923521 -20.380155128691342 9.72213225376794
297 3.038191201007231 -6.894494681222593 6.645625152394677
1620 -4.8270214249969445 1.8277864151282803 -18.603465320737882
1120 -2.3691697154253712 -1.929682941320749 -9.621174146128162
341 6.195709464027151 -10.011595684810793 -9.410945146512889
596 -7.137622554418408 4.774799542652388 4.794889050514694
2111 1.3761527959945805 -3.3782227182509965 -1.8645017221175797
384 -5.693980032698046 8.497720541590194 15.065411114755642
228 -0.028114976425930114 -3.045957050970187 -7.853418689000798
1165 -6.863670939586078 1.544626810064123 -1.425217873337207
1218 13.014456797421522 9.637250872251647 -7.845812319773649
879 -8.695731768012921 -12.842701974382047 0.6588642394573377
1944 1.8807431208884717 -17.261073020923202 5.624699299557453
891 -0.3466498285403475 17.395623713492853 5.536215996572615
1182 -14.44897779338766 2.3544585733632895 0.1010324117240909
315 16.922952526218417 -0.47986726765349824 6.899215745904021
750 -3.4800856294161915 -18.60288367106875 8.931026057705548
1826 0.39001252252042773 -0.551703337137488 4.406165926735845
789 -4.352001308117877 -8.42877872499773 2.0177844927931585
1497 11.993094516044678 16.921888000945124 -0.6169303214742774
73 7.965616705336663 -18.251920479101113 13.59473582170109
1415 4.674084989593259 -19.505060567019143 16.72528644836945
2055 6.382973897765435 1.8414444742287561 12.073372201783396
1799 11.026473152149803 0.14624157700345583 -17.76568955684312
1516 3.8781936372512007 -8.471873848335502 -2.4324772237413987
1728 -0.5804327271980466 1.6465415133791743 -8.755724847449782
302 -5.4594245846150695 -0.5925466809728442 -3.540801528156298
21 -8.255399348330412 -14.795712470969006 -19.677299109285435
1924 -0.9487482374503975 -14.214711698802425 14.61174193256776
421 11.524469279737591 8.078349130872903 4.625860415739446
731 -3.5988611520199196 2.146640796494162 -2.4296924291772783
96 17.125529661389617 -2.5920893414460835 -2.2373237760903706
1186 -14.268540779588397 0.5412456744481944 5.357504118036201
254 -2.28438316263177 -0.09899184365666193 -4.215245069449542
1446 -21.11517530657274 -6.60101599722647 -8.945657404394527
1329 -0.8567057699195392 2.7119417189102344 -4.043503596699163
1201 -8.25670258373905 -1.4342634293797816 -9.086780297245225
1726 -2.315150231529116 -3.5992289208309316 -9.453162886954399
800 10.032860028871012 12.412149484574769 4.616609816339363
1388 8.188642229841552 8.950005736293916 4.262812204330561
1333 -5.021884057411873 -0.016882649567893305 1.0053180303608409
794 5.854366040611815 -5.837361753818819 2.220703290634743
2105 5.395227162596182 -2.3759636370050816 -17.745512068335277
197 -6.576551463767867 16.69576680706881 22.733717565018164
301 -6.648625429991827 3.4714107925231037 -10.079259664413609
1518 2.651566236062965 5.668019227938204 3.0613264933988686
1700 -10.488661198295668 -12.259961252245688 -6.312474756452982
248 -0.014817250085678848 15.160850166459076 4.6244780189569905
1272 12.733815370337705 -3.7673681996455497 -3.147434435647857
1444 7.0917677445852 -1.9694239426133964 9.533858670467088
1429 -12.313458423639002 0.12243108577269363 5.777998771961443
1452 -16.865647840104245 8.311447563420218 -13.613703605254567
2100 9.34592121692259 -6.331826661934899 -8.228969121879004
600 0.5349450077301829 -8.872294009667996 15.62563779386829
1408 -1.247282630752698 -20.93975440271139 6.311531104717474
1740 -10.571781472373896 -18.555983138869173 15.616767799296174
868 10.083597719331872 1.1467929301397317 -13.8012910125607
392 -3.702464781355538 -1.7465665992317403 -12.0938731295574
194 5.064958870849801 -5.410649221662356 3.7511204181071656
1427 5.409190203712048 -7.801311491000496 -12.24123058449485
309 3.1688555422158 -2.903146249834976 -9.4798085900556
257 5.124604817499617 -27.860117315270134 -1.507637368910738
1878 17.074896220487847 3.259773745875249 -0.06644455819963552
818 15.12642899208854 6.355310046269493 3.233472015457727
1685 5.646624572728066 -2.1115025753521084 1.3931728512497905
886 -1.1445272133552546 -1.555113027878919 6.542816955608218
2140 9.641544238557417 4.715582400451364 4.199359208634962
354 -5.43688297858057 2.4513503748718604 -19.52076479069016
910 -6.529104908455674 -15.921664370843734 -25.89726902786658
299 -3.002863209321446 -0.5962406230567503 -2.8423727455491723
2094 3.882234357525842 -6.2298160825003 1.6633799417397206
216 -4.447272630560589 4.330233449330709 7.310293580209846
1553 -6.805288149024017 9.3525651587446 12.311721093417503
1381 0.4345387454755991 -14.151988261945718 10.191251834333908
899 -10.577203732951364 -6.165459843049405 -1.6519409149206221
1420 2.6337664584090943 5.040779625773766 2.8830937507906724
559 8.453848987187794 -0.10530142996031182 -18.241497283060976
1471 -8.456794460649201 -12.897348092812416 -6.942390182795059
343 6.22690292279238 5.966872786056204 -0.029585126400090127
157 -9.297276715603555 0.6973532448443099 -2.99378146696803
1569 -17.47428713697382 -7.654379930341472 -0.10632918806691267
812 9.053353422842713 13.339556894040028 28.11449728931975
1166 -7.379746204158888 0.8835868953554238 3.3073558274532555
1787 0.378926976293377 11.726298000854243 -7.061543490357086
2151 -3.510862302661426 -11.958111761908443 6.944126529902816
342 -12.213496567315463 7.313584695835457 -1.4100339750828512
1114 -0.01283946213476965 -1.3679369806821884 -1.2796305210563177
1758 -7.897407651784245 1.8154992595796806 -5.777497929518832
1336 -10.181589639614456 -0.27958882211956226 -17.541788398524936
1806 -3.8355018918976134 -10.409281135238528 -3.6129622265675887
567 2.576847255164522 -1.7894326412108557 3.8710419596748924
2062 -0.5870827377834784 -6.087092060676633 0.16427301979653597
1460 -12.245760556785484 -5.301049834849819 -15.557645291869221
1598 -6.59181619571136 0.5842262701566442 3.5171377501798906
1430 -2.87977997068363 0.21917538070705217 6.327926142222023
594 2.739640802109306 -5.292897784599776 -4.154291596120453
1626 -0.05597744666992054 22.308553834079532 7.725406259453151
1222 3.3780048818946566 -1.22772345244583 16.964593992446744
663 -2.872811315106548 -3.1441791315244774 6.273737783311087
1521 -2.132049852230882 1.0840117987992977 4.918864357622755
449 -11.837876719535616 5.399731683184041 8.355517513550836
1611 -9.136124727119766 -5.034727373300916 6.006782742745238
1526 7.555393302647098 2.5029152582887804 8.963780890760132
1566 -9.624200157406138 8.597894519879402 -0.4256168309965989
1920 -3.422254393670248 26.756577805750148 3.685537059723361
1372 -1.050281682039717 -3.36662958977027 2.3929581785329135
667 -4.185744978629395 12.120383302975581 6.525946163227322
2145 -9.318438444190225 14.397809802859106 -1.5552998523626256
985 3.72274166865478 18.149523856672598 1.2674123345016728
414 0.2647680893644847 -13.45513662965126 9.390723564926507
1115 -7.778730689570645 2.4988350072080228 -10.328390977326276
1803 5.373781531070858 -7.5584510250486385 -6.90735102713008
972 -7.3481537723424415 -10.615800055547634 11.207174038094356
407 0.7473233915462257 10.93112078117582 -6.701422577968679
1214 -3.590473863686415 -2.5245555284368137 -2.1521703902233416
670 -6.402060255472335 -17.094754383492134 24.206018187561707
956 -7.129667673316929 1.6692007045847082 -0.8762948079913014
1374 0.10246209033138813 3.8051475451134036 -1.4809246876766842
1065 -5.520917359883106 11.376467188401627 4.609858071332472
866 2.1908546931443245 -3.8047152519696645 -7.833217857344858
190 -7.491237265394881 -7.963759887410944 7.582509814194467
1089 -5.615572406789683 9.536563609257568 -2.345318185463592
1524 4.552891002267409 -0.7860120448329874 6.39885716436067
9 15.536082573158637 0.5719071475913989 2.487620991541972
1963 8.921601697807269 -9.534808824868266 -11.620595720245111
644 -9.425404447452259 2.8054246670255436 1.5904136952920034
399 3.984713630158224 13.199476208517714 0.36280155217349935
524 2.8486537346495973 3.278983160194509 -14.394177834728744
290 18.599776775187493 7.354737571452721 -6.807812805182574
1337 -5.64843206272566 -4.474506926852203 4.239806934769244
660 -15.15158141371283 -6.228987093895579 3.616345377759953
481 4.735324611110828 3.3450240859390044 3.286218275859158
144 -15.997186505275232 -17.328900438457588 2.399570739753089
77 -7.600595126995481 -3.453849694138064 6.055094258102244
1262 0.8785077510167772 4.525089792025346 -5.183873701008878
503 10.134078515985008 15.492017488422022 -22.572745500984656
834 -10.946564480050233 5.95878743366397 -5.482957438867996
184 4.392361931694688 1.1002999410015806 -4.791070585206233
1097 -2.955649338926526 10.320696342978064 24.955676656429993
1133 2.3538947112566073 -5.162229117470988 4.839834113248588
1681 -10.477229471547407 -5.212640172235961 1.4014695367098136
785 9.248981313000694 4.298147690255319 -0.7799510063291073
52 6.070815052900193 11.851419420516455 1.8628911519846305
327 5.707674680156334 0.15998785270473453 14.845787287050435
1318 -6.057014888706115 14.344284893065263 -4.010261069978118
195 11.57085096670707 5.435152146182556 -9.837299504859036
150 -2.6631804672524897 -24.049681997234696 9.782584197245614
1383 2.416356734502233 1.8964181602587609 -8.644685439940346
1534 -6.857414406706785 -7.491570226843961 -6.8201217377836985
2116 -5.971937686389685 11.184995053471681 -10.078758167066864
1243 -7.582472425581617 -0.8216515758033799 -11.159828359476373
423 0.17612661402266463 -2.977175350637935 8.442232281549954
89 -4.149113341753183 2.0008477996542537 -8.365243226069643
2002 3.8217732572725254 0.5732772447130043 10.657477374216828
1753 5.293024791233167 8.661656079912758 -9.285139854426046
2087 -10.331769552606884 -0.6379390090484743 5.031804813525993
147 6.271869548128098 11.823895452072142 -6.324513634897085
912 -13.686515223056281 22.468589927572562 -7.001859788688244
1061 -15.835901279285318 -2.157489292909324 -7.4407724240768625
630 -8.213285643469813 7.183180855397975 15.200388659806622
1649 -8.385249398501385 -1.7793970810627122 6.718653248698558
807 -0.6089135428413344 -2.1857863231264205 0.683297116723197
1248 0.3752060837248619 4.841629759480086 -0.5218496949253965
409 11.740402905249208 -3.396990936777561 -1.8398308155170666
945 -4.988833242700305 -9.581078226607293 2.849729167327988
1825 15.517565306496751 -6.270204527251541 13.393852084128282
552 -0.823365090955435 -9.867204373903107 1.4479965125196244
1373 5.5201029806194155 9.365421915552442 2.808002029749728
1981 -11.188376356512219 3.8189885162029316 13.448791913554768
2123 9.256978415119805 8.304848004979595 -13.266279830525338
1757 1.2534724298776585 -16.962926810657365 5.060017001765834
806 6.7726338798117425 3.9981314520683346 -11.778460875691438
56 22.584332806911664 -3.39909685345656 -11.448478937497722
1362 -6.338231582923422 -18.014685585603576 16.928591388547193
136 -3.282449976348508 -1.3084996368124735 -8.823597887661178
1432 13.476100542420731 -0.984727881906581 -3.4303677918170137
1229 -2.366892708644207 0.9016951347068157 6.711011948786715
950 1.3498200879106153 -12.071479524535382 -2.1563247847479508
751 7.221729221858676 -11.123002312662155 3.3639945599297647
112 -11.541725747446874 -7.117928251899528 -0.36875916585893775
954 -12.250673411743914 -10.859043072995492 9.142184013017319
1555 -3.151117149337284 -3.8628132808445583 11.777550531010162
1861 -0.8510879235020553 9.19362576824934 3.0471574588261587
210 -14.391670492072718 1.8021558966128692 -8.754335729776331
791 -11.431610656702716 -11.949100624105142 4.5382231321446795
1343 -1.9655391211521973 15.605244307468936 -2.8423017926554364
1009 15.268715868052261 3.527211642057937 -4.0152331717751
1104 -3.6533661555552293 9.586773108579049 -0.1194594142294517
1545 -3.126621879187949 -7.004206189727776 -18.27547239786338
1730 4.5361390605754455 -13.214436999332204 2.5491930055232084
908 4.63473121843923 -6.494903279852619 4.416865360524086
308 1.5599697960932948 -25.75536917959482 -7.438759796631624
522 0.08681629711672359 2.0709254330721305 -9.012437447802203
466 -2.6152158463623816 0.6548931022672878 2.8271587558344082
1254 -25.460464003069525 5.3966736458472315 9.108502239339183
2005 9.61361773939365 -2.2564764695734922 -17.64544962269826
1244 1.537079410896691 -1.058718578071926 0.1766693638306733
588 -9.327860440703573 -15.135731512140588 -2.7802425300961464
1967 -18.293427516841305 -0.0927808037760921 -12.591290733241845
1755 -0.5682260982835663 5.798145756299706 18.20055028238898
752 17.168761314117777 17.080926632652446 -13.476984726462355
1762 -6.231740837205926 6.048149677315775 12.95741007107012
1171 -0.28245657925712586 -9.719170873579598 -1.2966254178761893
1339 -4.801014631092002 1.040024386224711 -0.4559823358819935
1715 1.0847493170231117 5.5804299516732225 3.6591528605584744
578 1.3584473645601516 4.296413631064366 12.82060930385504
500 -8.395121813091032 -15.81948864192703 4.574166666826729
2046 -3.306417539237899 8.731927267107798 -1.7219157066104045
1877 34.92005629437531 -11.470848156337999 10.249997043555686
231 -2.193397225921538 -4.860391362613457 3.248867460099787
907 -2.671820128694973 4.481577989423511 -2.8062151072050407
1502 -7.429572214044357 -9.962263253441092 17.74643682247157
238 -9.843971573588508 1.136517967132912 -9.73590709671994
282 5.285781593960399 0.5995073745474466 -12.563411057529336
2147 -4.011888266085596 -5.302950186608124 7.913081244009087
1033 1.5419790825274384 3.7013356516448366 -8.061614309287846
1326 11.115276380292583 0.6280350576754123 -14.235195845916936
405 -6.309514474025756 -5.162393751784443 3.542321164251269
927 -9.398227586417466 -1.5923891654269657 1.035280699726718
852 8.761927654061628 26.08802948301188 -21.503621796470583
123 -8.475559737377342 -6.315145076354878 1.570443918396304
952 7.407929195957013 -10.396308994410305 -14.59270685889097
2155 -1.4221924220627382 -7.491969908715324 3.7059936883158486
876 -6.034673677048766 16.4337426773418 -17.521064894308203
512 9.841132245734075 -9.728394511654589 10.314539442682502
917 2.17273274659791 -21.2191821756789 -6.1441390218555085
693 16.08025076264528 -5.310215459816562 -0.3183334019353125
208 9.284034618074426 -1.7366992413888207 2.770207275015058
539 -7.694726299458932 -13.479564395130327 -4.6804779184970045
76 7.6441809615042295 3.2102679261184437 3.926317369254862
1853 -20.792487251452123 7.48674390742398 10.379562001450429
187 -9.63521989063314 -7.865868599559948 0.504891918344583
174 -3.0144735100441364 7.218471026771879 -11.641304083931955
122 6.369907635101428 -6.143453301344725 5.00121391353856
1897 5.212249148657475 -7.505600818426639 10.88447098006237
1894 -1.9769727720100128 -0.6429552157848331 1.6707592729791367
1257 -0.5380520351999903 10.16896759273378 -6.187454664727973
1360 -10.715820838467506 -13.541422958533534 -7.250674751653209
1658 -2.920718271476576 -7.821636193948009 9.454871734047716
2070 -2.8359244952610934 4.11117138099765 1.308281816374139
1289 -0.4043590333539034 8.743103824080837 -6.370014104111426
724 12.724592274888405 -1.9648287416572787 11.058716970458725
72 1.9808059959438786 1.7701986630891149 15.182879633697738
859 -1.430137964196826 -7.481386576653405 -11.558159392123294
2076 18.046691097165283 -9.642846240738612 -12.552526688775808
316 1.823017248004878 -9.377728134714582 -14.407588789429832
1724 12.400402529386403 -12.602232378785965 -5.8576995394581886
20 16.52944409989167 -9.417825460180394 -14.845593782953221
734 5.347839573611449 2.469542162563315 -5.012348738951341
138 -12.652066623867753 7.187483342285759 -18.139366894565697
226 13.855122921672542 -6.998860520427509 -2.6174888981977746
2102 6.907085789794771 -8.174752065124023 1.1630349642154374
725 -14.32187332190552 -3.2603531104376717 24.705377615054008
267 -14.948783519412128 10.124559615849437 1.3113553676022902
838 -13.441172719141758 -0.8445361214049121 5.298307603534533
586 8.66750640653858 6.38889853765221 -14.715354778078485
651 0.6798513001598783 -2.3934792020926445 -11.383865256238227
1426 -3.2635401711223033 5.913665815532056 11.3836853589463
903 -7.512428881238143 -4.881479549039776 4.151018542512713
413 -0.9789966204410752 -16.76412131380882 -16.154273395966282
1158 0.5328068968146867 2.533422839581203 -27.722892668246157
1233 8.050931388232618 -7.937767344694523 3.17932008242156
737 14.2643902994808 -12.294282389925913 9.841117126052808
1461 1.2128304269398267 1.5527809333440437 7.262718438693557
677 13.912846101148824 0.04572346529349507 -1.6805214286916033
967 -6.860708002479326 -2.757259039445045 11.65801980579223
1957 9.489220182660416 -6.752673866904435 9.93991709648503
1625 -4.834073984332745 10.203187035700937 7.241205223069874
638 5.4994555140725225 -8.4461699700849 8.210308304339227
502 11.84110875418845 -14.06224486750975 -15.910134236637989
1919 -9.897622902221233 -8.11140901714918 -0.08119017146254995
1407 -1.7902406264341688 1.50583650660443 4.817573614799612
320 -1.5388024306662074 -13.588586070497739 9.688904633101595
219 -4.1751999889362486 8.427516141547798 12.596504787479944
1445 -0.7668967534064183 -5.334646784083555 -2.1025415389644517
2160 1.6001521798287954 -0.7960229069187327 8.0780426610291
1646 -2.8713368121535625 3.576454534200252 0.5405882485504266
1256 16.248412179904662 1.7396373843323012 2.7985257897201548
1224 1.3777896007922343 -11.868924351025576 -10.246849191165804
1084 11.877296166629838 2.9881739111593917 5.515808298042708
1305 -14.660300546211337 -8.359407787836004 -16.856631059974994
1774 -9.142418026896813 -16.09266505867602 4.1241923855186515
2061 0.7340961424477548 -14.268526463244035 -4.29451149370891
2131 3.2772339792405636 3.0945821634068422 8.655362926323301
1563 -11.77135497392246 -6.082273672548664 8.36908356122478
1193 -6.801867766977233 -4.465748103482572 -10.83852710559456
153 0.03180652516626889 -5.2396009990413575 -5.506834966980202
1490 4.558599666903027 -9.154513253268941 7.196426824955034
720 -16.119676289970034 5.582335244427745 4.899528249045847
2047 -6.339939168170188 1.7994377670521353 -28.46697810825553
233 -1.5668630117111795 -1.4317111668029037 -10.574226526508935
188 14.452990972787175 8.657783509841858 3.271076879455974
507 -11.12891154062269 -9.597397953664625 14.993574018408484
417 4.8632000764384005 -3.7669407266327504 5.267148203109735
1162 8.123089449510697 6.526561861493906 -18.936078385984597
1690 -3.720922473290309 10.145973882754985 6.7741034372637365
1899 -5.990745940777261 -0.4718796416291711 -2.0622965657452843
635 -7.8121292414326255 15.392139216925047 -4.089105913966954
1567 -0.8336813704457752 8.619150072687292 6.952116367209511
271 9.445388386451166 -10.676803864158174 -5.504354832438863
4 0.9799901322979516 5.574477630961342 -1.8570549531700926
1292 -11.38682854655857 4.191347442890282 12.984969082159504
1863 6.980520192943315 -10.503261339965992 14.2182743938074
599 11.440232049326754 -3.7614533877514567 11.269735036551435
1705 3.2316965977697634 -11.673400061723823 7.564146207042038
2113 -4.9942715222373115 1.9200868023388842 -7.689111823003285
382 1.2464041437532474 8.640118634840857 -11.769257495280707
1 7.099233382542744 -9.831596170491785 10.579094057455942
767 3.7990394648167523 4.985507110632873 14.950041755305753
1887 -4.724816615820172 -9.588089976525623 -2.996912355739505
1263 -0.49709362380118643 2.6769498172122157 10.082309692016212
533 4.1050210489643915 9.20705631776146 22.42773820143541
1519 -11.369317966994211 12.432155849774073 -4.167109100574986
1352 16.988064155380354 8.51756301583636 2.6185024455154258
121 -3.7723415255325423 -0.6628289199082977 -0.7949075409046121
30 4.32629136942305 19.340872350794065 -3.331385610113047
2033 -3.1112973854442147 -5.809635897257049 4.357092489947877
139 -7.483388605729322 -12.460204049666403 12.73527361014233
817 -6.0026780582835695 0.15996758943386039 -0.18762016169347095
1100 16.952774494483617 7.4981479379813605 -17.498965348469277
2021 5.623739323518573 7.571144740657795 -3.049549471042909
247 10.982749080616115 -7.497808070305244 -17.277914329655594
984 -6.773048691236904 -9.900660114380889 -7.700939072417548
979 1.5174825305836943 -12.066099486049875 4.32349787763437
1570 -13.265769297211053 -10.64731755374021 9.73838581934854
763 14.005610121408385 -3.1793874365032564 14.728756010430105
845 11.279830365723905 -6.394353945918799 2.0753511062266394
691 -6.74148947274706 5.32833904667144 11.233584265692867
1773 -2.9313040774866415 -1.2359074774343297 20.367733407902673
1014 -18.309134600421125 -11.329868904545119 -1.6060479438663733
45 -4.91047902268689 7.936460756479786 11.973770116319308
395 7.4958565974344955 6.458101431027043 0.8828261866874251
1804 -2.400851364334461 -7.306783904471577 -1.9824194953404513
1185 5.120372009646353 7.701422293797677 -7.8644736207307355
352 5.776612598303214 9.698368510091628 5.829873235866404
1331 -14.515731462603538 -7.389004947418392 17.78978429643329
632 -12.514057184206626 -9.178354032930477 -5.595825602394517
205 8.866995001801902 3.0953307928360188 2.751486918120474
1368 0.42935239198894026 7.446268008998934 2.8765495399309033
261 10.918171304060353 13.91016901835883 -5.956479737404358
592 -10.077639481465399 4.5222019269268205 11.1389264937971
1042 -5.217901599580491 -3.329487603476029 -20.34210073664942
1437 7.593906674062839 -13.045789829571053 4.650275989343749
1807 -11.333244353755848 3.4929239492131816 -6.265088575616752
278 7.381399264922238 14.96537840542559 6.203825392276392
728 -11.59504803373977 -8.06712881834039 -0.5024437052993349
1241 17.262468802274125 -23.936971893528277 -11.583271663692576
675 3.425110913405966 -2.5563473242694443 -2.366817156267792
1830 13.296177122063384 -0.7259910523019376 -0.6535513921808531
1575 -0.26117860199680365 -8.611218166380967 -5.578220684946489
828 -8.945573362109663 2.528065693648042 19.274923698596638
90 -1.1927742722063563 9.421421018798211 2.1381704265692676
1952 -3.3177057820036366 7.726193088332598 -7.853977378804642
1269 -3.9464450400767874 5.333665420612836 -1.890624994461202
462 -0.3900562107931847 -6.707436507366294 -1.6833424104350254
434 -3.2848849144910592 3.2913034944121775 -3.8910827024268073
564 30.36022021818259 3.5809917810988736 6.084637961611659
639 -2.5424657329059297 7.209278526490573 4.375803809772593
319 -14.20415961838555 7.216603352406931 -4.9273654373492315
949 4.303954116838551 1.9465438573011384 -2.6160842227501275
551 -14.897196022997342 -5.632476410159675 6.952328055485569
1226 -10.108844904177294 -15.794963874430664 -3.5856623779168815
1451 3.204383334370791 -8.141002946281505 -12.535066143363945
305 -12.366776355945415 17.931140422365054 4.130979224333957
1612 -5.512526010568856 6.198463409841678 -8.596103417698428
1933 -7.659261407802245 -1.2431278018620129 10.382953722291065
1261 -2.1774035333183566 9.024099716708658 2.9272255746967533
1714 -15.885072370242682 6.99601291391716 -1.2638203862056818
1279 10.381293559060907 -4.060798021046881 6.045071764351387
1978 3.891454049578432 4.469747791434234 -7.027909819318987
1514 1.0884103607831104 1.2890121475420808 -3.299622975997934
884 10.823999733818056 3.277884553123403 -1.837157055456149
71 0.4226072426721196 -4.761569939830863 -2.0743701993118338
1183 8.410803206031455 -1.2008893688907682 -0.9743328627714261
67 12.621863654129719 20.7820409851675 -7.815071358146766
1076 6.308832852292916 -16.812342684415768 17.577860058744847
1511 -10.317020341351384 -6.165217300749329 3.2462203477950204
1732 -6.694652812222366 2.250343045548453 3.606420951623194
1572 12.049062635111737 7.479322668553587 -18.652315113412573
1794 5.0466486268137665 -8.382200236001205 -0.1554477350014038
457 1.525658172710727 -16.26125334499866 -8.10519844481012
1964 -16.155066700070012 10.833072849652877 7.922985561832371
1790 -5.812818634543735 9.704835141865344 -0.7531247942692478
1686 -14.990494463302047 -13.885200218628738 -9.064018399933147
761 0.9501050741177752 15.125620012068554 7.42480921502003
159 6.777724273526004 10.456938481557158 -1.6007433515839138
816 9.225903152439328 1.3771387581593892 -9.491372557380615
943 -2.1177173994343197 -11.479754382850762 15.463762481566228
2079 6.36571053717834 4.434659196862516 5.6334827362359565
259 1.9015199255119142 7.501064375245137 -7.606109821424423
815 6.879075419030937 1.8274768935904817 6.067866796856449
986 -10.44965406765931 -2.2370806130126555 15.580456467327188
1749 10.126870747584663 -4.017818676371476 10.782438557688097
1095 2.610105036105606 -6.570248965857524 9.700421543109755
1997 -2.585701729496671 3.260723452751626 7.7908611663474385
450 -6.221897055817145 -4.767238537106647 5.45296720354967
1844 11.687065685750541 -6.673326965425797 -2.192591888907331
849 18.78777055935694 -5.435667028770307 3.226454210605047
1144 -6.240821887130007 -1.868797875333462 13.837447493788314
415 -6.941024659304224 3.2702902149079507 -5.5359271886188415
1039 13.091688256741953 22.318648070551486 -7.386876970018172
1925 6.5609640856827856 -9.530966611368592 10.721470590055237
2121 11.10511182924815 1.710095560264791 2.186240428788444
1107 7.355341716603402 -11.547845003796178 1.718327616373936
759 19.120174460559372 12.566936492541199 0.21562753597026632
1608 -3.239635462874333 -5.261385652060849 -9.093365984681988
1172 -10.513541942187867 -16.89264675501571 -4.4219798427410275
1051 -5.613772161736455 0.7202380409943843 3.6109374004185475
1027 12.841581859589565 -14.342280085446202 -1.0713246486749624
649 -7.775787842609691 5.153134264064462 7.739819443043492
222 -25.33523690058071 3.440688496326882 -11.34931082970319
1995 1.7199898253794557 0.6256815842108723 -8.930013401618513
69 1.7624169120367001 5.900464189451692 5.156059942749599
517 5.323376457490351 -2.1665034800863383 18.004165261727042
577 2.8140646538275926 4.871168814999094 -18.53134993037158
348 -3.5420072927240076 -1.7102060626760425 5.074967618717927
116 -9.598495128683828 -6.861237714644081 7.394030215196909
253 15.593761390605813 -8.094689461993779 9.436355948790542
1327 11.823545488436062 4.99970477074207 -7.398917459794273
306 5.694577836524694 3.351408502538795 -4.709380616621144
65 -18.541087103873824 -0.2418905484885558 -13.060430488378866
2066 8.015789850039209 -8.143755337254074 8.859994144738081
1433 5.110008515638009 -1.5732340716225615 -4.593879847157383
1852 3.3636695203395863 6.571210830297185 -4.6074670173038745
1271 -8.951713630846804 0.4582299655322778 6.538408768169729
88 -3.0751360268350094 9.834748874580526 2.3155360631799673
403 -13.384572645765935 -5.2165910999072675 -0.25455607598294766
1645 -0.21290538538158654 1.9319827951636828 19.405397184690145
1092 18.05197912066594 -4.322036288323381 -18.16072306894056
1131 10.34473319072519 0.5834187980864316 -1.2072189697492022
1258 1.8784299218425864 0.7919260108221041 -16.442488834456462
1035 8.683130261180525 13.1044560210854 -5.949163088728613
439 -6.558794336970336 -11.92740097855716 -4.672457784347767
895 -4.159465128869651 3.2665164938625453 -7.936670664521213
518 2.164168346595573 12.866233412093747 -3.258094422845506
1980 3.71254011068355 1.7130683485189322 -6.756434286322643
1684 -6.980561603579127 2.6972163351766216 10.127125177885802
929 -12.259902379414106 5.914535798445023 -6.007951756895732
2141 -3.609877494046268 16.41008277174597 0.5452613719054614
1663 -7.309504526574291 1.5477529787096487 -26.539289547366035
1478 5.637871362849119 1.1850172167387638 -12.322007308594554
379 -1.0745717637374146 -21.328889144016873 -1.5435335393555585
605 20.64034932582941 -19.00632044473698 9.574208306344534
1370 1.752570530117035 -11.055957855626673 2.0991836271164903
1223 2.689995508260986 -9.712743570293474 -7.25058723940061
169 -0.2805988539603658 -2.6347173981055056 -1.5777170773771818
166 -20.988020730231888 -9.391653553214677 15.49506962862062
386 7.946493236881749 -1.6052014251442759 13.646482056668212
498 10.20776947748414 -4.123266060296088 -2.441087828555682
1161 -14.017090092123208 8.148878802009097 4.525455277826114
1178 -4.3651249652898665 3.174209714804676 -1.6308514990370546
419 -18.035065356394146 14.787386110882625 0.06874607944198076
2119 -5.470064528810179 23.21683796611419 17.204885519732354
2008 9.331853296483727 -7.215491850825147 -3.3500156347437646
1074 8.903278059310857 13.39509334709976 -0.23081276022822445
1783 -13.532097794234419 -2.769162989982965 -2.4093845699729157
773 -6.069550191988864 -1.2286273978867106 1.798451144565056
476 3.349424973358959 17.037800662588488 -4.665995071552805
22 -12.219527724396075 4.410456007670837 1.5914263473685808
170 3.757020482329728 -13.029537449222758 -6.787330460110813
771 -2.0285086783305553 -0.5629761006443961 -5.6910799795426925
1987 -3.9308364334080492 3.039725256882546 -1.521250864046404
310 -8.945914244435667 11.514385844933937 1.8525090287802972
1119 1.882046019400239 7.937242919748627 -14.482278427995215
1536 2.0736242311437647 7.4864157856024445 12.337118075503282
201 -4.190532690346693 6.625321398913673 -5.85855420624775
91 -1.1653279281888234 -2.112685789225355 14.51821929888733
2072 0.42481624852651434 -15.077048467735164 -0.7133216625905244
186 -0.9151185327898754 6.326770286375557 -11.631427101544935
1210 -2.2952538272335277 -7.204982655649761 -2.8907885189527565
1203 2.130387808812558 -7.605796806304924 7.175223152897868
443 17.576120866326388 10.997449550181024 -1.9132561935220596
880 -4.356491436874252 7.791640649928579 14.86777719881608
947 -11.829948166008219 7.498537894252262 -5.591225783143307
2086 12.6272717624022 4.3381890543546255 6.80580920135109
381 -8.973489150409012 4.1731071621235944 2.3276754191102014
1345 2.1786927746683724 6.008001099676079 -0.8152317665600136
2084 -23.974916626372504 9.785302106132814 5.0698087995667604
448 -12.558991399668685 0.9110617582886618 -2.9949754696442423
486 10.4129696594995 6.8192800972662395 8.978045577294598
1455 -6.6856423466160875 6.375973154986658 -0.48599933364043785
143 8.600527337752178 5.560409427460674 1.6850682856419388
1792 0.9768487039079543 -6.630361084476648 11.017855480654388
1893 -3.134862803027025 4.635054316239563 -1.8651751908095762
1996 8.836279790960262 8.415640109278067 -10.424187465476475
930 -3.035881606381701 12.314593929711423 4.257357314607356
1196 -32.03750524057628 4.049934318945365 -10.662170387071159
1363 10.939153824635085 3.760551369293089 1.2245526128485718
769 10.781003007761742 7.988394663680398 -1.9458189763809397
1307 1.5989374258781628 -10.389092383401923 -16.650590020586684
1875 -9.098035403242882 -8.857379187527705 -3.9920624635692006
631 5.284206504194563 -4.9839670128158495 -2.3682072433377046
148 4.35810365884537 -13.486596270948391 -1.3433427621081993
1221 -5.794804799203819 2.12168889168125 -11.13195585044511
1236 7.031203823920999 14.852953383937322 10.575935858545025
2089 -7.525674598931686 7.028663428700917 -3.6060020413794693
334 5.980682429397257 -3.5751073715778157 11.408949339104128
1501 0.2769299189124866 -0.686167679524556 4.177010513111744
760 1.4839642076883521 8.034099077340533 10.084320266573574
1727 13.455580549562605 3.162427166064032 8.240690587967713
1290 4.015506232077756 -1.392922998920119 -25.44646959148079
1276 -9.060969995271584 11.06904587833177 16.619664939707462
1821 16.246772399698923 18.76149693942584 6.7562323575219825
2114 9.111417708784762 0.3002954753492951 -1.2790140455053758
1316 -0.20156786010574498 12.771797950494216 -14.896891867081484
1635 9.09372017039127 -4.4297617586698 -4.688167002587951
1351 6.739364579521083 9.902492250440567 -2.1473614588304284
579 9.161976902485886 -7.179170734631618 2.1460931940924417
933 -16.138346327414457 3.122527922859601 0.8687593586921859
864 -2.0196685776320877 5.626996321484464 10.645931668792802
556 -0.35796394179435986 22.10105416433062 2.2017443961390253
1751 0.5430361142790917 -3.2329929676024323 4.207080773923843
1364 -1.4691485429528177 -0.365985884950503 -6.481694652375151
1717 -2.9810486640334344 -0.37921426737799496 1.4226641907202593
1941 -6.528393069080557 0.15347635759137837 -13.015506391637313
135 -0.1427281211750067 3.4493896343670976 -4.782578786807509
1532 12.345245753160812 -9.574086623932201 -33.24773612248645
488 -5.855170625430727 -3.9741273026874295 1.2271505812917953
2138 -3.399036213415629 -7.013375960531836 -4.732044632694992
723 0.07076281526163505 -3.8816802572311127 1.201579321729738
946 -16.500744640190476 11.162364106754513 1.5187262268780293
792 10.954994831681311 -10.27680734210028 1.3747746150799545
490 -15.17415543438468 3.3842627924692024 -5.412489077049694
1624 -4.069209026294665 -6.507157376610507 -3.3292739107944014
355 -20.282507757547002 -11.78409745615077 -17.722157783772175
591 13.621612951340712 -8.372976100057702 2.737202318551411
1841 -17.411809908848337 1.0588764685813685 2.364858131269946
1462 2.6768288999143945 -18.767275663560852 3.7633404561468424
1508 -7.004650363264386 -4.780396296237004 -2.3837114934714543
1314 -3.120455113371042 -1.5743896329941491 -5.998608757138346
3 -8.73618928603752 -6.900648033675621 12.91903544894789
780 -25.065646588876984 16.500542873860656 12.732300057959337
892 -0.9075732618247494 -3.7373289523569135 -0.6061297822768227
2022 -8.423684511468164 8.015017624307117 3.5282163970883955
28 20.089734931275633 6.331139724230279 -5.509835133106408
1127 -4.861050584663223 5.407074297678843 3.853931596549651
33 -9.276259809594146 -20.74857616767327 -9.840975253622089
408 5.87934796654651 5.255410183754145 -7.289889663872804
1164 -5.270086705293786 1.300093327837939 -0.7139798533953607
376 -4.747908394669014 4.5723971905880685 6.622725724168035
19 -7.752584523070136 -2.497817044715885 -15.9963044261961
277 -2.69670502928818 -3.1107972811235243 1.5472927135951515
699 2.5886207508255894 2.5876637219780356 -1.0644894221643306
1003 9.962202540644236 -7.309902642038728 4.293752853268058
550 -1.0757481169748286 -21.404946101865914 -3.389620295745148
1538 -10.30115895413924 5.309090277450993 -0.7588119377753758
851 -1.0852214871267307 8.04899031679638 7.593375423703203
2015 -0.7959868725511822 14.581185476188068 8.982531153703635
1301 -3.6036684051798793 8.890598563265094 -6.493876329482
2146 9.841471802420529 2.9554943345487934 5.303414099313133
619 -12.355540566060146 11.186116440466977 7.058361340376884
808 -16.13671998472958 2.655922046412915 -1.0468446261157403
1313 -12.948440226663209 5.401836918780529 -3.3165225594170886
1836 -1.3554451375085577 -7.687365351873714 -9.01898275755537
281 -1.0989520625933562 -5.581441994204491 8.467331824231925
1393 1.0188052462980406 0.36057786360166777 -7.438424401976802
527 -2.513100760492844 -4.121649177891941 14.416936108817174
1699 4.741506663667608 -1.1810004124761118 -5.7742281683007235
2044 -9.140338792162275 -3.203092258758464 -13.889396737001913
1793 3.069715914006835 -1.8355918194761198 -10.9745136113338
1442 8.782276776609148 15.176775099305477 1.805882753932144
1412 2.818818216641288 12.079046736499432 -6.8841865576967605
1167 10.485996025178622 7.1915213092224715 -1.2297509055252698
1053 -8.933722645051525 -15.251508142003503 3.0527866878156242
887 -1.997195404157499 7.4872003728745735 -13.410585957125996
479 9.898224948850856 8.720334405449597 -9.288496041219073
2016 -14.217310126899887 -2.5152323720454164 9.665123974260291
218 -0.598560776770143 1.5657652077016304 11.425785633126605
1829 11.530715844751075 -2.2688414510105543 -1.0623242346421187
2158 -6.168072990320968 4.934457634220907 7.62083136932956
942 11.933074504256506 0.005439429686754159 -4.605125767421458
1293 1.4923102900507514 -2.8992951110154968 2.884446256778367
1489 -0.7981359391364284 -6.246438640971017 3.9799453126889466
460 -5.028820881954676 -3.6138126757124565 -6.7898982402169485
1342 -6.32500860069979 0.5486811977830451 6.9209971452770285
263 21.032276955615032 -0.037880907510692834 -0.968568439166462
729 11.03777710335547 12.48754818739722 8.792027308296959
865 -10.589137973859065 -3.8573773251488643 2.6835344490544863
1638 -9.412441318732782 -7.174586032203318 -14.915739043451666
1124 -3.9985892737041593 24.04808569214036 1.5750421270609853
340 -3.784706306002982 -0.5052698963035523 -7.180411614589805
461 13.851826329927597 4.259800032525078 1.5079682796689358
915 -4.156202707781142 14.344446902950013 -4.118241137053773
1481 -2.272920430361183 6.1563121136924455 -6.9135354716229385
687 -12.348315050939568 -5.48758382454203 3.814993362320028
499 13.851300617260875 -4.607748489408108 0.24901412254566782
1346 -8.919869347508795 -0.42051926888024227 1.2701776249514645
1523 -0.8152020031260931 2.628832135091573 -10.461020391392752
321 -1.1516594334735264 1.9447072878858886 0.4992009431088207
829 5.863696386199735 -3.5751218416546156 -0.38462624153189723
2091 -0.4550273592869508 -7.860576154326789 -2.8740869894473673
2036 8.857583153833756 10.503830904223394 3.729208501189008
1533 -18.384835489842448 -1.83190739184504 13.02138834157842
1731 -3.8017205835958845 -6.62776689244533 3.6362038292452885
978 -5.0616481092606005 -14.170551734830394 13.447392678332676
565 8.706015784320417 5.469814938984279 3.5455925054334516
535 -6.069255754548327 -9.262898559953141 -1.4378600703356295
1691 -4.292696549550705 -13.423767129305464 -9.088481037324396
690 -3.982069965985806 -0.26036802539472614 3.348575845989651
1589 -2.172579619088468 3.318833943604339 10.203035345969033
1413 -0.7973751061765653 -10.998078017492253 6.970603820984324
1721 1.5024303863102701 4.153240234723289 2.3572276526495184
710 6.247852533541979 -7.095044415177614 -10.015403736116031
103 3.2677739437268354 5.453934756908163 1.0722005139185407
548 -16.568535037871136 -5.261823583005984 8.474975036685553
1150 0.3513357966801762 -2.753454111371105 -0.9006003112961596
272 -6.302753290133145 0.40812001361628986 6.542672741354454
283 -10.396791244701015 24.08831989032579 -11.100443803403213
489 -16.018122767288272 -9.229519495027539 7.283222407383884
388 10.274213960728378 1.2441516016020058 -3.068897911242986
1678 11.797147626600333 -1.1675752544953952 24.85123758439854
733 -2.946039444694399 -10.107097671604006 8.112910505874902
883 -2.388220155987028 17.059161044210605 1.4904361956160437
654 -4.253526044253094 -13.230703025470767 16.21633010644005
107 -1.4603577390490483 -18.399815318784224 0.9180426279165456
1093 2.137092223731312 -4.467463994503544 -4.46393700849321
1664 12.39794395138924 -5.081075566521677 -4.95738260777424
969 5.025190405658925 -8.959109262360386 3.968190937722926
595 13.099683881374418 -10.236450228826916 13.505960077702383
608 5.698500514867026 3.507034100265176 -11.532771730428761
1932 3.5276804531554915 16.701974990860467 -1.2960622079643576
436 8.392858068250431 3.5517197222920225 4.800677642429329
1031 -13.784623166533597 8.93984814344853 9.560903714536307
433 20.390623977415732 7.1777719729161005 -2.4945886412643645
1483 -0.3409450362478769 5.659225572060625 -0.5509261670921511
162 -5.051953683743906 18.746437525050524 -1.6385510130288579
1375 -11.33501386986746 12.967248075570875 -6.744174012943931
1895 3.397300247799324 -7.915661866734969 10.79718139699143
1954 -13.464384302205714 7.595326441525138 12.399949912652172
298 -14.293321230218236 -11.421014538690512 2.4363825223162667
1756 -2.058055584170754 -3.5420470046864687 -11.718191441213072
576 2.2451185759400554 11.604212573593898 0.8536378979765172
1067 -14.069848804458832 -6.482563509376722 -7.185024152753355
1216 -1.579848822681682 -3.057744370105867 4.663273320070202
1596 -9.751571676069604 9.998226520240914 -24.50810488202201
2083 9.045319485177792 -0.38711991461915135 15.507187103034333
435 -1.8885594889065174 13.88496220224213 -9.334306197847875
331 4.329903130891462 -3.8459721237288615 -3.793255610899284
368 14.754717765600407 -2.692320149236895 -0.8816747557063582
544 10.663562927898534 1.0451136362363591 3.0020017356271262
607 -1.049567544903712 -10.294305283232651 -1.294713757222365
1881 5.211924968578926 -11.07332471297589 -2.5193100916640367
1761 4.691570030485458 -5.146842495014142 -13.565968913664138
1417 0.6960131834400958 22.04369334398498 -4.123002152710324
1163 -19.691829036072875 -9.386439459476037 1.0992294578406614
400 3.117483609108972 0.6844114590334534 9.977381738260517
1927 4.846277762679411 -0.9897384781068347 -6.704730292445301
555 -2.9318375872278946 -4.19213016561106 2.3202466340858163
1675 6.371221379309392 -8.676839946772143 -8.2556867340365
2065 2.4387927370265414 14.274893873064979 2.2901918491345565
111 -3.519578449078723 4.576439136530717 7.692899285178628
234 -8.05762439963936 -6.51021612026171 -14.653279983994462
2048 7.881052841729255 -13.617523013580422 8.058826148032953
1530 -23.998456304145126 0.8915525437413031 15.2553299395689
1486 -8.38172498965309 -7.701985202617121 -5.742278820363106
1312 2.3563284020450936 0.6626792135921815 9.495432157054088
1332 -7.934455969210081 -8.661032028629263 0.43349494358260177
904 -4.5062930704197175 -4.836187754715972 -0.06706316971673973
1689 -9.17920018542158 -12.53560577827821 15.604609906237139
700 -4.0058895645878145 1.3079126453304721 -7.092150051810142
173 5.212089401317589 -1.8143564693746366 -5.822868385602316
909 4.61771824933867 20.074618839999847 -0.3934653462191349
655 15.536576073005303 16.416412222281043 -1.406544560828147
1414 -6.616369808175942 19.95552746699342 1.1349225441121236
300 -15.684232499355561 1.8319651594086086 -1.0048916267403993
1480 0.44206599784085876 3.7617776046772304 21.88827086056812
801 -15.60390558380911 -7.804451179395718 2.614052086763386
2110 4.328741055099325 12.49562484679162 6.882912703410412
2095 -5.583670158581681 0.49109072515785707 -2.3989210790733098
418 0.4779282427697244 -12.370082681994978 -6.920417722526155
1780 3.1533139096923826 7.610301212797255 -1.3736040224179007
1823 -15.764612117240892 3.7499282256909665 16.56362499548394
784 -8.302738647641199 10.472441083841051 8.080872904964151
2117 11.951450504686466 21.702160676857023 20.664167547152047
585 10.464197905701372 8.156602870968007 18.087589024514287
1977 -12.54928650598063 10.08012279762925 -4.387714409413748
901 12.860621185550583 -4.817846067178389 4.228049554587232
264 1.6541919839043195 2.0596766102626916 4.247475908925601
584 -7.281522550107336 -12.653545839929555 -8.436844721880577
940 11.66271259647368 6.692021689763194 -4.235390678906128
1041 12.589815075668902 -13.631907924709052 -11.513860342106614
1347 6.566243483869144 1.610055103195355 1.1452482093635024
330 -17.075454609890095 9.979649223609362 -13.394300139446104
1603 -15.512575636874498 0.45700883129274766 -6.757330747778067
469 11.11983231281284 -1.8044030720121522 -2.0033333685012686
511 8.966551730893208 -13.25960708423579 14.474727693729347
606 -15.727318617894525 -6.030321407406582 -9.707120753009354
569 -9.496595899830538 19.746118469599864 -1.2135611580802965
398 0.4390491266504024 0.14939558150483936 -8.63079602125346
850 -9.622009701990068 0.8211195874372174 2.2405809287971254
1550 8.24396414558208 8.638904355700177 4.456385805861346
1007 -1.0377076006959778 13.65738254657458 -1.3437524105490164
671 19.683643625620782 -2.6695517051857203 15.067693492824215
203 -0.018913720122930217 6.137817431136002 -8.646000884556686
740 -14.495859700105564 2.6780096049963773 2.5297534301498756
482 2.5378787752316487 -18.511353721972657 3.2749535933209497
709 -0.42449102338244754 -1.543310541294068 2.236326117797041
774 -3.174500075317551 -5.72144561563109 3.868748112193228
467 2.027068287310503 0.5324559975785532 13.595285425531126
1669 -5.191246865178967 5.34727982741238 3.4311509976899854
1582 3.5840144168293606 9.518636676342716 -12.004019923516786
1071 3.4491335694211345 -4.6492709937374395 -6.73611815105083
941 -1.0251799198892029 8.619119944343542 -6.593356416316673
1423 -19.161964633322008 5.742450071397992 -9.917102836102181
1000 10.169521504275208 4.000716816572591 16.37763036313773
1974 -1.7363565572699136 1.2158077943170011 5.252952185016844
2130 -7.972019556106674 -13.887671428753773 12.647272182586628
6 7.881142983945846 11.300582449765152 8.50194623155087
2017 -5.406409152723625 7.971167625630336 4.515413491954433
2108 -2.7560603760690605 5.099441566354628 13.40070889740675
1353 -0.24907429502744607 -6.803165601633421 4.228309469579873
130 0.30965151263069834 -17.108485960973304 6.8601488032177995
167 4.326648184268716 -13.346667256017778 2.1188523659544085
2103 8.498481102544257 4.081474762351202 -4.881964527226615
2098 -2.930477880435672 7.997785924352697 0.3592402557461554
1474 0.9813484120754429 4.912743250210216 -7.540382839316447
1441 -4.796709361404054 -2.033453165892764 -2.7022803441502625
944 4.047442500106185 2.363140706077679 -24.02569462694148
2144 26.542639150677985 -17.889029558617885 6.543694763249631
717 14.073177175041238 0.9361711280173003 3.647671308700283
1099 -3.221692371561241 16.714988634983776 3.8334941174708885
447 4.475772493128832 -0.2955653234417247 -1.1049969833851425
224 6.047327350881401 -1.898036661244505 -2.891924523617565
961 -4.723344536779026 -2.856484928324204 -18.196237224554952
473 6.097921041918653 18.944511625361013 15.332694350561518
1106 3.2795913516366766 2.299558332658591 1.9987093462720738
1554 12.079030307065649 -13.146300148902064 -4.3474182680223725
236 -7.581712900481282 -9.366042337828908 -0.7593554838473061
86 -2.538658631312969 -14.723565808162629 6.247993006279513
1847 -4.5427264568838 -13.358461341082096 2.170316311463817
1515 7.643128662213854 3.1487122064950253 3.9419780500060435
1434 2.3446258008595686 17.035689627277108 -17.414297634457117
938 7.274254956135162 -0.7184413822851896 -4.478347150581765
1341 -23.068997375425482 -17.44131210235615 19.848777360832152
196 -1.294915891523844 4.5581980790946215 1.832940182809022
1983 -0.9436354703294555 -10.77662980968911 9.405353854864492
1775 -4.58255653953362 7.837245250085129 4.082453966120845
1835 -8.572938735630176 -7.918634365454327 -22.882716156799663
62 10.246638946359587 3.592350801864096 11.087951229097829
911 11.239859900401106 2.1513218919597756 -3.9716622791148573
1285 4.527774226803798 4.46644592260566 5.319527991778096
1781 -1.8216689029401036 -1.8622259624610347 -1.9760153235267957
5 7.340388298794222 4.584595950501346 11.584516000553785
1716 1.0089330894741504 -16.99098041502769 -3.891394336566506
1951 -7.727812429494259 -16.616739965203436 21.179418777896426
1052 1.00125162513599 -7.895753592317616 -2.2255433146046943
770 -8.79308872834857 4.496501838857234 6.1272132120256115
2059 -2.288726894042411 0.839509054486286 -0.25484072137408914
648 -4.753651199243893 -5.603773584871029 11.38548011088613
51 1.128296574043014 4.601251115254608 11.056159563041547
1602 -13.126173461322729 3.08701521121968 -8.500420912529867
154 11.452613858475557 10.756402143811238 -8.579639074701829
916 -17.84874851400565 3.3649561233366487 1.5747546789796047
288 8.679890107277565 10.040220645296381 0.7781993876257074
520 1.0737822904847762 2.896682462558317 -8.598346970267952
1102 11.155048698656907 -1.1191680371152501 -4.797602284905264
483 3.0462433024484055 2.9725448885230015 15.420069179040762
1733 -14.086840091219822 -2.0465803354462757 -6.08003386417334
571 11.501770583007431 11.741205581642713 -0.6991756086216073
756 -4.2358653577776275 1.5060893250347154 5.867178692201002
1334 -14.997948962114766 2.9697354858304053 4.93227363626292
1209 1.6092576738023578 12.197820647948072 12.584364243013361
458 4.252630640686326 0.4336663870138623 3.9231960092187004
1811 -6.301136527744993 4.525105447047489 -0.24159737000742923
1188 11.38983014127128 -30.90008771107994 -10.310371005464539
1840 -11.468993109197392 9.367052720894343 2.282323949503512
1217 3.077696951250658 -6.08195488196364 13.883147175369883
1601 4.3558855013322955 -5.886002478221851 23.390070351390516
1529 3.5792568896856767 3.613182498459842 -0.42964472126811787
1670 -10.924319161248894 0.7497716029197204 0.26595320216469714
2013 -14.533008508863858 -4.323604401255381 9.983734698677132
350 -0.7033536416544833 -7.455027918493865 3.6911259729691155
758 1.3835903300262107 -13.708661752165971 0.5694511368113301
521 -19.98162703825213 -3.448656593623156 8.546015365752847
1242 -17.524151993474888 19.934587934437314 -6.424771593306564
1324 10.67598762137151 -14.72593671313203 0.11377467877404375
1470 2.0024646824333328 8.124307876505746 -9.306111731794315
814 6.814783001771741 4.0525971739555064 3.5522471298554628
1548 7.137711833310532 -14.146149343095818 -12.278800931671675
472 -10.208813404556322 -8.814610735320091 -1.4715712511609278
109 -3.3842774323155926 16.509514149713386 -9.221195793796198
1629 -5.6306525154911435 -0.12302595093627712 -2.529503118059087
1286 14.939061011017973 5.915124674875723 -1.7101813834502788
1064 18.58004666148135 -22.227476290043008 3.644217417234725
523 -0.16381784472279257 -16.450838146639875 5.162216291990558
1080 -7.865703685036159 -6.407465635202614 -45.83685860307948
888 17.26173841308053 9.933074845430987 -7.6343326410862975
1876 15.587138508797576 0.21704208793901267 -10.329102420951575
704 -6.11108555161104 -23.51273406057631 -0.7542860899083907
252 6.743645813064688 -2.4698166766247263 -1.3650289904423187
580 -4.815949974706231 0.18888260519310304 0.7201579994454211
646 -1.3737812120720656 4.3497762855916555 -17.44056373967375
378 6.209732534029847 6.782343918965812 -0.9920250957270637
590 -8.60119046378277 -4.320412214338384 -2.6052711578348107
1278 3.1969824525620503 -13.66781268443336 -1.7932529933957937
1642 2.4609105550747374 2.187135698669484 -10.533026992500282
1994 -10.03219300262503 11.70406289797338 5.706836586682148
1148 -2.4824256741617585 2.99066067379682 4.297998007204934
1389 7.670743835113268 -13.75870291124001 3.77408599048406
506 -7.645338964854436 -2.0959212297127516 1.9351503288339582
1662 -16.776781824711367 8.136969538203553 11.750647046071443
1240 1.2445783822931027 -2.9340582175591163 -7.25386222625032
1037 -3.7532540347524503 9.488437837104067 3.85022962221653
1101 7.422370620722679 -14.734268777794831 -11.328742600381025
824 -10.082424444224795 17.307951395595325 3.2073224797217934
665 -6.592730761354847 13.375771517091072 -21.320878787033923
24 -8.673112222566639 -18.4239109471643 19.241370542129136
2115 -3.8859584494257677 -9.239549856063318 -2.794243819498316
1029 -5.8516985124112315 -13.448946672967137 -4.695358796041683
1764 4.224624935312065 8.807924304537032 -10.479721327294905
906 10.504333589846501 10.879965621137135 7.969861664349688
1695 -3.3431045987082064 6.822039716104225 3.797662406247535
1173 16.401209082886254 0.46374471057747335 -10.382463818859268
1366 8.017822122741016 12.983744589073872 -5.238498700185615
1130 1.206741519216309 8.423650117370244 -6.237385504196287
402 3.7581911070706595 -14.16338362379378 11.098850534662592
158 6.156026150264194 4.770475124186852 0.23029473106534024
357 2.1674950806282873 -7.886178452597165 -1.7708491677938902
1610 -6.4338409288967915 -6.765849417968264 -11.731776192463968
156 -4.444418265686297 0.30285963175518205 27.275075496665675
647 -4.387973267623431 -6.525459085033604 -10.138543174470135
2118 16.044582387054145 -5.645776946659409 3.3561519323005595
1299 -4.14969047140808 -7.491486828113277 8.78140545480229
1989 1.7994545427028956 -10.580622469457463 22.221996199774903
1505 -10.261644381703281 22.46690271032171 -0.9265884591931847
1239 3.509757374037494 -8.130428231876698 -15.572288049802356
1416 20.43064487871444 10.25325107483662 7.524402407131467
363 -4.0622673752246685 8.804950903923045 5.2128287412721575
1340 12.983771360710193 -9.607044563060816 15.563416064712431
918 -12.404616187602297 -20.7468375314547 1.3893873531436096
698 -2.451578275546925 -9.445477981896492 5.703962576735636
1542 -4.332562864005214 -4.35660834910618 10.503458722836605
1701 -16.98739974139719 9.139328492423243 8.851201393773188
890 -2.282050979187406 -7.004042977312897 -0.7471608047845072
84 3.465996408688688 -9.977160878773326 -4.891353632869323
102 -11.614304516087735 12.552811046831078 7.536656966251603
2020 2.9896113695736948 0.062043513522991 11.860287890523495
168 -3.55802321549482 2.0170590256605556 3.2498815409352866
491 2.045312533820866 -15.58583366491461 8.20378114283624
2010 3.3121492417508214 1.3314966228089813 4.889172153686683
64 -0.2046076400632734 -4.15511328661506 6.084117394697957
477 -8.600990935324463 9.509798184888687 -10.538590447105916
960 -18.674238777217877 9.591225527060795 -5.792892173546196
531 0.12976539341247192 -11.773859918654004 -0.37820587783610277
1320 3.700351058073744 -3.2466359161196747 -0.5983642755208967
1109 0.5642630765396854 3.022709475547639 -5.746932013427341
988 -3.4946059007361914 -1.1474264409984498 5.065719108172875
837 12.866448547088991 8.358098415295391 0.3950845235855653
1159 7.748462125854115 6.850619424733066 -0.943576865463081
841 11.842119922313477 11.823857909126877 -14.355482059826496
2082 11.094220246346286 -13.127762238209947 -15.574842322065646
1796 -3.184223587613827 -19.078641415146393 -13.51234571229776
1820 8.544472090418342 -13.594005299819235 -7.608844247359751
1090 8.407381761694444 -0.3600447902338183 -3.2800831621852424
1619 15.076946218535536 -2.8816349101385557 -5.464188213250275
2039 -6.91135189992359 -8.948428040439705 0.6274244117435966
1179 0.10113401925101206 -9.692437249496644 1.5229879873287953
185 -4.755113144207123 3.331358793815579 7.193246479272315
1026 -0.479289013579633 -0.7641886272958166 -3.3082438622061714
1001 3.1548206881801653 11.002208111383188 9.525888439702166
1868 14.47457022348548 -2.585953850098872 8.648897434416275
762 -3.615377485380617 -5.136170502215631 -16.46019548921291
686 -6.441534231938125 5.735248867494765 -9.24346815165932
788 -7.93574044761377 12.522888963948796 11.700642950344127
293 -6.539630291408411 -2.543802442553553 -8.912565116199463
566 -13.467242519258491 -2.4120386050983944 5.552083792141364
119 8.681152888494806 2.0447217300450355 1.5941275687104837
1019 24.376864859304238 11.041415568095355 -11.482706857415687
23 -1.4550918249026668 -4.158763287071127 8.964579618595797
1791 -2.478689964591577 4.761033556348837 3.340515819760753
836 7.836020232965555 -3.9711777659869405 -2.5824876472063414
1556 22.164730611921208 10.920811685111545 -4.949632929938421
1030 1.6589629533479682 6.88076547047625 15.778874074706923
1472 -1.4225770259403216 -1.0034069613758598 16.295087784046085
2019 5.19981795833584 -3.463680112358211 15.435448119585411
1544 9.76376226733345 1.0067857843189574 -14.596383286607539
2026 3.6646892605843253 10.13677398013797 0.2861897732822124
1142 -3.391757170482387 1.1538632039896446 12.810341810430193
1013 17.85886275657562 12.320043332790249 14.582971242733272
451 4.650930497839887 0.42971006650094373 -7.3288938367439
1310 -1.8998132339751956 12.050597493451264 -1.5337500269144155
572 -12.475061603375254 12.584756830097543 2.3202696646003673
2037 -18.688118449100443 -3.2885513595958815 2.8920668443426107
747 -5.364345127624895 -4.612106652831997 6.589971781066092
858 -19.323041142267755 1.6341718401207288 -0.7968675578072564
268 2.510754088232892 2.449278295138154 -5.431946968517608
669 3.1644597135321733 -9.094002657116711 6.197866738983132
1564 0.9036386682257909 5.694077139690754 -0.8564385934302323
1004 -6.082084081265727 -4.598767268251919 8.540775674485493
597 0.59114921540887 -15.639785256446608 -3.9811761719724137
529 -8.928879418329805 5.36934220815677 -1.7984309375940923
1207 -7.038846010191654 9.489055751780812 -1.3028597704299218
1600 5.019876961455038 3.741042493971621 7.858906948794547
1325 -3.684926683050035 7.797090273968105 -3.3959386583917963
1707 12.67836413493857 -2.020487762663966 -6.960167292772183
1522 9.712641329730614 0.04909356093137553 -11.364712906487869
424 5.7152775182273166 7.823522811370845 8.036535156267279
2069 0.924489697565741 12.689995533908712 -10.705377428269609
894 5.635681136265044 9.158614616709128 17.73734269320907
601 12.706884989518835 -2.000245106975311 4.430484686452087
322 1.6364885227556925 7.517669237469967 2.16379055673836
1640 5.677573103654188 -7.618825613547159 3.079622481192352
454 1.888451407691021 6.633684810536489 -2.888986783780289
1082 15.132093771209567 -4.327867140303166 -1.8845918798468684
1198 3.899162657394537 -27.62863306519482 -15.067942196258183
1322 4.794221915387495 -2.8566751150960026 4.731231539196939
1190 2.8018875755472092 -6.8307176364519435 -2.263429002728185
1913 -8.80741345958739 -10.81797241587889 7.8717802464461135
1168 -4.219168809569476 -0.40568985061271284 7.4787711225624065
1302 -1.8668129392589725 5.588371787191331 8.6966824109555
1970 -4.286897974172051 -4.586802377089656 -0.2625659279839537
1398 9.510796581871833 -1.7549759138565681 11.017995442163784
2058 -2.570547061437249 9.200008834188132 -21.788640763070923
428 -19.59939647622028 3.7474553360458014 -0.4010945163183814
1597 1.4160492835816216 1.9134134865700565 3.3774103251534777
429 16.15290604614193 3.5651850074854683 8.293684000377198
70 -2.2419763953527543 14.614472920561711 -8.012253569549825
604 -10.724225399069955 3.7482416846624274 -1.2920655053156038
1128 -7.933146415327701 1.5079809842356502 0.8985302937899626
1966 14.255324694133769 -4.7063610753875444 15.315844621732095
1463 0.01724134356208079 -2.0740694158013606 4.93148890176276
1227 -1.4330737656808745 -16.351933088217407 -3.820434639946056
754 17.131451094961392 5.223987654931272 -4.61839776544506
802 1.0489770695075376 -5.727012402231605 8.998168290415725
325 5.875960142197752 -10.110882122639074 -8.44272925787413
935 -1.3161668766640031 19.365354419855514 -4.409222477239282
1630 -13.600036817735221 4.151046952307544 8.174677546611731
1012 0.73352593934172 3.324843336790778 2.12663518596196
1525 -3.9199225362828796 10.045619090822088 -4.208296653232899
1401 -8.357270652562406 12.885165781092365 2.5291110991483268
688 0.44211341447002284 -9.369689276050279 6.270447705142172
1498 -4.535502158663399 4.701129861562845 3.0486429683188017
2 4.1101529741160405 -8.922919406364906 -1.798830269699556
127 -2.7893031288207117 -9.311528984188497 0.7732643744292577
993 -10.226191308251996 1.4430732751183897 15.568707117825685
1798 -6.274213646395534 -4.906326371222305 8.344663708929199
1369 -4.155869869515975 9.049875847529982 -13.424284800966793
2064 2.097770862138918 11.910050852503167 -10.45006855196558
1493 2.9813874817380794 -11.566626516644448 5.541143625194208
1063 -3.5033739944923203 -13.943079555797649 5.756955136033194
713 8.248647944235552 14.222086534912705 -2.459432316012439
805 -12.014299385401875 1.488120975618606 -7.532436890896228
318 0.8789673452635713 4.986875838587917 -13.397939333293294
1789 -4.98669942390552 -7.280168149991903 1.9877578662089572
1722 0.3481555437650622 -0.593685157335296 1.0572692387321254
992 -3.9375517948073466 -6.241487876735756 1.048135372977317
2006 -6.907261222067705 17.290069179800405 -3.143456436277146
1979 -13.964878444933913 4.181176587399473 0.5760929575673637
1882 -0.9119031469106582 -12.723581424800456 -4.184801203200057
1206 5.7852982010667775 2.8963679144955163 2.797560963443149
614 -14.624764930333422 2.512532796005512 -1.4232811290738638
1917 5.160666948179842 11.650458702852292 -10.39556544327158
1477 -4.951252337226756 -0.8677552831685217 0.3814549697244113
452 -2.330011032050679 9.133127337515406 2.310603809086122
1747 -20.278219069139407 4.667581300969713 -13.050437019435826
1191 4.476897733999477 5.982445331825552 -11.637982078787257
538 12.920606837563245 -8.92935261383916 1.7017767814842986
1694 -3.1556589580909167 5.618131408668532 -9.146015204444076
1355 8.999142293473364 11.007797420600083 -21.927129737992928
2133 -20.60707427090169 -5.8184586274422605 4.947258799745547
1176 17.392791635472836 1.296733698172171 11.128538806662922
928 -11.60909337834522 -3.786434429628542 -14.669987026239168
1245 14.67272675090195 -0.7684809331444675 -9.210821798463382
1113 -5.811780729126155 -4.688261749404736 -9.237049976373289
2097 -13.177035959303055 10.286982155113567 -3.619300076030729
1971 10.227861382582333 10.355906263787727 -8.402392291037723
1931 -11.796687106379544 -0.2676045243936974 1.861606135533259
1126 0.39239757637214423 6.020967435551442 15.292689470069599
1541 16.28512341982622 -0.8214439820059823 7.589038695481395
1962 8.201755922240325 -7.4879395019037664 0.5651253198659572
1277 -25.64434395515875 17.94012186951922 -8.599078219544374
721 3.7001658411508416 3.368942732931009 -4.856542930087854
896 6.5345843701697675 3.4267641184028284 12.542407927323538
1152 -8.46698792874074 11.475042608162 -13.703125485364513
1296 -4.499248873315456 -6.87903820513992 0.5611780660150855
965 -5.907724496829972 -16.43223496025942 -9.558378767346218
1580 9.097524272393413 -14.624009506670168 -7.59404836123459
628 -6.09078261874909 -9.89640306834931 -1.6609938562919853
966 4.6469591193435935 -4.082730610622297 -17.642164865415733
1077 -15.033904000029523 -16.214265642011245 -8.799432422298404
830 -2.0461664745679187 10.48469224533887 -5.262181086704879
1467 -0.8368114951945095 -2.1710454276386644 4.657022587443022
846 -5.215073665796544 -10.483114259792622 -2.0488714516513187
640 1.2265793879797278 -10.520374807208412 -6.771105349237624
1273 0.5386590833193886 -5.665891175393775 12.791693303438633
1907 3.8430234845128592 5.669508603374279 -3.742686940394928
1247 -4.91777019223727 -5.7786865727662144 5.776783356279644
1153 2.474283918880606 5.675161282098159 -1.6012315556026686
509 7.3523123567618125 -4.107721480455656 8.79437023158863
679 15.822777954378154 -16.466752776154514 8.718065760532632
337 11.499597362342207 3.1205061753679892 -11.918104285354236
1616 -16.032735937528596 -1.8988053005538785 -2.886407360494916
118 6.196549266755831 7.823855607052676 12.180693285611392
541 2.4212914654352 2.488488969965579 -7.80292049659719
871 11.457308845526207 -11.746251783654529 -17.520965127937842
998 8.048059351313102 -2.760221323129592 0.6982304595727319
329 -2.27231403092536 7.289928848862025 -3.418083742917059
1622 11.737616594624921 -6.086047070347113 -6.600692425154156
1049 11.146954981777624 -25.46241637216128 0.5658953374419692
1246 13.05801979363597 26.549510740807392 -3.7160265720792487
999 -0.05919554150550294 4.634790819903974 -8.68046904611773
1473 15.521462749555512 1.3089212074594483 0.49709983678479613
764 10.481523607543417 14.91364350884089 13.872948063423792
270 6.228746109851324 6.349707700688375 -0.9244909144315229
1718 15.655185717642665 -1.5649720609051934 -4.996780008592969
1805 2.5767664297531883 12.479699736783445 -8.00244877169291
1739 -2.2962857887469377 5.3446649983118055 14.010200487028307
554 -4.773656017780151 5.153077014098287 -7.866797272177867
164 19.531531739102796 -2.526029615680489 -2.698986489924067
1969 3.709927190310522 -5.5000601820056 -7.309071522218212
15 4.475201372256091 3.848063915978606 -11.528846465460127
389 6.986367693470075 5.435274910503678 1.29838979992805
1291 15.406631744608788 -13.437617941942598 1.2493087492016024
39 -12.774970505176414 -10.754551787609818 -16.902808882790364
1005 -16.542587920588826 -6.466564858796119 6.783836710900742
953 3.4115936552658725 -28.40398192556732 -6.777262796530099
1112 -13.088600269020604 -0.9159537819849913 -11.0899683261615
1143 -2.2289292226176123 -1.7827124767288065 2.899304093946229
478 17.208809169284358 11.65378178671588 8.784636416411384
1396 -3.9062842673453875 6.138973468568365 11.70561164206854
209 -2.6018442691392036 -7.601468511778075 6.43408469322043
1371 2.4846042129017727 3.650944998125911 -3.4409039119038063
1410 -13.624259892348686 1.2084132970141241 -4.124040402102882
1025 -7.801633941791866 -7.491803959303622 9.104001437093327
532 -13.013342703834962 14.669743672116944 0.29839046621775506
47 -0.26732658255706937 7.995834493257893 3.750345932782296
1409 0.37625402623932036 -6.278372970788148 -18.64044364404104
1499 5.827156084802181 3.7420261078462422 -12.13210920426731
1911 -1.6660963464416596 9.799793205806692 0.5230854863781519
1184 -5.555118180153477 14.706340298960844 -0.4709786259308877
176 4.927326262971111 10.470224232526398 -4.862803837158819
1777 -14.865591890248117 1.553382322329817 3.2994401968529194
2154 14.495150864490506 2.4608913438038424 3.1334931831443646
2080 -6.9819090279264975 -3.1952055587358226 -3.6351386423862855
2096 7.719932630662414 19.592535257901293 -3.3991362908248197
1110 7.711767421423529 5.562751649101582 10.246718781944532
962 2.6396121366391037 1.3352992527306855 5.575058693850957
1942 8.870199695276515 -5.099358652488156 -2.309218664007669
53 1.124886691180816 -0.37558454253701934 4.630523223561041
57 4.166085383928847 10.818078590675736 -19.715455577772858
925 5.239858258553998 12.545519836020194 5.491385861138134
823 -7.8200925326527475 -4.828777563801164 -15.740572294610367
913 -5.413413460838405 -6.580735522595516 8.390802892368677
1365 6.952766913526257 5.749189375883777 -4.097161521569162
914 -3.809349827703097 -4.367143451738554 -15.926041844563255
1213 -4.668518916784404 -2.0018129200593413 -7.312057476348048
581 8.70427295185971 -7.034017979075953 14.519966461589114
695 16.265119144467455 -0.10342596332588208 7.5281448403184354
970 13.507604336221593 6.191226697019907 10.693047544981138
1587 -1.5023440314654275 2.5827786756401307 3.5441045703468275
1349 -2.590562135080188 -1.1079607203045974 -18.10455085156122
1655 9.569536623858003 11.490152471856321 -8.508307006122742
863 -6.482094597198748 -15.723364645860805 2.997983084520825
2045 -17.2594968327126 -14.49657855951036 2.764766855589608
637 4.710464028591219 9.483277345482746 -1.970565995523025
657 0.6113807533017671 7.095588965475989 18.62718635818593
361 -0.7315391367283307 2.2571168317162584 -7.100154783492805
1121 21.978452005504817 -6.445277954614124 6.751306660235113
1175 -13.930997823961299 -4.848698960530183 0.8789236676604344
32 -4.304287633404269 9.21005600619582 7.2552858772830335
620 8.090685531822267 2.0138189166052047 3.1556222014930126
1788 -7.748239398256162 8.011549117396664 -14.39367950672204
1659 14.517129512628657 -1.556964682241809 7.78545290855147
496 5.305723726200786 3.5907179920844525 4.427279576433348
860 -2.0241376313440376 10.140186641569759 9.506581004414038
2073 -2.707773292953956 -6.57055674530649 3.288681217631021
653 -8.050693476304302 19.056468858113984 15.920922231082837
1692 1.3456509761785995 7.170029034682384 7.271550521786343
1822 -0.9327592755964531 -1.0233882977686775 7.185116663170682
973 -5.201545628774421 -1.5987050249669243 -9.072690671861384
1149 -18.03670011772736 -1.4833638529287834 0.2887998234631215
1769 -17.432693308097356 -3.678566411286257 2.5731483099548007
1910 -6.064105879423818 8.081772859776548 -3.3775308852723795
1208 -6.295536633845642 -5.341982632937373 -8.61230281447899
621 -11.710004490438536 3.79840082938133 9.306906206496969
1656 -5.420424392697601 -0.3011689486582168 -10.439262741360976
1637 8.245810746624118 3.128259302575731 0.4406439283270874
1066 -9.762447868520699 5.081053390213666 7.210105372852118
285 -20.015795783484908 0.7432047465087771 -17.83010797329114
1765 -3.1245047129877115 0.3950569812433345 0.980529187877992
778 1.8683147200644379 9.427295950227027 6.100416798720458
777 0.5880706759905521 1.4997797577773804 1.204425794463894
1535 -6.775396620144048 10.234116874791932 13.622902493023934
1960 0.3962973046195178 3.248906208188787 23.134802779799912
1771 10.653178312853045 6.945574161069265 4.081700506538231
1249 -1.0454120928325545 3.0296414358104844 2.52765035374921
465 -12.248936093574933 -5.072206095851932 -2.674209404023628
1406 0.24572319452713498 -0.5059821023107852 -5.8452700963446
1929 -3.834658912082263 -17.97485985990475 -9.307937759283474
611 0.8167003932144666 13.374144993592216 1.6769852790964725
843 0.49061522474182284 6.929338098318033 0.2721107667424432
1986 -7.453366519866045 -0.9365446466485652 -1.8932978514220657
641 9.373597857007512 1.440506380199666 -9.030962442471216
1973 -3.9016728489218147 0.5797336550500597 -1.273164991241853
1934 -3.474218652949299 -11.43580255550034 -1.1945228962692938
715 15.379770944578315 -6.823650633957911 -5.125296041021589
736 -1.9298578232243142 4.4466019742378124 -7.294153103989128
926 3.9915753337670745 3.9452865283311853 -19.208785122791472
885 2.9185930678007166 -7.019982650070969 8.470866668222246
1651 13.555735820526552 8.994989028331396 0.8870825370827347
1458 -0.33256877114403477 6.367604590807171 14.687436185176821
385 1.354370426829913 -9.970860588919596 0.19266621115509278
1378 5.324632793707994 13.676235691346893 2.98750620360568
371 -5.039441959402941 9.748202623525366 4.418292890327405
367 -6.326177804649602 -0.9309386700934064 -6.534667044250696
1623 0.041127163107304264 -7.891208947757202 -13.28450493919821
124 0.7226651921012367 -7.525505052953486 1.348143674303188
2156 3.353821545856722 5.856717215734263 0.5842641361776663
1212 5.623931191040096 26.326959803179722 -6.941562189701709
853 3.598758864682851 7.436674136221104 2.8631240820909354
1294 4.329435222838877 -4.91716576465694 -2.7009163140418475
674 -8.380682432783868 7.73395143787866 4.290123898866173
1854 -3.177424675334392 16.75604731673739 4.544394494910138
1494 15.301621720758583 15.100682205613548 6.4039866798192415
202 -11.4020038515491 10.308719141586094 -11.510780964674561
1594 3.4831961588935685 6.393302918202055 5.514091569771757
508 9.243106256594745 1.606036547299432 0.3360791889119559
732 14.554733289915488 -8.141961606691593 -2.7054904001612603
1734 14.876961788931636 -10.912448333853051 -0.20275317964512077
74 14.056621741529941 -19.0689423303916 0.033028342139062694
2003 2.5412317655647145 2.5385206262220428 8.767569500645141
7 -13.390217701190664 13.370875207699036 -3.840383036273112
937 -6.780830647879902 -1.886030750393363 6.554553595626871
1404 -1.535225597478216 -21.472438692206378 8.62131030424309
1736 -1.0665840558147828 5.556253838576073 -3.503528688112017
1060 12.709556613011852 -1.3196956961468782 -7.2777232350327115
360 -14.79084913149502 7.857996074674391 15.942633471451659
2129 -8.948082342770729 7.739084231378374 -1.824141471312722
1036 -2.2655512592608797 1.7614574395167089 12.28832215899229
1759 -14.585267579675545 13.49995515319983 5.740510162507758
1385 -6.130377530207132 5.451378661299735 5.5083587859477605
49 -6.547205845233994 -0.2549629926338227 -11.351099073688317
714 -13.941474246190602 6.3232857716330075 -2.8021658140167567
1448 22.481702815727484 0.47820535293036526 -3.5291808400015787
1205 -9.796275579733079 14.439240479882255 -1.8805668898792758
976 9.31938274687132 -1.0253860553484477 -6.706220854091661
1953 -8.636840849809834 -11.83327166876138 9.890910072266545
878 -5.255371585963522 3.637680644350156 -9.500386924114549
1507 -1.5984164034462713 -7.652661576952888 1.6814893675325298
1155 -12.94716938598951 -4.432451539262095 -3.6336403883610493
1697 0.12221896846675268 -15.676552985516429 0.04787271248314754
617 -12.599920546070837 -1.7525197504667618 -4.442256078518536
2128 -6.319164022077431 5.728353516536508 -1.240437000572383
1356 -7.377387371313596 -14.022863407953283 -6.746453474454098
1614 -3.6946351939011146 1.1732730732796446 -2.534102494268758
416 -7.640403117698574 -11.748181262227845 22.1924282260914
589 -7.211378004796833 -7.515112963942816 -7.09404933067819
1520 11.219944811019433 0.6632006063504525 11.810620981012438
1283 6.378018227484189 2.954862730647859 -7.77891835726686
1180 -4.131235627032886 1.758710425597009 0.5015892034547107
1443 -2.730206530580667 -5.403711368184509 -7.288357165987619
1617 19.25807394644414 -13.383561664168639 11.006628436974937
1613 -6.624996063989031 7.259589468853089 -0.8708529133157663
54 -6.242737215944637 26.66858874125899 5.522919614946126
401 -13.583549198183126 11.810187241557482 13.202464534677494
359 3.3217454025425317 5.84956368287856 -25.438584581695523
1335 -8.45196670905391 1.913647725677896 10.143689119201353
659 -3.9655553785579696 -3.2915743682630687 14.018224731081158
664 -6.015082237876043 -12.032681256345588 -4.867383905753561
1869 19.68745929968594 -17.496569433719053 12.271233351518422
214 -8.054475477198832 15.136312546688718 2.5645323633038553
1958 -0.602974227221045 -7.097626175052463 -15.96398634313829
1044 -8.890108360522683 15.407511175626734 12.65583945232654
844 -2.743140553457064 -22.493779327515753 6.737902109779227
101 -10.856490750579464 13.350896484975884 12.864939192006903
1238 2.0310260247032024 -2.695035332567432 6.274374607557469
1146 -4.933384348513735 -9.303290351412482 -0.5941426306176795
1676 17.595449947516233 -11.783416769872478 3.460132639358467
2122 8.458112741340845 -3.4855411706292294 -4.698347957027789
1562 5.479299357284413 -10.043470631407008 -8.541743745755863
1282 -14.646820887342315 28.29623260013294 -17.947052240126688
1800 5.98241198100237 11.627382898670154 -1.8029302347166734
613 -4.838301302223809 -2.553974512616988 7.986303106778301
81 -16.79621284019747 7.263084109108561 -3.295654279725592
696 10.540114220041913 -5.757339783903442 3.7537292866170486
735 -12.53414447943207 3.365015666609005 1.10217699708179
2152 -6.950686093517451 11.3368636413942 -2.818193956687527
142 16.310916042361047 -11.721290387271575 -5.507679548491605
1017 0.2488322288914652 -6.943878994166825 -6.78796122285921
1135 9.262021279122314 8.439186697988466 0.23771749125184488
160 1.5091812929035193 14.288908036134332 9.30586630092157
932 -5.750146392328589 -3.048031185243862 -24.08324206528875
1428 -1.3783448574827502 1.2250718182176534 -17.59165597526059
1315 19.65818377446404 5.248098309116923 -10.32573952890353
237 -0.8143333524657597 -13.890927473174948 -5.414295569414804
1459 -10.276710217669466 20.629937991217638 -15.223482416584103
672 -1.0304639950808043 -0.5314109603339952 0.6510885705852292
1528 0.44997504646537034 -3.3784918592335287 -7.14677302215165
374 -11.785013695724599 -4.476687527168071 -9.330951174771013
776 11.101292680862331 9.214377635176668 0.9239596624206583
825 12.51643097824797 -6.484010524323581 16.54957514218235
1784 1.5703965220980618 4.162177872588322 8.872617874039388
193 12.217714455101245 -13.47310215522212 -1.0099971037734794
1838 2.319923462956735 6.869471218155131 -1.2869045728208597
743 8.24082146870106 -18.949499575047373 -6.794854745386463
474 -8.71136702751302 -1.3157650803712477 13.270877553978105
560 -7.841064341695516 7.036468647666665 -8.456537212212488
2106 5.541030933438481 -3.3388627796644457 -8.983900362575543
1858 1.7505155606559142 5.99509092737938 -20.44030002887694
171 -0.34151072754426154 -1.7750108675046703 -6.175054259407375
1778 -10.241553384237859 7.2867505418030705 -1.7437276413722373
1999 -5.124730695047633 3.6672224921937304 -5.479972179589711
232 -8.86757797074592 -0.9977899133471863 -0.35153138648030746
344 5.729854871102288 12.537704669440235 16.735681673626445
811 11.462407758949649 4.156389644256425 10.747534327672124
304 0.7284842436974728 -14.75967077345985 1.5406168901695492
1939 -9.33755458522705 2.3365753409710157 -0.36425199272116804
855 -9.48839691680692 -9.736955325734655 0.5550472955848095
1022 4.73734102100134 3.2668492260089623 -5.289679062021965
1199 -10.428301041262266 20.83652874286846 3.8844902952682014
126 -5.675945004959479 -3.933783884353091 -13.667126230137285
2134 -10.465299461710057 2.5468302039892765 1.1197491047361434
519 2.8215092878145853 4.693925404761346 7.213376470541081
1738 -1.5153213578980047 11.303205059904402 -19.223741468110237
2120 -9.812494984358205 13.847739287869988 -3.1182212556766333
1088 3.8888045258541957 -13.525611060046362 -12.509474020572341
616 1.1465921358138744 -3.54668948272607 -5.131267806831961
1959 1.4791633848477632 2.677546237851907 -0.9855755962003045
2051 18.504023709234342 -5.057597296684366 -0.15216855899721532
1073 0.47401188292499774 6.171469676806985 -11.002566102035013
1492 -6.5336159423598525 8.835696833671506 -0.6982508590059217
235 -8.257721569649947 -0.35112543898177334 6.6086303090092775
1905 2.492393272673443 -12.054046507129016 3.5445223408608655
1503 -2.4889777641011905 0.08792469192936214 9.036678541444308
1834 -3.6118164153418464 1.4220978388703065 0.7128231015082713
459 7.840699609849269 -10.568896312156232 -0.8274451941949799
668 -15.78274652629998 0.28312118812025616 -4.298570610830702
1079 4.03605157635694 -10.397710904663528 -0.32930390604077
99 14.570354415684227 4.937391943635493 -1.203539595749304
217 12.296348466741142 -6.342795686606423 8.585375037004637
251 -7.9263626737691055 -10.545462284665255 11.086938020471525
151 -3.203333229700825 -11.007119742104587 -17.161462700448443
1998 -1.350324173080806 -9.332716060960173 3.5351321306354575
335 14.344872160549151 -16.557492197655186 2.5000136226021454
370 5.069817456692525 -3.9607227915534913 10.416881305463997
1139 2.375926698199081 2.396364065380843 -8.115158180496124
387 -9.393310471454328 11.633908735250456 3.571855777835946
61 12.784847000008247 -1.9610389597894307 12.101102831112724
1745 -1.142694282950778 -5.610796869741481 -5.50869550492808
1915 -7.8961253995489935 6.147632344789054 4.896895686359349
13 8.517657227237516 -1.0753773194586373 1.3213773997978755
1908 5.7264231628006526 4.736086662595312 -4.207815857563208
1709 7.293419382300432 14.69443355742918 1.1877641865805475
2032 13.756854702876591 5.167155449490856 -5.674338033145835
1818 -1.9368161149469192 -7.289716893907856 -2.28737223431738
2057 -9.919578087147073 -4.547078887916514 13.83146146936948
1403 -0.6700344612641763 -9.76006802185561 -3.5780539592925753
2126 -11.687445465654452 4.187371596100597 -9.934258515752989
1839 -15.622379773258656 8.976580155967236 7.595165879488648
1450 -0.5306878407420759 7.609203342662328 12.384045275029358
1627 -12.169031911050196 -3.0698429721350653 13.204496504079593
2027 -1.9538602601483765 -22.276976696275902 -7.667729775020564
1938 -3.035456956291393 8.845917504640669 -5.178888372088864
1141 7.822148374138833 -5.498608888708502 0.9630143639455605
827 2.6302958729626384 -19.548257750138745 2.097085579756184
1308 1.4038964608333013 12.431908280604208 4.441893391282298
1816 3.364316519500498 1.7521984389808256 -14.690691501635724
623 -12.977948349320686 -11.479066835375741 4.696944686290752
786 9.96600966047496 -19.02168991912009 5.425016203293994
1923 -1.7258014211518486 4.192532360401934 -11.016483189020272
1665 -30.827829515550885 13.132875529591322 13.04920646061536
1491 -4.3004701772913 2.024444059682236 9.364315149157004
29 2.595762578055619 17.342466400900268 -4.804649484847035
1181 -8.737514524844167 19.538590063655604 -14.680338887387787
189 -1.9802351662323734 -7.749323495466509 8.149400318605649
1540 1.7451160350434602 16.25933419561522 1.7676098644967233
1350 -6.769399312069388 3.5234807175030163 3.274856438282378
1028 5.634502844654118 13.667477828646192 2.6161462225134198
1880 3.661525134103225 -7.7899069864057955 -6.089686146235771
2060 12.503251164740991 -3.138089769972546 -12.379800011698892
707 6.893122275703392 -18.21372255045206 -18.31053250316446
1083 -8.945209529247412 -9.195325109929442 4.897499111718285
924 -12.459116659541687 -0.05948948824911572 -0.42393896123801605
1487 -0.09095392990163516 -11.48395745592684 -16.299500529071704
1842 -13.42083455685894 -4.0407582150624055 7.344278662711838
1265 -10.350791985166993 0.733608789172322 -17.987515791389956
1768 -6.083703367613592 -0.3636478214360154 15.915357116578503
1926 5.482822460995681 -5.054764288794945 1.4248283893349154
1321 -0.5781440540909785 -4.87097195514845 2.0432452736360047
68 7.139778114289679 7.609928817872779 -1.7483670861747234
1147 5.301153976363894 2.601706840405252 -8.749447459795231
55 -0.9236061650767361 3.710086654983523 -1.4223614492765742
951 -14.045059042912337 3.6728537062286275 -4.890018043933746
1819 23.88154811277735 11.389050324406528 4.4341287039528385
314 1.3799548643624784 5.487026394322218 5.866144526384009
1766 -7.7678956386645215 -4.416271628252743 1.8656549095532489
1809 -6.576554983358186 1.790724630093577 -7.585365074014982
2050 -10.04741631683856 5.909153892286258 14.033284183847941
1103 20.85178386764698 14.10591709827707 -12.353936655291802
242 13.330458835339787 -0.2762014556482264 -1.6193209195304852
1400 14.013011502060875 2.734492938080159 1.8372204337532914
902 -7.204674573410566 -6.709634540900149 -5.817468285056094
1712 -0.4927282387122028 17.34793707470872 -20.39058081731916
2034 9.558581941929578 6.366213217228827 -2.5936381696851813
1479 2.18189745224479 -8.606825778776278 -2.5500144620324288
108 -1.7097467802294368 -7.073007561303263 16.657002955423795
1096 -1.8939159719949432 15.776797238091614 8.120863040258625
612 8.988038459754051 -17.481191944507856 4.011451839119017
1648 10.918352184954449 -2.078005237793204 -10.532099332657372
718 10.711495114798634 20.661554955314298 -8.54060808630665
1865 -0.7633376371733075 13.598648954278495 -2.680134657337133
1903 0.3742917178900776 -6.726846586678558 -9.562655530137626
291 4.013429703571601 5.443378494255613 3.7306067627140362
1581 -7.047979326785554 11.112401550249501 4.8554811499183925
207 -2.8970122238680482 0.18036104455015972 -4.066257521486534
1904 4.474543856867604 3.783657092819011 -22.46681012979599
1680 -6.94915631368985 7.8825616549977315 7.764135461726665
1485 -6.525937423102122 -5.993766520000781 14.34071565965602
1874 2.3219693524243112 -1.5631566234001433 -10.812817206865406
893 10.309884955735505 7.32960132699626 5.950459899039975
775 7.245002606574115 -4.413461940079494 -0.025892874766643884
1886 7.538932384625205 1.6783058546950484 19.594236405253596
643 13.189115836257809 0.2258788598081059 -21.98124641247872
1038 -13.664789732544925 9.213240120674552 -15.149047778163315
676 1.804913618774044 -0.04524482932756017 -5.02039186265656
609 0.9714246540407093 -29.22142267735525 -8.056546081985191
2157 0.5006701888698821 6.3338356822580755 -11.518662979477762
1956 1.7325048583470808 -16.081629489219516 -9.817815563392372
1338 -8.889632608008263 4.954136005572519 5.5387054415410875
105 -2.287142857274287 -11.366572388297078 -28.616173462347895
1468 3.267331819347017 -8.397768502190761 2.8511280441846694
1857 -8.30984107441328 -6.7098325505999625 5.144768084643442
833 18.19014939557846 4.401730076917025 -1.0255879915594868
790 18.113680924807873 6.724653771329507 -13.548381413475534
738 -3.2500256678051085 -12.98929587467242 -2.4030494103829083
1866 -9.565415719793894 22.82359614687727 -3.7099284458458888
1873 3.6562623088497817 -1.945076116184727 -8.96698063989596
273 -3.016653333008006 -1.0769882595101863 -20.51844192561801
246 14.858184111741846 -8.457932432963473 5.2979601361979
1309 2.6766306463967715 -0.4781092614265433 6.002771668048501
995 13.28648056486856 -5.37255244257012 5.322449289173416
934 17.565267604041413 11.716398517002666 0.3577589659956435
347 -11.199211769721776 16.00312545588951 -2.826143660269301
494 2.4541431826347897 -0.5158520312172078 5.454923206084573
2132 -10.605279347881027 -22.327734909329802 2.758642513976187
94 -5.703900873707729 -2.5014345811697805 -5.605871282693043
1513 1.5641825219483956 3.811600347781823 -6.158081300567152
840 8.50409077793325 2.4049209277692274 12.691272951119648
131 0.1860554112784252 5.861902059683967 7.975743950446726
1735 -7.607497049182971 -4.442783820892094 3.237565559159377
1813 2.575410729065822 -2.519167134624921 0.5591460061866477
1776 -9.595195142736992 8.127038269608716 -5.548720802232229
296 -1.192050676981109 -5.612282671319516 -1.1227864563401322
2054 -2.770469434860603 1.4936762264531924 -8.27856080432195
971 7.962595298152646 -12.056088184084048 -2.4758288046525627
1392 1.6252861802222496 19.38993635177414 -17.220288466471082
79 -4.0335693105026955 3.476354130645565 -7.310041623769411
375 -1.0068784863618236 -2.0132680940830823 -12.986829914335615
810 1.153787492683671 11.915172437273917 -0.3938564043632545
183 -6.025673603765921 -3.379278986414429 19.684295707144464
575 6.711373789610909 16.69375202767475 12.97199646994996
14 1.97430611010178 7.200216889924424 -6.283416329714135
312 3.873931613093574 -5.562647661521384 -0.4768448229058716
1546 16.278100134373627 12.774454149821944 1.811247281681687
1850 0.6205533237297969 0.38130233766139626 -7.607075000498989
835 12.397060599397712 -7.999220202942458 -6.335615986775986
602 6.361752939128014 9.632014656242498 0.7502981474484682
431 17.162397166872797 4.448938220903031 1.0371753784869437
1976 2.2648311918285065 -0.11895328787505142 -0.91775349572952
662 11.30868275176722 8.13262149896631 -4.0186462612667775
274 -1.9738353073730244 -3.9497521432339293 12.278228939841
1947 3.01898302312976 -1.5685225055970577 11.051368726642
1641 16.495056409214104 -3.8951312295030864 -8.37749744561715
75 -4.857875374120583 -1.7104275960304174 15.13461226555009
2088 -6.715704356103331 -4.137916421097833 0.20622635205301096
1046 -8.587484219586083 -8.591120784785964 -0.46884601161864503
1599 -11.654013117981696 -0.08248154688814144 -2.6215193326744024
2000 18.82702471949108 24.586780218994157 5.629711551707342
179 13.119807464340614 -34.3970187657147 0.9437268709404899
31 -3.7484286892823806 10.014941581969111 -13.758774364194261
1737 -1.983231382599483 17.257707806759633 5.146311075828475
287 4.985029526688508 -8.392403542343917 -6.50397487651169
1849 11.985565994130166 -2.391200382779684 -3.0373470585455182
1571 6.836426676368455 12.05030891460414 2.579880008181707
1832 3.9059704084545674 -4.959662243436525 3.442660086777878
1856 6.679066790325497 14.06481291471203 -3.8974378039693622
1300 -12.18227789824603 -10.694513368540338 8.668779880525602
1253 4.474814839455453 9.581515868356814 -2.87201159951829
332 12.21693312736287 -10.253349490810418 2.665152047649681
303 5.401399891115576 -0.7663677218450395 -9.47121188183464
1421 1.279583557397603 -4.547214737351454 1.951104591439447
882 -10.165712868149917 7.537166473101077 -5.031893036393668
870 -0.3889788876013089 -8.649647757257718 12.563822947980244
1859 13.3269492085156 -2.565638986501822 -14.130425779689775
2068 -6.966269393900657 -4.430297883971013 12.595598401042418
1888 -4.0063357751820465 -4.5859338032101755 -7.739704250608841
1411 -11.189475141295704 2.448595013061337 -8.475335251344763
1687 16.842945409129904 0.8692057836285424 -3.843164043790026
922 0.3004422794767619 -4.608999644793434 10.440749875123778
445 2.0089382718188378 -13.18798295105995 -0.5035407472323851
1268 -9.728370883077313 -4.370118209751346 -17.79793509311986
1323 5.913074502479604 -10.670050249502836 8.617105604696706
804 13.394198343659738 -3.9868402329640062 -4.626692015044434
1547 -0.5270470823141036 2.961248783641018 -3.6174177662572577
1215 -2.462932555578138 1.570337219388005 -19.958423020668178
1785 10.18426947350905 4.251927627419734 2.2802264772157197
213 10.88540769360175 -8.489386683151647 -0.8300120872019136
349 -11.36634144918844 -9.218985224926374 14.05158700492288
1517 9.964876771486848 -3.623756873099351 -15.710963147894336
873 -6.049626704813342 7.13176676506796 5.8466157947537045
328 0.9319073962798594 -10.144705566313222 0.6510869489201425
889 7.996301817330501 -2.969231306755884 1.8704276487302178
546 -13.434120054482436 -6.965993922467687 -1.160840786172999
1729 12.821412044429353 -12.234135490605896 0.4172120113283884
1230 6.540979647183829 21.397167964957994 -9.558437426299387
1639 4.793380982357972 2.9581110345643924 29.167136516735013
133 5.574334280932378 -4.728019767181283 7.1606549748231085
1195 3.213516835726785 -6.601772025429929 7.5920071852994315
955 9.554308269839138 -10.436034401107682 -13.30772553632429
256 -2.775633054583971 -6.350459516867547 14.53539573186426
990 -7.419335149649477 -7.325362863054574 -14.162716082075795
241 4.790221528664525 -8.779957722465857 4.7258254125256345
1930 8.088513518678399 -7.560413791111619 13.16044462345983
727 1.1452647091121146 18.404703285820542 -9.145881301255457
266 1.5222867368679507 -9.950199569145907 -6.1899351181779
680 7.720526696022987 6.4273936713303055 -8.530220707404812
1650 -10.810782446524813 0.3988874614442281 -6.760506368715459
1311 3.618483313664657 -1.5888473644956722 2.4909359059387084
1748 -0.2307947427446626 -7.480351805693061 7.771000861369232
11 -13.643125584097442 -3.6641053115801228 -15.302150634926102
1287 1.9065074246360734 -3.5933764041653786 -0.4541356697433416
2023 -14.008546550165848 -4.658651840031489 3.4641576681503783
536 18.126213561325667 -10.29788916831303 6.274484973026773
1943 -1.172640338729171 -13.194548152421579 -15.746746457862427
1814 3.5947998811013218 2.437212240051796 0.14623297262356888
1719 6.153949228089369 4.003450491500053 2.992124828521596
2067 11.877589741791224 14.038148059714144 7.036282575926209
1763 -11.538590268867305 18.15181831980802 -12.03004896991135
1918 -10.506767460295341 2.2671803370695973 3.6385139727487807
545 -4.95239798536992 -17.023985895553857 2.4947649224067647
1810 -14.729093636178547 2.4236252627933275 -3.2479881241694724
875 -12.192181085760055 -6.496993143022961 4.119956474115345
1358 3.1078852958764256 7.887103208622803 4.977692679789776
1068 0.14620284449757956 2.351892362780214 -14.783989851896497
146 -3.4736988627836163 -6.9141998372121956 -9.43622437820111
1922 -2.402772574266674 -2.6674338366642614 -6.2757402397827855
1255 7.78626818275322 8.341074943177375 -1.6547481500658265
525 4.739456288797437 11.963655667957047 -1.857481613318594
856 2.611461715812388 -3.4890492250332374 0.9905454309480277
1618 -3.201085906700936 8.898022880802808 -2.8414964375780265
1376 -7.92993623248333 14.034309655732278 13.176479984750378
1746 5.741420259840364 -10.135042177124058 2.0729598819886084
897 -6.179824552822736 -3.125614667823121 8.939706620362156
1720 -1.7151513481390894 -4.521376304385476 -6.741885252428224
492 -3.2613260378764406 10.104788262039834 11.54758098630659
1059 -3.4477503995708325 2.3975742680832965 -0.3951369070920509
480 3.2090003760958843 2.3685848026805725 5.335569683512411
959 7.139865672391339 -8.141284512955622 -1.5618586030205328
1348 5.1813286111603265 -1.9213069404967758 -2.3638911853005937
820 1.301051878754002 -0.7849202244446596 8.797489432798235
390 4.434416262830737 -10.316684839569326 -4.2841932317781755
501 14.715720421218391 -2.462708146930987 -3.7949829303207614
294 15.042067034806324 -12.98629953494544 -8.760282303225486
1395 -12.315890890717153 -6.76018823381213 18.853791104371822
1916 8.6216951274674 4.6860101883683525 13.107747335921056
1431 -2.7045181901759245 10.616026548132556 -2.351537167889139
377 -14.849239209907505 0.49096816706193736 -17.63972806165434
1425 4.479697347163983 -11.288386172695828 5.745729256781069
1576 -2.084456192595388 16.399751151409244 8.22592247705047
920 10.508900493250852 6.763331332083886 -9.307153908270385
1808 -1.0755523898535646 -0.5597424306336896 12.478971482948282
1955 -1.1113381019430455 0.8375625632361346 11.482473182832832
697 9.836445977084308 -1.5926614043316194 -16.187781153630315
1440 0.19701261288785046 21.552142356269414 -9.467318816924335
1961 -8.382979250567056 2.9487275610944015 -6.220057304501139
1982 3.499142549067379 5.072736874653046 -0.42642495040103656
1723 16.085593268156476 1.4303587401026419 -6.136425732963133
475 14.437118520914572 1.4882936853289879 6.77961963073648
1604 -9.308666443729587 3.487322073889704 0.4058551905838718
182 3.448695610214465 1.6705768275969926 2.6283315451367484
1559 10.66836872800701 8.965300514650142 12.741075557070612
438 -4.221784061602096 9.105881553991187 -7.049184630621164
626 1.227600616773076 -5.372185305558731 2.651852291456854
848 -0.6412547203526334 5.928469677398844 14.955858151045963
968 0.27529937735909976 16.47310834291767 -4.529728507394045
543 -5.281026288767986 3.19591180793255 -6.950416022260263
645 5.206615465585195 24.12385042429713 7.969646617502985
983 -6.849703076586493 2.0360176400582053 -14.347967922035389
1527 3.8871838156595766 3.8943089100402286 -13.880410040607023
1137 9.416234918564541 -0.5771630981621079 -2.2668164690231345
921 -4.062868409572598 -9.378021419898511 -2.1257355859783647
178 -13.272959217701198 -1.7757853717229841 -6.413726779562452
2035 16.970833827987477 -16.994165267443343 -0.7301055697764385
1280 -10.400281434912701 -8.38217307228448 21.365177707985026
627 4.302879718960435 -5.3682266743855385 12.083380723698829
1848 -28.875064606385408 6.316986905129438 12.771471808455662
181 -13.65911006895503 -8.626328122051534 3.260692156744349
1032 13.556770184955905 -6.223269797061842 4.875377404158137
1465 5.23263841050793 4.355003723614948 -2.27587436024066
2011 -9.461045144434063 -0.9336724088716045 -12.830047423922693
862 13.406470022749543 -2.9204492519572423 11.784598034807017
165 4.532413476070788 -6.03111719011842 5.526504115558901
748 3.0581130953409845 2.833982793288623 5.871354334451377
484 -0.717777954724806 -4.063698553642137 1.032703685854222
537 13.574673125498128 -13.214362912147177 -9.563060398933848
1831 13.875268435340177 -4.699190078060623 0.5985919357099743
1058 -12.935447455649426 6.969605498279324 0.6731666092110372
323 6.012229234360441 -4.195653069811949 -1.92067900167475
1418 -16.72017991956714 -5.577790451936401 3.793942168008854
821 -1.942296388334721 -8.77908905458199 12.75049307094936
798 -1.6294551529394063 -4.382570331451579 12.810289579147875
172 4.116678703504346 -9.518153766719646 -2.706348514847563
1595 -0.5700840571170473 20.83613508647322 3.804176397944649
1390 15.4787066954695 -9.936570795552468 13.648629401619601
872 4.708822097620345 -1.5540077272935062 3.1734366200922715
313 -2.646713071891669 -4.43324242314654 10.141821801544804
765 16.192597114002684 -3.7254373299025563 -7.138283295649359
757 -9.309813160503635 -8.629021300121224 11.138313491262032
369 6.523507820184221 0.39877877549789265 -11.649604164934718
2042 9.463863817060489 -1.3422713115541023 -5.32686931214613
1303 5.774757177826603 -21.229575521626167 14.067989040647818
25 13.781121175288597 -2.3917357807263735 13.060202001903546
1891 -10.63618358129278 4.050709707782542 0.7073424750834847
1008 0.32905788669342306 4.265850713923286 3.617914714662663
1633 13.957761566046512 -6.36499521478768 -0.44424532790186044
1679 -7.3360357810192065 20.126999781864285 7.281644507907071
1935 -2.6127708901394673 0.5512099525778341 -0.8243330809975592
1495 -16.713461815860544 23.227079860113246 3.8991685662345166
17 -11.318507705207663 -3.697822021328093 -1.1526425800070863
2153 -14.654497342907154 12.238776826019107 -3.541726873347508
593 0.3312439566377663 17.844788978195524 10.320407338835434
636 10.317444778490577 1.8340778400991462 9.38805868652976
279 -7.443604562976086 -8.128312137165796 -1.7123582813200193
573 22.27839822700271 5.787466306933337 10.586927552745285
712 -4.858531013525853 13.775192258160866 16.442069298390752
2004 5.63866217436458 2.0895869773870874 -9.889558780631358
716 -12.984457251597718 -5.265917307742494 -0.18653853509666418
276 8.741302999094097 16.232580186408924 19.138962841340458
78 8.175733916125406 -5.086760225369496 0.43318997129094916
455 2.8973741106821786 -13.100945504381974 4.167663298535443
2150 2.345980437615958 -8.126520045686199 -2.5033440247183854
175 10.260216484638855 -6.069124675018625 3.277846504683842
650 -9.284583090620245 1.6715924860702949 -5.080900387936463
1211 4.954476546767855 -3.361475315656668 -0.3727560909988237
1108 2.906063920061774 -17.956137142301763 17.165169337094657
656 7.986004868488119 -17.275724550010466 -8.402946701901573
563 14.558020320254693 -15.4768285414839 1.928870849610652
1827 7.687471491514401 1.9080628857535304 5.921879592800488
113 -0.8833914802836457 1.8406841972633536 -1.5684546538528996
59 23.808089160336976 8.383067650796312 6.098270995988749
115 -3.689613683038053 0.6639677779842871 10.159250219116524
1672 -0.8026183242643059 3.448669690438778 -5.431149086338821
1786 -17.778642025903054 9.045936032795767 5.589860993543393
1634 -0.1729685510274725 11.969369419440575 -9.033799036497863
610 4.823815964980902 27.983383948835506 6.36502627686646
583 6.356492500936882 -0.22569103652007652 -1.2771860223093436
2137 -16.88921317638714 9.456902149956184 -7.784705072264312
42 -5.271222736632294 -10.214656524123175 3.7110326024928715
980 -6.668811654620648 -1.9105040427346822 4.118115613464827
905 -12.017498922183268 -4.365668735854769 -7.170211151467252
1357 -4.442341522903995 3.550348472903642 4.655683786689658
1319 8.732319855515067 2.0677234351313483 -3.8901003272414627
1192 -3.0092312571396844 -5.2022011212063894 -1.3265992638507802
582 -9.800208508472934 -14.376380160615899 -9.47550986667236
1968 11.645809716868456 2.91302647194217 18.78527654742019
957 7.704316002308813 0.7321591596459354 -4.436584245675533
1949 6.859031590250269 0.9584059460822076 0.028143691137817912
1708 -5.031756674694091 8.102393187019564 4.231694473523833
177 -3.883212305843183 12.295901110188105 4.091826967959906
249 -13.270441951222274 -3.211763931942851 -1.0842143310346006
1693 3.469275933876989 2.2595679251495744 -3.442382877784394
2135 -9.705591241151103 -1.1552622938892794 -4.774186254746791
975 -0.4078983487683342 -15.874191217664723 -3.325546509953515
441 -6.358938065503211 -18.117973005560334 -8.645937911135535
1591 3.720580507273051 2.8115942720488367 28.342094703928538
1509 4.831799354702856 5.243845471277186 8.849412642992922
446 0.3362523937568388 -1.4828100272259377 -1.3182590545294615
1688 -0.35376475817926245 -10.51694554347622 1.392878303509049
2099 4.282593696423858 -8.500728950077768 -1.9052598431905154
2053 -17.672310693611777 -1.335471505337446 2.5510149839461307
1704 -6.9011520710868135 5.165310373592529 15.262199859705857
93 14.336049234763628 12.28316695458898 -8.466765927239194
1284 -12.615705929138171 -6.3698430545834555 3.249820157965011
505 -5.516643785348763 -10.354745169407915 -10.724677445590808
1500 7.991382404206972 3.681878063347014 -8.403437628476604
510 -7.004157722506201 1.8499025018532635 -20.83778243212802
557 18.077422409227395 -1.7174377445992866 -4.885463114432693
1713 5.073550111120084 7.155972505619397 -12.52449592122644
440 -14.03194560695511 -10.38172177280119 4.033925228385563
2071 14.632278591383576 -9.792192408910807 -1.156869933576474
1266 2.994140930782206 -15.919761256175006 3.100624210911255
997 6.486779502377059 7.136550127959825 -6.6095738797138655
1543 -0.17308057782018077 1.6883868492744416 6.23338084762936
726 4.418164496521645 10.977567060804166 5.870687542110171
46 4.82976661298787 -5.32358882273348 -8.406314790547544
110 -1.681264182000864 -23.121769690815178 13.918380237735574
781 -3.692587490419334 8.517668131599285 5.489767452158223
2159 8.801022160681562 11.379238820986396 -9.21200749102681
822 -19.134640702369026 1.6713610187886168 -15.350360481273734
819 1.840332006724106 -19.504210950293643 8.56627171826103
1054 -9.055144068825774 17.989856671274367 6.693382505594006
464 4.778086472591818 -0.730763199483926 -14.589707765734442
1802 -3.4991582083584727 -4.691054786708021 -2.3388443229515468
1833 23.87527575724669 -3.4647107434641082 9.936419548238787
1047 4.765876421562875 0.6778474726333701 0.5737557600347217
730 4.765102859051044 12.372565969060101 -8.84560238502879
1132 -15.625183141252736 8.898022840375516 10.287203523174583
692 -6.820101888716265 8.9377756424649 14.861381031392902
324 -11.57392708250262 -21.0402686020336 1.1296520952753613
1889 -15.521805645166376 -6.417382818721197 -4.915348012628282
1288 4.2389897287501626 -2.3738070751095006 0.15367053756261798
739 6.986892535305051 -1.6086799385552413 9.378875230659194
132 18.598769298583015 7.655690862269606 10.471345820914491
1504 -1.7260807265887148 -2.4409586154474807 5.1364109203773545
1123 11.899528960809173 11.516420090242981 0.7349483812376432
1531 -9.523656316703565 -21.524425373704158 14.550366119335443
244 -2.029647371803506 -5.790251036790146 -4.099810714486283
1078 -2.263956800941033 -2.435235856411207 -1.792893116308271
1743 -9.218544168524799 -13.449917474467982 -3.392138484853642
1673 -5.1559184706194765 -5.165306821824458 2.5085321680854666
797 1.7735496763615866 -28.942407291663265 21.513829814158857
1779 -0.024034235761666207 2.2469029370940983 5.563491868912044
1666 -4.735210553983254 11.646160615937987 19.67242193469259
847 -8.55956135750162 -0.7269187912346534 -18.85020982096572
1992 2.568111489411604 9.280145829293573 -4.748437329724434
289 8.852151236895018 -6.968415750985753 5.709590119210096
753 9.789354378601542 -2.483340711140971 4.9868725200353134
2040 -1.2346429550370661 -9.310931142096871 -0.47347095600789313
430 15.245460976858148 14.234518715936122 -8.400895838217705
1328 -8.212909920300891 13.881581607327869 5.686593474041295
87 -3.71119934950368 -7.053933927527052 4.206958479442782
2024 20.023572302306516 -1.4209909794064495 5.516223740468611
1772 -7.070414601417184 0.8425762246206099 -15.155727556723292
1157 12.896296450237068 -2.0523967949744475 -10.282971603835186
1628 8.892418973225878 -0.2171275281438188 17.22924790386752
114 5.320920928938093 -4.760754055040985 4.581996594139115
1202 4.4231380240825775 2.6258411158087305 6.717172631353762
558 -1.8131493799015919 0.2599553279056598 -3.491358113676426
1466 -9.554841438216837 4.0554438447606564 -0.42689193358525435
1795 13.546339079979877 18.284448268309987 14.544375723331475
1565 -0.7236211968067678 -14.158094822669867 -5.9414308724183895
2043 -5.59395755868165 8.001767793739194 -2.544259184967719
362 16.06083121488968 -2.9938981281051023 3.356757773021663
1379 19.91680000794943 -1.8120069031533992 -8.136260393952933
1985 -0.02453199257905884 5.594549364722062 -10.404929027605037
1750 -7.250280231961886 -9.409423964036863 -21.88095273922302
497 8.929351466691804 -12.550548721254218 5.420567627831185
100 -9.047610587603348 -3.81127451846012 -0.4079577265446169
192 -3.0744279637551344 -9.760581012864739 -11.583449051934439
1588 3.8884368821852844 1.1194455399663499 -4.03018122262659
964 -2.0007936012982364 3.8184437119209753 15.116194485727211
1232 -8.822253663787075 -16.816587510362265 -4.586748787841789
1824 -12.631958919488742 9.178127677683626 -5.538895716801407
1682 8.578466002810792 -0.7007908752489268 -6.6605295964775975
1872 2.2042458312201343 -8.252401638464745 5.767696863942007
1399 4.1263641950726395 5.305050248028189 -3.942482436102274
82 5.378708921738176 1.008768543136109 -7.07449834926407
1138 7.959800126163966 -2.84027978534215 1.948265976354786
1177 -3.5878038821840965 -0.2090086258233449 -1.3826756060083034
936 3.5130789051204845 17.0699362693926 16.275717024089968
1298 0.8645449022141829 6.915596086285883 4.9693588031595475
1435 3.0464441339509354 -9.190724768853554 4.093645333180972
809 -0.6594836496668548 10.49264556494567 -1.7324570235471128
534 11.397426012105559 -7.219890742002952 -7.1722895001665705
1367 -0.7098828132545064 6.6731999654374725 -13.310545505075195
1812 -7.401383116114972 2.8534447942609478 -1.7497041886302582
1045 -11.945549209203973 9.76620009954687 -7.709525430811853
1476 10.576682643526098 -6.604877736105414 5.877720641587643
1909 6.378294103949894 0.21940161925625576 -5.14252455436067
694 4.973402167555568 0.5970948090421965 6.4965716998406915
540 1.6701099631658587 3.1485479789364343 15.422940804847745
772 -9.167326277883305 -6.26612598312143 0.8059615435105538
199 -10.762887619584008 -9.410845059309128 -9.700090615897846
1643 -0.6025774324272598 15.92172117660898 11.125047477974238
373 1.3425581628278238 -2.0008906054952593 -1.462746927307329
1397 3.092868555946297 1.0012881519736316 18.046044993490625
2052 3.947012828733607 -9.143146034628716 -3.799679051850805
420 -5.002424576029637 10.15561184851171 -3.2812705002901463
1454 -10.162623242682487 -12.255676471086797 5.962991447221272
1946 -12.843152888894522 -15.354736273648486 7.542205110784448
258 15.63261679473079 8.298516230436661 -4.277369421864582
1496 10.425501946290893 -4.698718028800933 -20.123659935047517
97 7.30009159078661 0.6340907622411153 -7.119285696234305
1741 -11.940259024919255 7.395945054851815 3.5466912652944513
204 -3.486603377324778 1.5361194095524056 3.711112408342088
742 15.48104791816152 3.2970202765974337 -2.817142471714037
832 1.384634902158502 -13.525959274508152 -4.316833681703252
1652 -2.1527963145097875 12.671925781269321 -10.699027638927886
1586 -3.8611767094613305 4.750358026646854 1.1102551056224659
1419 -2.3880795227271068 -0.11778317651964093 -8.339790779360131
1075 -12.80064345991765 -6.857107244427866 2.881536119753276
406 -2.4152065242104612 12.514803200990785 4.9835610538461825
1021 -5.857857944522064 -16.873482669296955 9.007380730850356
861 3.7231973860740597 5.155029461357035 17.15097827825043
1661 -11.98153007121699 -8.046036095169644 4.568880092320622
1609 5.293840944107971 -0.6823624217731108 -2.060458203069025
974 0.056704617172805206 -3.354413344657191 2.5352126744020316
1510 0.3694220933166135 -0.6080115029777361 -9.399580367136465
2056 -3.8491773692479314 0.07081318479846879 -21.34538204159948
1906 16.652859513097432 14.113066124781758 4.463953733841397
793 -0.15778912227360045 -6.117198535876137 3.809470116948277
1584 3.9939697026810204 -5.883174914448398 -0.11518920751655044
211 -8.83697353673335 3.9981311487978646 -17.797942689209805
456 -2.958014888501929 -8.135904906368033 -16.16444421411344
1237 -15.013866616922218 4.997491711238263 10.642034159984203
1674 -1.786119352892585 -15.109364337840773 -6.422855198645649
1424 -1.5083771611308037 -2.0481071327718783 -6.949159860094235
345 2.869848192902647 8.121865854213155 -16.152123942332747
1797 -0.40411416451955257 7.5566818092720665 14.21227371854496
1359 2.827822282888521 -3.6404587065282312 10.27516579268921
570 -16.00881506118921 6.195953561136824 5.711061745858888
269 4.882089037459919 28.799433913842687 -18.266529967129753
1174 14.746785992675548 -8.413499426097534 8.933031233964225
685 -2.5685451177645997 -18.215731443999996 -9.1229890828335
48 -7.277688697324606 7.427660073190958 6.403481295186975
250 18.332349180434303 5.445577754436981 -4.203322080776958
356 -16.71397358891607 10.955025782585684 -23.497320103571465
311 8.083394480051094 -4.884606235288406 -3.011762932000418
351 -7.029085302518466 0.4748311203281504 7.016232028671594
1402 14.275448543282463 11.66488779022121 -4.6640802947689926
994 2.498481472732228 -4.991893623779269 6.147249021527188
2107 19.41874370110775 7.854664014009422 -16.174129093358776
422 11.170497435065784 6.275103868986908 0.33145862064277737
317 -9.289467457778006 -8.22623602931849 -6.51544910430848
358 -7.688018765906638 -7.715522731124858 -8.493845449637998
1170 20.033893437226347 -10.86424621785148 -0.987925135390582
813 11.143042012464104 11.857083611338627 8.895590073257985
1549 2.3385693032707913 3.787277005119861 3.115712848991549
1122 -1.2250289140975694 -2.4676793452155446 -11.462312357523635
900 -7.894010119201892 -5.105653113721616 -23.834839409260393
719 -8.059171419102153 -19.331690604048205 3.147576558285092
397 -11.987757637831493 18.53409928464111 3.3583750478048215
1568 -2.5517566846195856 7.983164528276249 -2.60129317478268
1950 -8.435336572786676 12.118869726448814 10.939422595877666
1136 -9.083523645355266 11.112416631535323 -1.7786606138713499
1204 3.6296258894525217 -3.7780859491954786 13.050454630670485
958 17.57283235629043 17.02475587201206 -7.70230568691525
1631 0.907186283683443 7.186425282497315 10.644951029951086
1744 -9.37303357667467 2.492203489608126 -6.469975322777199
689 -4.510192861074888 -10.280544268402645 -2.8371944778095286
2049 31.413420714674988 4.0635680372179435 -0.17332160877440503
339 8.941940531759808 6.932754133268167 -7.162634531052465
1275 -16.60910463429079 5.51033856719148 2.15980461431937
923 4.820384604114333 13.447481848227389 10.772645207809749
1574 -2.535190840088109 3.0235746256543106 -7.341553182805128
1579 -2.557012010120137 13.500015893444356 9.616354193278909
1862 -7.265277292034084 -14.777139107470225 7.0071005881174235
427 -2.9763665591563213 5.106975811976371 -10.589130789210135
1267 12.768266804698087 -5.142642321173727 2.9328203055076445
227 2.1128953035536098 -3.8418769204469956 15.26252542135552
1725 5.130721027145249 -6.6026663129419125 -1.0620334823793
1742 -1.915266054715724 -4.654694159951028 0.0927551911297162
128 -10.587629957920495 -0.14182362167592275 1.8614767409591233
1767 -9.815178422702553 -12.632414869406464 1.956269228213883
1871 -10.239009335743571 -9.105143062270914 -5.403388120122276
526 -1.2178855457788638 -4.047209960941614 7.344937362937607
404 -5.11784636794568 7.4732733073088395 14.412158461095226
85 -6.660478597001234 -0.22760279739935538 12.663313837587223
92 3.201400655681745 21.451482910280202 1.4484700316324874
1991 5.423389372090646 -18.10639998231759 -0.8980571729095401
412 -2.579742370124467 1.6731406899229286 -4.193759192085451
442 9.957189709659954 11.466335479971233 -5.2154325235208185
36 -3.021561351029103 -23.485560264690882 -12.076774664210056
95 1.6423135165888993 -10.126158959811587 -13.201570261513952
26 2.2831532860570767 9.987027530484513 3.831992026992787
1605 -9.300003770686468 -5.126374012125056 9.588671698556796
796 -2.8488923898324825 11.233318233933234 -7.147381368166034
1770 -7.657238489974791 -8.006291778353543 -18.694920236367306
1667 -8.509468441833844 -2.077594254366459 -4.204948738561108
307 -0.7391220097681882 -3.2016959685619355 -13.031407670656725
1870 -9.200515112633529 -7.3596058018342045 5.031043505405767
1539 5.827682500472533 2.080192514676505 3.984011175593166
468 -5.27791350602822 14.458591623119384 19.721947557493156
2041 7.434625049049476 -8.643836853525128 0.7027222521300651
683 10.195088353109735 0.6047102056090304 3.8125871194681404
1200 -0.485543551698625 17.726249951068787 5.877257891578646
744 4.574718030076279 7.0667265258662235 -12.964514782553431
1098 16.73941545544951 13.63751947382978 6.4309196257317796
1034 -3.968867501804678 4.4423377858683795 7.329085671922294
2124 5.839637033397159 1.3267512577047902 -3.6055722823585428
1552 -1.7197457954363053 -7.410008119600537 2.823022518296508
996 8.436642117983798 -6.205272628690727 -2.2153348109060227
513 0.07902173062310781 10.68960029000283 3.709232366687663
831 -0.4373553732968167 3.4201796528179456 0.31929922533679983
977 -0.2095734084818687 -0.9476277469556268 13.818738818039144
661 -2.4061548756306625 -5.848671934544419 3.0603519219832664
10 6.200768606250619 -8.424775024235446 4.1679387518210325
629 -14.203736760079838 4.277190584275277 12.136447641705733
987 -0.6960751325024535 -6.070753367493083 -3.6366260341794647
1235 -0.083833060621729 6.914094175145798 18.654494656156178
1344 0.9243081824691974 -11.27486972138638 15.368594537835547
1125 2.742882410107442 8.03070602808745 7.379561769688978
603 -10.542495277712616 5.083717107379529 -4.256359233399968
58 9.26248395991972 5.689070036476319 3.2044547616743597
1593 -4.804847621855632 3.7005183347633155 14.394058192325891
1615 -6.893144458170163 -11.368713003358746 -1.9537070099547067
625 -27.593414651757705 2.8209234337934777 11.155373933652648
1469 11.629389892692084 -7.565522946551247 2.6949609334400875
1225 1.3488798938722524 6.117025194524502 0.1562677922457361
394 -3.3500889538280116 2.559551712541307 -2.8582904861226766
191 2.5144492348513485 24.417035008796358 4.435310671371486
2139 2.611183045053579 -1.5569061250333252 -8.367434608643418
80 17.785429216899878 0.6546238207928007 -14.783315719477637
1330 10.654881868241295 -1.5076252707292528 -2.010196221309785
553 2.1859134921538286 -6.983311568660556 12.79705556734539
40 -9.838112692783003 -3.770562754515728 0.2644468135503238
1260 -13.117478508626006 3.121836845959416 0.6287086936227873
1057 14.720090708785579 -3.662967364870575 -10.969002980488076
2025 9.863388866619342 11.181843318154193 -9.708033703390873
1512 -22.6691431829792 1.8142872124876614 5.8909980188566005
495 -5.431323627098886 -4.582535773171363 -9.698044983137622
1062 3.733391269537511 14.407469255311065 -3.0067717089304806
515 -4.247941071154987 1.7117642037901133 -6.321983860333763
225 -20.314557862618315 -2.620151048033942 7.543163925568993
487 14.842986990941585 5.134530040624237 -10.18922553250058
1377 10.027017132209146 -3.7133374873435168 10.103756618527031
2148 -0.264732547445443 5.207719258671429 6.822109362456338
44 2.1736556636783377 -12.291062915527865 -2.360768784375389
383 9.81511745620177 15.15523092882291 -2.29663788932549
1297 0.11602003455441065 12.71481535003774 -4.274215736355503
463 5.865148507545492 -6.391925267826746 -6.245397573319357
681 0.09480156934583152 1.6709784392766986 -11.525262699678704
1551 5.5223241398731675 -1.829276516331418 6.2120835430574814
624 -9.562788083493341 3.2067113954768054 -14.211223358775435
1011 3.0875257252181374 9.986733443006626 0.3868280881459083
1018 5.452458292670799 -4.985966128025815 -11.950610230325502
1091 12.591264457730066 -4.269819775874779 -15.10806362407058
1936 4.422207790705784 -6.374412623798886 -18.687017621489854
336 18.36088773900635 -3.621672260473391 8.833335950441931
622 19.33490411479741 -7.236136418222933 -7.10232906005746
1706 7.15400383458851 -6.908001387742238 15.553115390816057
1843 0.4800592824103844 14.9294294013079 2.6741089193169114
333 -18.33537013593755 8.000749939527703 4.1839137098820744
1901 15.26556607742816 -12.896683875897699 7.996836547705287
206 -11.312628890430599 8.694855585415441 3.3872064206660064
1578 -18.029843360667233 22.70753857154816 0.13817903112269941
881 -3.9350427703059423 -10.1469652569689 -23.21337943604292
1081 -4.483588771939545 -1.3316375769987356 -0.9899410513633683
18 -15.410369121500668 -19.02320581062483 8.335520352624972
666 8.528643385569351 -6.648451159582911 -9.792663592418577
1154 4.017405002069867 9.478661266774376 -12.680059154126141
2143 -4.827222254119792 8.898133158313076 5.065618228431285
1484 10.129655403294185 -7.674552682844093 -13.23554547972931
1557 -19.986013153184924 -16.501336384197156 9.41074359119256
1117 -0.4297369340943554 6.363007288601347 -1.3434037213050332
215 0.3763927035644483 2.639250310063063 -33.81630162325282
1264 -4.4566301055486 7.839233949625598 15.357830035328197
37 -0.28479752669650354 -10.08909924012326 0.5046251314183574
1259 7.718267963638985 -15.993108291917443 -13.244464745829694
12 -0.4472918670964553 10.350891820082522 0.14435729736619832
2031 3.190768047199813 4.009750913699314 -1.2016139763055234
1573 5.199877447854117 -7.843959091915073 -13.309545514627704
799 0.7850563828892924 -2.375981050611057 -4.991440533642511
1815 3.705678781414176 7.690030712235086 -4.8892017517266
787 -9.22942837735953 10.3176604075265 11.129977897894515
1050 -6.168130622611395 -8.98891067549057 -3.3659769849531718
393 -17.3586304062854 2.189590573224037 -4.360639429858031
842 2.296422186066139 -7.738941864874372 -1.1548640123915934
1023 1.6404655131439099 -2.033494528481324 -0.7241663004576361
2081 0.39058201211670684 2.599789863773028 -6.064375243194221
1380 -4.652966154357686 18.932952343167035 9.29547917611981
1160 -19.587905698809944 -12.889454735842733 2.271996829497668
1902 -9.874721700627491 -8.737722323922497 -19.855538472829007
2007 -5.623684093468571 -11.706895194130292 -6.837262302224859
137 7.562793067902361 2.731669704525304 3.076884217297862
634 -13.005998445607075 -4.936065493888799 -5.113068541931775
1436 -0.49533321852556783 -9.412142866965013 17.660833531803917
1945 8.748656748745777 -3.380481520880004 -3.163633747226029
1116 2.180057010018199 7.092508356049996 -7.07915395639705
779 -6.953154070321532 4.178881421270951 -10.875656069349102
749 -2.2246080023003616 4.524729938749236 -1.987986330899201
1069 -8.350377248003419 16.7593400505065 -10.620044949983088
221 14.505175147985502 -4.11232117403096 6.9973861679546365
1449 8.85861449739775 -14.808623420609257 -2.525315632819188
755 -7.0504316517056145 -9.306824739610574 -3.380035298469314
239 7.676385299639732 -2.6803339202362446 -13.998261929625954
230 -1.046624903143441 -5.643621803292082 0.21096833346913432
766 9.053185991215367 13.732890747848364 2.0748906024410823
547 -9.418918088319845 -0.8566288332510628 5.705620730939284
1382 0.5414070591007867 -2.2131930188340374 -14.067832556264868
1890 12.456566587963449 4.385343091005004 -0.836854815881645
411 21.598637274927956 6.534217836820157 5.253249128755161
1394 -2.3540393292597024 -0.6794127442293311 -0.65386913245098
1845 -4.922959102532944 -2.081593336607102 23.696177566008387
346 7.004724913685754 -7.9748909553217535 -1.0618045321302774
711 2.030348214792651 -7.078545393035969 11.357370948195335
1817 8.103638138334777 3.568388196567219 -5.877924747464102
1252 -5.348629944203948 4.01667927273268 -0.9447457432929384
1439 -11.184912027316512 -7.208942240316583 -3.6154726630129153
1085 -11.580956546068615 -1.7981873341102632 -14.222149634867895
1993 7.7519839497735505 -6.649390645050144 -4.645439464404301
117 -2.0126785717813065 19.414800285646507 7.514018964556796
854 6.920945288714956 -0.8604311406675841 -7.678980373788668
212 8.090838079376192 0.508933804013295 1.2569706928395916
1016 16.44721104051452 -10.98065084326391 -15.525121286777303
1020 -5.756393852507224 1.0872876633185218 -9.78737729620553
2149 0.21298207293030982 -1.2849472836670512 3.6000032911272215
1621 0.5838496254503808 4.265792839053646 13.479256061563987
2030 8.472903618338743 -9.039421869967565 -1.1501135400208635
1387 6.205171750759305 25.294425798335226 0.007602498143871069
125 -10.265779467625222 3.8446760699554248 12.90191635216999
2078 6.227263321672811 6.108438139145591 2.023005382869985
1654 -0.11192774349488793 18.19748561723317 1.572084003180216
2014 -7.864078136158596 5.038128001826958 -2.588139156487654
504 -0.8434131436234776 8.770411813260782 -0.1991501726963893
1585 10.805617294449775 -1.2269135075882074 -6.438456068506606
366 19.24992149305869 2.5547785405453727 -6.75848584315316
220 -8.890992772863935 -14.72217561272816 -9.751412793661173
43 3.611773826492742 11.059165825948513 0.1317369374028648
1447 -11.917202589913261 -2.859847481633 6.3381558532798365
265 -9.866117513942982 4.387418482258457 0.6680961193791084
391 -3.247471935079704 -3.8351634462618427 -5.680899003470728
1194 -9.20258713828531 9.956500061747434 -9.221164308870751
1855 0.37259989261479237 5.265268046892302 -14.291858073696618
1632 -0.47486422434214137 3.3422523057831643 15.676087622365559
1801 -12.801663266945331 12.333268475958914 -6.828490532565124
2029 0.5743873526827346 -15.771773525873021 9.187413188859994
826 21.090274940479556 0.7076894225558282 -12.441889175013662
782 -12.927541062251738 -3.8152181073496623 -13.322283536403686
919 7.855349795453435 18.726814520944366 13.75711138866874
1975 -5.099891140913458 -24.72799297563602 0.6836397461496553
326 -6.403846145003863 10.326112881494307 3.054325068085688
1644 -5.817210302444835 -7.768448262000231 15.21517571362793
1251 9.90514450875983 2.424770524366886 -1.289590700922236
1231 15.966286005492549 -21.761397299447164 15.543156767275558
1072 2.0199411950071955 -6.290023266196032 -3.0614845463709983
1988 -9.226792636927506 17.737146452964947 -7.145892441721612
1914 6.334608086378876 -8.772991679191573 1.5063860084501368
104 13.612920202402195 22.641221266281573 10.851386069069301
1086 -12.107642714292188 -3.7206942058497035 1.0950379778237285
2077 9.098162009422873 11.094829059643896 13.002461584288065
35 6.816783334156284 6.893667289369705 1.6980868405721992
1937 -7.219913640316426 -6.401883100896303 -14.01198215815048
1898 -5.069891183643086 8.818997374225239 -2.491295135219094
562 -17.137797524159033 1.8321947373735719 -6.251020958222137
2085 10.485816173631276 -2.213512898641339 -12.03134672312651
2127 -9.99292561828769 6.668748316951332 4.056141022910567
1488 1.0618715599073665 1.5505993397625044 10.222963859546658
705 -2.6665392810078425 9.043866106479404 13.194613807490759
783 9.384983991528964 -6.430361878050171 20.30187426072067
426 1.143763548542641 -5.927222877638089 4.528437608749776
