LAMMPS data file via write_data, version 2 Aug 2023, timestep = 5000, units = metal

2160 atoms
2 atom types

-0.13095198564362853 30.269865365641856 xlo xhi
-0.13140961780978877 30.375648137808874 ylo yhi
-0.15165527673719126 35.055480726733364 zlo zhi

Masses

1 15.9994
2 28.0855

Atoms # charge

684 1 -1.2 4.5282967955862725 1.2699304401729066 1.2067256010596472 0 0 0
1864 2 2.4 4.886663342914846 2.6610237152018685 2.1851191500419707 1 0 1
1304 1 -1.2 8.81364795880815 2.4420394747191234 3.1303113608778026 0 0 1
1386 1 -1.2 11.328264914417652 1.7588566085544548 3.1798071588483574 0 1 1
425 1 -1.2 11.789516833895716 2.088515243312519 0.5508956158270577 1 1 0
1921 2 2.4 12.492980848784383 1.4364299559768645 1.8696580036746375 1 0 1
658 1 -1.2 13.841570964584747 2.1842965203066966 1.7262160062199094 0 1 0
1140 1 -1.2 24.67912088840502 1.0218616850337068 0.901047554723018 0 1 1
1657 2 2.4 24.76795978019984 2.5909926810704587 0.33448753947674226 -1 1 1
1867 1 -1.2 26.063540813225952 2.9537830868038166 1.177634319006847 0 1 1
678 1 -1.2 27.598124956700193 -0.11754515049579113 -0.11071140473405501 0 1 0
485 1 -1.2 4.6380776504244094 4.058608950242023 1.354037186381509 1 0 0
134 2 2.4 4.968727611614043 5.616681577615465 1.3343194861019854 1 0 0
2009 1 -1.2 6.276402419628424 2.4954818691877336 2.913449307994112 1 1 1
1281 1 -1.2 6.120229097807367 6.053544492525379 0.362818978912643 1 0 1
240 1 -1.2 10.267790463560615 4.200458389333113 1.9731831001716922 0 1 0
963 2 2.4 11.444761325523736 3.69850120408358 0.9883658252042249 0 0 1
2074 1 -1.2 12.605765720368273 4.520655918734518 1.864517320693653 0 1 1
1828 2 2.4 14.02343822420296 3.802645017470521 1.716321129540496 0 0 1
1677 1 -1.2 14.782663150290436 4.22302470462252 0.24615059146237311 0 1 0
380 1 -1.2 19.16876383388515 3.1358305874942936 1.1157690368093747 -1 1 0
1972 2 2.4 18.91786634016557 4.148328749596103 -0.14637027159150762 0 1 1
2028 1 -1.2 19.499527132724022 5.4889295272286445 0.7338315310367611 0 1 0
1156 2 2.4 18.85676261450785 3.330660341067481 2.780077885672434 -1 0 0
1317 1 -1.2 23.583410618934092 3.681511513005587 1.012761439853051 0 0 1
1561 2 2.4 23.470521384107684 4.722234810107149 2.026430590500754 0 0 0
1606 1 -1.2 22.339084992129955 4.468889430751133 3.1837473019173155 -1 1 1
1384 2 2.4 27.682748029935475 3.7342114862868203 0.9105560125963214 -1 0 1
66 1 -1.2 28.293944393025004 4.778344978232823 1.996513189971967 0 0 0
1134 1 -1.2 28.625815211771258 2.652579783106174 1.5891062551151873 0 0 0
1671 2 2.4 2.251920704768632 7.314742186177336 0.1675119129768927 0 0 1
129 1 -1.2 3.7163318330513375 6.473801095453613 0.6370397013747425 1 -1 1
857 1 -1.2 5.1854539394199906 6.4051876288011265 2.894194418460449 0 2 0
161 1 -1.2 17.719189481804907 7.310833999401888 0.10898886448111714 -1 0 0
145 2 2.4 19.16131239345357 7.016448232344219 0.7919579376443939 0 1 0
180 1 -1.2 20.520448287200377 7.362764270502889 -0.10154227906455188 0 0 0
1270 1 -1.2 19.00004863375634 7.676187241086244 2.3062950512483957 1 0 1
1984 2 2.4 22.018543366970334 6.9855689814204975 0.2886744334482918 0 0 1
2093 1 -1.2 22.79931555269119 6.084614127443887 1.3500862793611201 0 1 1
280 2 2.4 28.274253319919865 6.575133785798203 2.1022349756421694 0 0 1
140 1 -1.2 27.782867100455693 7.0766931625466265 0.46444999389407154 0 0 0
1438 1 -1.2 1.9545313410254654 8.43539215118784 1.2849143331304038 1 0 1
432 1 -1.2 9.620879791780368 8.558262088455807 1.6322421467159816 0 0 0
615 2 2.4 10.375877949183163 9.51302637325068 0.5691988174948923 0 0 1
702 1 -1.2 11.960380116913562 10.137987233482383 0.6447476107790439 0 0 0
444 1 -1.2 16.7740992432789 9.834666459877228 -0.11793596989902255 0 -1 1
470 2 2.4 16.625446604008644 8.188201990887043 34.49538428450656 0 0 0
1558 1 -1.2 22.870871362525534 8.592877142531577 0.5766506987792641 0 1 1
98 2 2.4 24.04959478687541 9.449840557992665 1.3604058596830353 0 0 0
120 1 -1.2 25.443679506754513 9.886306150597239 0.42751703896449467 0 -1 0
1660 2 2.4 26.85117290961274 10.236138798777517 0.35596401915484716 -1 0 1
516 1 -1.2 28.169332291491695 9.998547645650227 1.642058245130226 -1 0 0
879 2 2.4 1.6853615899617114 12.370285864918063 2.388773207080717 0 0 0
1015 1 -1.2 2.004621601633765 12.520096305403731 0.7483584544240214 -1 1 1
1752 1 -1.2 30.217969998985307 12.544244847334449 2.330564228741561 0 0 1
991 1 -1.2 5.065847877434455 13.190101228040087 2.2849643753923243 1 0 0
284 1 -1.2 7.233728223615596 11.47486774956139 2.0981498710245274 1 0 0
1010 2 2.4 6.5373473905882795 12.935613433247708 1.498115393262008 -1 0 1
839 1 -1.2 6.464478076660905 12.797068016526739 -0.046261956183183156 0 1 1
1129 2 2.4 12.786529802427152 11.612211552263387 0.941636522884806 0 0 1
1577 1 -1.2 12.998281040128635 13.033694200553189 0.16518559249915143 0 0 1
1220 1 -1.2 12.332185420312308 12.024961253789252 2.473667105607005 1 0 0
1456 2 2.4 15.466335965231774 10.826767371288485 -0.07077476281852085 0 0 1
598 1 -1.2 14.512602288421846 11.145151988632065 1.2747379235403786 0 0 1
286 1 -1.2 16.391481563187654 12.346847212208585 0.06999961415018364 0 0 0
243 2 2.4 17.927464703188132 12.682489790805759 0.6176495211659634 0 0 0
1234 1 -1.2 18.8954255064334 11.470401179454743 0.7745945618507771 0 0 0
1169 1 -1.2 18.03775199562018 13.421482488655013 2.2192362715690255 0 0 1
618 1 -1.2 20.97636280433233 11.431987735151134 2.3061199990279415 1 0 0
2101 2 2.4 20.53973302153015 12.08523021075307 0.6001571696439759 -1 0 1
1928 1 -1.2 21.41757179595216 13.449407477089737 0.34399767740793824 0 0 1
1896 1 -1.2 23.545643799655828 10.863790189605561 2.0203783790382395 -1 0 1
302 2 2.4 24.216545177929785 12.264856205988732 2.4907057473186507 -1 0 0
1405 2 2.4 26.11576860907905 13.371686110142873 0.3721797067135241 -1 0 1
1702 1 -1.2 26.802928583929386 11.81416986656272 0.420483409695418 -1 1 1
701 1 -1.2 2.309898802501515 15.872230418598402 0.5280798346665326 0 0 0
1484 1 -1.2 30.104554918685498 15.092001275056461 0.17424103219109477 0 0 1
1186 1 -1.2 4.030054137375669 15.764073499765347 2.573733639601303 1 1 0
152 1 -1.2 7.164907601623302 14.513494842083917 1.643592585678114 0 0 0
877 2 2.4 8.661842700375336 14.737953451354453 2.271518644994456 0 -1 0
1055 1 -1.2 9.66196041335689 14.840954664333388 0.9695167028849205 0 0 0
2038 1 -1.2 13.83791438600653 15.689959881943697 0.6420303354703264 0 0 1
1696 2 2.4 21.222849010747645 15.145181860055269 0.6223186100780933 0 1 1
1760 1 -1.2 21.342552917016185 15.190166248231847 2.2783560527895133 0 0 1
1590 1 -1.2 20.076259695302333 16.00976216620537 0.15801610364475518 0 0 0
223 1 -1.2 24.17928395268594 15.680788087003817 2.405768679939048 -1 0 0
574 1 -1.2 24.716072198170217 13.338177052135274 1.2486203044608561 1 0 1
587 1 -1.2 26.70934261778242 16.38848353748495 2.31299489241182 -1 0 0
1457 1 -1.2 27.513629796054385 13.98551071660261 1.2234867755709957 -1 1 1
542 2 2.4 27.366598336310563 14.815814913169895 2.5635139888226828 0 0 0
982 1 -1.2 29.06252012951833 14.759067975698393 3.030265767348308 0 0 1
1094 2 2.4 3.2563233446534956 16.74612118911206 1.396737455582868 -1 0 0
1219 1 -1.2 2.3990584229064424 18.076494004601162 2.1385968919215137 1 0 1
1295 1 -1.2 4.342249780195266 17.137960255998117 0.12901656904161807 0 1 0
1006 1 -1.2 6.33233173197861 17.312309115370148 1.688867057316656 0 0 1
1118 2 2.4 7.634344530486963 17.501645853646316 2.689524876006031 1 0 0
2100 1 -1.2 8.675473830526776 16.258648504323876 2.812841247888735 0 0 1
396 1 -1.2 12.716038000807245 17.886804901684325 0.509256573895539 0 0 0
530 2 2.4 14.365250596974294 17.181792488018438 0.4476251679984609 0 0 0
874 1 -1.2 15.286864051183498 17.924097064331125 1.5285614672553143 0 -1 1
673 2 2.4 16.019785451949545 19.369321015189 2.116848601638804 0 0 0
779 1 -1.2 22.997796111510542 18.14338442601412 34.393353392880194 0 0 -1
1683 2 2.4 25.133303656648113 16.908956585534312 1.7686736239943284 -1 0 1
200 1 -1.2 24.881378329976506 18.4507105271537 1.6896991887874562 0 0 0
1024 2 2.4 2.0202614428996326 21.05033871199686 0.29175497015277124 0 0 1
1449 1 -1.2 0.5866041962804962 20.20963357595096 0.28193406005244837 0 0 1
106 1 -1.2 2.9671438196181974 20.712879130908462 1.4280774151813482 1 0 0
1885 2 2.4 6.323693382822163 20.986912239170397 0.19726367250959037 0 0 1
353 1 -1.2 6.105813537031722 21.671972505628563 1.8100534158067836 0 0 0
453 1 -1.2 8.658323862192175 18.83299615702831 2.5602417358628995 0 -1 0
2104 2 2.4 9.802393780350343 19.951421984945554 2.2741350790061903 0 0 1
1391 1 -1.2 10.28552229556604 19.443884273975048 0.7006718616314611 0 0 1
1070 2 2.4 12.036381690302568 19.349317041571393 0.3786735951348036 1 0 0
703 1 -1.2 12.870014912540745 20.57490447301096 0.7916317779644096 1 0 0
1698 1 -1.2 14.83503967026407 20.47437455536244 2.1181431288349972 0 0 0
2090 2 2.4 13.471390281252683 21.369945423170925 2.1032088347784472 0 0 1
1607 1 -1.2 17.47901601556743 19.65814125625804 1.3663240662201424 0 0 1
1274 2 2.4 18.070951094562293 21.22627219189755 1.277029801912203 1 1 0
372 1 -1.2 16.96001160019667 22.483989361491147 0.9458066576587312 -1 0 0
1846 1 -1.2 19.794628394033754 20.98009537393922 0.9084897108265344 0 -1 1
1394 2 2.4 20.95921529259768 21.82629602514613 0.15472976887544 0 0 1
1560 1 -1.2 24.447789136264536 20.433662767954765 -0.027988489478224184 0 0 1
2001 1 -1.2 24.99602594734406 20.74039156966179 2.2709799315206713 0 0 1
1189 2 2.4 25.615074204914784 19.804404077010695 1.055803026148155 0 -1 0
1583 1 -1.2 27.226691813385543 19.68445596522994 0.5161404262362139 0 0 1
338 2 2.4 2.0276912495380763 24.32973712390482 0.13987595649951545 1 0 0
245 1 -1.2 1.9150469454207792 25.06110786002785 1.6050108416177307 1 0 -1
1892 1 -1.2 1.7894076568156698 22.675475224540524 0.4328507365290395 0 -1 1
2136 1 -1.2 3.5594141838683226 24.939933452371243 -0.14127319877347588 0 1 0
1250 2 2.4 6.575156388124509 23.28484838855932 2.0101865617687866 0 0 0
2112 1 -1.2 7.069024711962544 23.802956488817436 0.6145309630470198 -1 0 1
1111 1 -1.2 5.326863005813524 24.045314462830774 2.8168581064287928 0 0 0
2030 2 2.4 10.596473412602373 24.136171043024063 0.1979304054858587 0 0 0
682 1 -1.2 10.40654083324472 23.45239082300058 1.727749162055047 0 0 1
1860 1 -1.2 7.961884164731899 23.62004127199727 2.6647052931227946 1 0 1
1151 1 -1.2 13.857031842332981 22.882585609398415 1.6414277769049617 0 0 0
1653 1 -1.2 16.58446520300494 24.287106692554488 2.4505196962029214 1 0 1
745 2 2.4 17.740562587545437 23.86426466768713 1.2338392159503282 0 0 0
1883 1 -1.2 18.972348331478006 24.520802157098153 1.953924264195695 -1 0 1
1482 1 -1.2 21.767281784252383 23.062446328236273 0.8098053743525023 0 0 1
83 1 -1.2 24.54879126357531 23.36111556333701 1.108624304413607 -1 -1 0
1228 2 2.4 24.52756835891982 22.3709112883204 2.2267538137470733 -1 1 1
38 2 2.4 23.140079784618845 23.7282103951817 0.23474494962556328 0 -1 0
43 1 -1.2 27.790807374706954 24.58889159754255 34.91957251296862 0 0 -1
16 2 2.4 0.3565635806920995 25.177307802389436 2.197109680028448 1 -1 0
746 2 2.4 1.3337160397760606 27.679046958710053 2.658279428252635 1 0 0
1710 1 -1.2 5.21176141911335 26.998025796142404 0.797543406183872 1 1 1
1361 1 -1.2 7.271452716505586 27.603054797611513 2.168013341237046 1 -1 1
1048 2 2.4 6.334207421380044 28.082125249422123 1.0650643322865931 0 -1 1
1592 1 -1.2 12.317118543531837 27.334913002134197 0.6614621233009023 0 0 1
1851 2 2.4 13.799908975471261 26.705161196825152 1.1814831941333654 0 -1 1
708 1 -1.2 14.05291387272801 25.331029001566012 2.1548205471470716 0 0 0
198 1 -1.2 14.66229752273713 26.722140287835135 35.05368953183641 0 0 -1
2014 1 -1.2 17.827287663904045 24.723310527858533 -0.1220700069677782 0 0 1
63 2 2.4 21.442715226800548 26.04664282933666 0.6585468209275572 0 -1 0
2142 1 -1.2 21.589302968172063 27.60771884618498 0.16486359309332224 0 0 1
1703 1 -1.2 20.45385612168712 25.14937396466422 34.844805784361654 0 0 -1
1145 1 -1.2 22.733326230471796 25.28963955219579 0.5154789981551682 1 0 0
365 1 -1.2 27.92225294726161 25.680132399936397 1.9425940955557883 -1 0 0
295 1 -1.2 30.139877681567977 25.05377263576089 0.6652584166280482 -1 -1 0
652 2 2.4 28.63754570997744 25.857734267322655 0.44906921810078293 0 -1 0
1884 1 -1.2 2.0868756600626406 27.419789369294726 1.0734697287624946 0 -1 0
2018 2 2.4 4.741022123832171 -0.020573501486952132 0.4217020438518585 0 0 1
633 1 -1.2 5.782571517625922 29.603493058843238 1.3054903324638396 1 -1 0
104 1 -1.2 9.559550484754444 28.21263206456593 35.01780172936076 1 -1 -1
262 1 -1.2 12.84244046805629 -0.1190769378047456 2.129831944480083 0 0 1
8 1 -1.2 13.778491736071535 27.94921308927913 2.2123057890397617 0 -1 0
1354 1 -1.2 17.8213803099215 28.765950097290894 1.385693787134854 0 -1 0
1803 2 2.4 17.656755656238385 29.058684194206098 3.0257714811197016 0 -1 1
50 2 2.4 21.479299309246944 28.99400267997891 34.54024598890352 0 -1 -1
1187 1 -1.2 19.87643590116767 29.234188520125873 34.357823990182084 0 0 -1
275 1 -1.2 22.420358133792263 29.92145431127285 0.19792691760717362 0 -1 0
2125 2 2.4 24.084760894246983 30.029829743948362 0.665554210586459 0 0 1
956 1 -1.2 24.129041183645032 29.222592295862295 2.008490242986031 0 -1 0
722 2 2.4 27.650469453652224 27.29951967163513 2.4528185086088334 -1 -1 0
741 1 -1.2 26.589324736571736 28.46979903500913 1.945993325683037 -2 -1 0
410 2 2.4 27.780244159010927 29.423275621079863 1.3462624127215337 0 0 0
1668 1 -1.2 28.606124831668016 27.961528348224576 1.3260905099276876 0 0 0
1782 1 -1.2 0.20372442109095606 1.4147242153804944 2.70356891632034 1 1 1
2092 2 2.4 0.7146704040319646 0.030080722166274415 3.6585922079218065 0 1 1
1912 2 2.4 3.568526160937951 1.2081955059655307 4.648189955599079 1 0 1
41 1 -1.2 4.960841858458938 0.38856770713530314 4.608046067627118 1 0 0
898 1 -1.2 3.870599236209413 2.2763417237985397 3.4305234076922684 0 1 1
1940 1 -1.2 15.680737415112493 1.0741922231012075 5.323316611950422 0 1 1
1002 1 -1.2 19.32283475540663 1.8366993242778626 3.1227841135344914 1 1 1
229 2 2.4 20.15799466808897 1.4507344042125307 4.512501691352634 0 1 0
972 1 -1.2 20.581909014656926 0.13154309533296912 5.332551167384789 0 0 0
2012 1 -1.2 21.688692391027324 2.3134169599395342 4.7736537310053935 1 0 1
2075 1 -1.2 24.598392563601127 2.9466285063901867 4.633329650142476 0 0 0
1262 2 2.4 24.237471667753823 1.4170109755116966 5.3356773613233965 -1 1 0
1065 1 -1.2 23.6575816354237 0.4037325351445697 4.311225464161178 0 0 0
528 1 -1.2 28.321351485446797 -0.07465549036477853 2.4960570828436643 -1 0 0
471 2 2.4 28.800041649587953 1.5537548418266538 2.890217424802738 -1 0 1
1043 1 -1.2 28.463777098169 2.585385866868367 4.322960525796236 -1 0 1
1464 1 -1.2 7.174254399518717 3.0544044545559568 5.064658994277679 0 0 1
1647 2 2.4 7.5112708053749015 3.3187429339885544 3.570144716854346 1 0 1
803 1 -1.2 7.112904292974122 4.807816222060089 3.207932573935133 -1 1 0
1453 2 2.4 10.350101427264324 3.0889964323231642 3.3210084604059698 0 0 0
60 1 -1.2 10.530460802100256 3.9068159397636495 4.917516694946403 0 0 0
768 1 -1.2 14.826138310971306 4.110553429605735 3.09466591143682 0 1 0
1537 2 2.4 16.245450920596674 4.2234797460180316 3.9367997234396017 0 0 0
1534 1 -1.2 16.0231564427088 3.6481709117220458 5.4183341829925915 0 0 1
549 1 -1.2 17.313868839567228 3.319743057013486 3.2339171461705467 0 1 0
2109 1 -1.2 19.685453164589344 4.531202379772444 3.5346143294125114 0 1 1
795 2 2.4 21.19768805213014 3.936882697783876 4.2610161688622465 -1 1 0
2063 1 -1.2 21.30149957913777 5.022534816857134 5.314972199128323 0 0 0
34 1 -1.2 24.938075845022784 5.0071509477698815 2.603496080202448 0 0 0
642 1 -1.2 24.318869750535523 5.416813913487323 5.202818548158041 -1 1 0
364 2 2.4 25.25332737116895 4.397816950248935 4.190463232956431 -1 1 0
869 1 -1.2 26.770507095800387 4.469590766684614 4.70541708908201 -1 0 0
1837 2 2.4 27.91785742702358 3.8122449279182784 5.4631368838525445 0 0 1
89 1 -1.2 28.958987947332542 4.942464228871413 5.774282137818725 0 0 0
155 1 -1.2 1.38679901375187 8.469115903423019 3.7304987994339536 0 0 0
1711 1 -1.2 8.012884590631549 7.096333585837174 3.3042764595887517 0 1 0
1900 2 2.4 6.697074651354356 6.26566487531327 3.524559765329378 0 0 1
948 1 -1.2 6.336973804324324 6.3692588308673965 5.155954456117807 0 0 0
255 2 2.4 10.642597800085568 7.261625903794322 5.79821646876327 0 1 0
1506 1 -1.2 10.61225664518856 7.369975736293872 4.001549217972685 0 0 1
630 1 -1.2 10.870895648405412 5.813354783946707 6.375028512032809 1 0 0
1056 1 -1.2 16.82931355204584 5.584215028019525 4.288304714659515 0 0 0
1636 2 2.4 16.991058849319163 6.996640066096232 5.2635288538613745 1 1 0
989 1 -1.2 18.537304532385054 7.492151941341183 4.8036705124108705 0 0 0
706 1 -1.2 21.137565513466495 7.279410644319082 4.1148059231936 0 0 0
1948 2 2.4 19.752272241618055 8.019852312323671 3.8742020477491876 0 1 1
1475 1 -1.2 26.891286898574933 6.974930283974542 3.059022329446703 -1 0 1
931 1 -1.2 29.630494553042247 7.130639316830377 2.819393533896363 0 0 1
867 2 2.4 30.206940606455507 8.085101167916893 4.069864745845008 -1 -1 0
981 1 -1.2 29.937653194458225 7.455768246323438 5.570882062324853 -1 0 0
163 1 -1.2 2.185797620814593 10.89199104617394 2.5979404681558123 1 1 0
292 2 2.4 2.282696995465312 9.244986488513325 2.6318223049849037 0 1 0
1990 1 -1.2 3.7571887392971703 9.073891056132782 3.2079944357005763 0 0 1
27 2 2.4 4.702733222573622 9.562005711012189 4.4746589996378745 0 0 0
1104 1 -1.2 3.990765143319993 10.64346281606982 5.392781160166787 0 0 0
297 1 -1.2 6.031716235482002 9.90708755588305 3.655413227977779 0 0 0
1620 1 -1.2 8.827721874082677 9.71834468668768 3.5735072753220205 -1 0 1
1120 2 2.4 9.424570914137712 8.242173056294785 3.2550242701820875 0 1 1
750 1 -1.2 11.87970799011393 10.983408042860525 5.2041113425262 0 1 0
596 1 -1.2 15.972002927449294 8.16783540659662 4.606353434808 0 0 0
522 1 -1.2 15.96997916849908 10.97058872150362 6.163756679264443 1 1 0
112 2 2.4 15.493880024233473 9.055520997723455 5.877650188572279 1 0 0
2111 1 -1.2 20.154869247827286 9.631364703283998 4.110164566861879 -1 1 1
1516 2 2.4 20.403425150157982 11.048206664433968 3.743086213200905 0 0 0
384 1 -1.2 24.782297895768554 8.62221459256015 2.5637876440281384 0 1 0
493 2 2.4 26.09146700605681 8.230351679161787 3.6518884537775125 0 0 1
1040 1 -1.2 25.58613006232149 8.040022479906073 5.302452656849174 -1 0 1
228 1 -1.2 26.947535276463572 9.610229381679574 3.842318797391727 -1 0 0
1165 2 2.4 28.382503465369005 10.409454527362218 3.0029337168667998 -1 0 0
1218 1 -1.2 29.63200210559922 9.594924215548184 3.932953599123944 0 0 0
1944 1 -1.2 2.4691739503794716 13.674824234262593 3.026492539341605 1 0 1
891 2 2.4 7.419212625925282 10.645422014918445 3.510164916899204 0 0 0
1182 1 -1.2 7.564721565409817 11.590075934911171 4.819487041193 0 0 0
315 2 2.4 8.30539940187388 12.985551131701698 4.754049558927531 0 0 0
1826 2 2.4 12.422943009138166 12.194603328871757 3.9938387414713112 0 0 1
789 1 -1.2 12.124890560758464 13.837424765662528 4.321001691328413 0 1 1
1497 1 -1.2 13.95763724170266 12.130381863479228 4.477919494012437 1 0 1
73 2 2.4 15.269521102960022 12.321377385271823 5.314443413439676 0 0 0
1415 1 -1.2 16.606613778483517 12.832630251047442 4.5847952816362145 0 0 0
2055 2 2.4 18.118937946394237 13.043487987241676 3.915381397141128 0 0 1
1799 1 -1.2 18.9571038525072 11.658501225168683 4.344006429792734 0 0 0
1728 1 -1.2 21.567147363960583 11.500930612695871 4.90904890868247 0 1 1
197 1 -1.2 23.095640991095678 13.275168479524522 3.2477317498857237 0 -1 0
21 1 -1.2 25.344124626228485 12.331216206017688 3.4883955986774833 -1 0 1
1924 2 2.4 26.771565740594465 12.446620489084378 4.346426263783097 0 0 0
731 1 -1.2 28.09776529043976 12.098394779216958 3.2969159604063134 -1 0 0
1967 1 -1.2 27.34590516861909 12.026585719920382 5.756388567394907 -1 0 1
421 2 2.4 29.43774309148925 13.233789771066304 3.583213747500535 0 0 0
254 2 2.4 4.115995144548478 14.131300968940254 3.241600728787979 1 0 0
1446 1 -1.2 4.458935192537323 13.92091123194553 4.794411823577923 0 -1 1
1201 2 2.4 5.594617284515187 14.724198254020024 5.632083960275241 1 0 1
1726 1 -1.2 7.205955407061635 14.25333152648285 5.282237609890874 1 1 1
800 1 -1.2 9.154370591075445 13.416629373769256 3.216155923569213 0 1 0
1388 1 -1.2 10.212953998120602 15.392959749879715 5.171890650110864 0 0 0
794 2 2.4 18.2753413094187 15.61035627446702 5.556940224847237 -1 1 0
2105 1 -1.2 18.722189749718865 14.656389013003404 4.124486481485045 -1 1 0
600 1 -1.2 17.067992739186256 16.506352441873936 4.950902431839897 0 0 0
301 2 2.4 22.84731438829174 14.840647669870284 2.820747321216051 0 0 0
1518 1 -1.2 22.61590147361997 15.526324119437858 4.487533199342651 0 0 0
96 1 -1.2 29.79285608439341 13.193907309266526 5.076711533368269 -1 0 0
1700 1 -1.2 26.761523259450232 14.126718395791675 3.859335755460426 -1 0 1
248 1 -1.2 30.115172134969942 18.486336555260916 4.106287915752254 -1 0 0
1272 1 -1.2 4.376250028191649 18.846136785175606 3.6937253883247787 1 1 1
1329 1 -1.2 5.430722033718627 16.416062688371998 5.169005583797128 1 0 1
1429 2 2.4 5.353976488952001 18.02043951358026 4.776867960749834 1 0 0
1452 1 -1.2 7.019707857434831 18.006509427522143 4.064217601352454 0 -1 1
405 1 -1.2 5.06234167102809 18.561561823437476 6.252401951670329 1 0 0
257 1 -1.2 15.910705496222775 18.851650339548254 3.8647636664116933 0 1 0
1408 2 2.4 16.95387167308929 18.16130175643678 5.013099469207716 0 0 0
1740 1 -1.2 18.351698010626553 18.99785101622403 4.442877281499539 -1 0 1
917 1 -1.2 19.380103105783352 16.863024172256978 5.7770385257179155 0 -1 0
910 1 -1.2 27.30033484612534 18.799187828970503 4.029909297384324 -1 0 0
868 2 2.4 0.6986969980371378 19.868739370454627 4.604595499907475 0 0 1
392 1 -1.2 1.9458576221834352 19.762425758567044 3.700268401530012 0 1 0
1444 2 2.4 3.12492387408535 19.457033316794814 2.7099365704072507 1 0 1
1306 1 -1.2 9.10054811433877 21.387740736113308 3.2212534056626483 1 0 1
194 2 2.4 10.284843963066443 19.617520459007824 5.028197188202852 0 0 0
1427 1 -1.2 10.75838270635273 19.614144393211486 3.3913456041289445 0 0 0
309 1 -1.2 12.795530172766528 21.317238248535702 3.502599766759857 0 0 0
1878 1 -1.2 18.044502724891736 21.39752459721912 3.15116386368102 0 0 1
818 2 2.4 19.03723982364691 20.717560049229228 4.178612043300454 0 0 0
1685 1 -1.2 20.617258205724426 20.930128025861695 3.472748055137368 0 1 1
2140 2 2.4 21.714949164830518 22.04855837526974 3.9968086810348074 0 1 1
1569 1 -1.2 23.018167772922883 22.2976316213244 2.914506139392293 0 0 1
354 1 -1.2 26.689493803863623 21.470880727852588 5.39952271131692 0 0 0
299 1 -1.2 -0.028649110394237353 21.34432583119113 4.3784560305681115 0 -1 0
216 1 -1.2 6.3508386028316774 24.117816914542445 5.3873938987964705 0 0 0
567 2 2.4 5.827514245767897 25.01921921106016 4.253923986940673 1 0 0
1105 2 2.4 9.416716453509382 23.027428786789635 2.8775484146998895 0 0 1
1553 1 -1.2 9.654889914789328 23.448507246004088 4.427102411997325 0 0 1
1381 2 2.4 10.897251357056057 24.378765049673984 4.9317354175836865 1 -1 0
899 1 -1.2 12.297472347656461 23.831413919968426 4.396315733756347 0 -1 0
1420 2 2.4 13.387440501579851 22.649887102950302 4.629355560510658 0 0 1
939 2 2.4 14.908122623752911 23.95062929751648 2.4889594236030708 -1 0 0
559 1 -1.2 14.81148646489615 23.40866782541083 3.9830348213593156 0 -1 1
343 1 -1.2 20.841350659980254 23.535800760591577 3.562715511935637 0 -1 0
157 2 2.4 20.0714898197269 25.026629017955262 2.990108301765334 0 -1 0
812 1 -1.2 25.600624464418093 23.005738519729483 3.184567703065608 -1 -1 0
1166 2 2.4 26.61347363735986 22.7886021765011 4.28584745920974 -1 0 0
2094 1 -1.2 0.34543546069063114 23.729082042699478 3.0778455050095372 0 0 1
2151 2 2.4 29.672173580856917 22.91003607566563 4.01830073587531 0 1 1
342 1 -1.2 28.231419406083358 23.015376272715518 3.4909157902705057 1 0 0
1114 1 -1.2 0.10437970550821109 26.635323240140437 2.968124123988951 0 0 1
1758 1 -1.2 4.461081447333039 25.859358827258973 4.546124478402126 1 -1 1
1336 2 2.4 3.802986626242725 27.293445176838272 4.808460486409737 1 -1 1
2062 1 -1.2 6.740599657558959 26.414252151456157 4.138709147367177 0 0 1
1611 2 2.4 7.580572425134992 27.7608123767522 3.7501401081871224 0 0 0
1598 2 2.4 10.585550539256957 27.404045726495912 4.37210609988409 0 0 1
1920 1 -1.2 9.147149742149205 27.452978012189 3.7823324078359946 0 -1 1
1460 1 -1.2 10.996011653054268 25.939438350172836 4.391594001829107 0 0 1
1430 2 2.4 18.294931528466606 26.950075724750867 5.043130992144809 0 -1 0
594 1 -1.2 17.642460326065045 27.687526793809866 3.74034853064138 0 0 0
2131 1 -1.2 17.04245845457008 26.844441431199602 5.989360255314718 0 1 0
1422 1 -1.2 20.9958275763698 26.211235408555044 2.401220135167366 1 0 0
1626 1 -1.2 19.00341720849902 25.58072103424345 4.2778617582107055 0 0 0
1222 1 -1.2 27.55501955083313 26.74009624225112 4.066265278738884 1 -1 0
437 1 -1.2 2.0221683024854973 0.49964826783643557 4.311715452956883 0 0 0
141 1 -1.2 0.7610348337531079 29.12112243980016 2.714789103093269 1 0 0
1521 1 -1.2 30.188831927012735 30.142569690484052 5.051280481157712 -1 0 0
1806 1 -1.2 2.885372238891606 27.534865917689924 3.5231954799451617 0 0 1
449 1 -1.2 4.718621973869505 28.480300824136084 5.399889857959817 1 -1 0
1526 2 2.4 5.942258754035611 29.643742247353373 5.261644240390023 0 -1 1
1566 1 -1.2 7.188359232431359 29.327843176392612 4.371595651795585 1 0 1
417 1 -1.2 10.407946458772157 28.012195013917637 5.956436957432268 0 0 0
667 1 -1.2 11.749841071203022 28.19656012585037 3.715893416881365 0 0 0
1372 2 2.4 13.000342412141414 29.080641231145947 3.054069950515397 0 -1 1
2145 1 -1.2 13.895379187902481 29.80191319335365 4.270827353399096 0 0 1
985 2 2.4 15.441154252166172 30.012455310280266 4.795634284021559 1 -1 1
1115 1 -1.2 16.23212717045025 29.873072059237465 3.206548504545975 0 -1 1
414 1 -1.2 19.05437208965273 29.976828834919676 3.384408321958921 1 0 0
407 1 -1.2 19.608548198047668 27.992125274166156 4.926669280282334 0 0 0
1214 2 2.4 20.364602368824503 29.34913723343517 4.315896309543295 0 0 1
670 1 -1.2 21.823354444773578 28.90637131872231 3.4757901182212185 0 0 0
1374 1 -1.2 24.237808093803466 28.020964181242316 4.247193447816736 0 -1 0
866 2 2.4 23.55409795938721 29.33960209001681 3.5671414187123425 0 -1 0
663 2 2.4 27.31513864304507 27.394582471604714 5.619446298799537 0 -1 0
1089 1 -1.2 28.49598152619994 28.524037972662576 5.952396599841559 -1 -1 1
1524 1 -1.2 1.551670485551314 1.9879772493810852 8.074353239337446 0 0 1
1681 2 2.4 2.8781119016734893 2.656385384259501 7.5263378106264796 0 1 1
9 1 -1.2 3.3963786154587505 2.1639072364946155 6.068918481958982 0 0 0
644 1 -1.2 7.710623085904461 1.4404720292588367 6.886699925459634 1 0 0
399 2 2.4 8.65280206598465 0.8671435676900245 8.030627009902105 0 1 0
524 1 -1.2 10.060056698663566 1.694217064033977 8.15968954546407 0 0 0
290 2 2.4 16.05939225576304 2.257575148871236 6.281243534479017 0 1 0
1337 1 -1.2 14.937845649705714 2.6001500642684094 7.400338457711776 0 0 1
660 1 -1.2 17.183287786661804 1.577392098163388 7.251517327636673 -1 1 0
481 2 2.4 18.87955479699291 1.6712374122641147 7.228169584890213 0 0 0
144 1 -1.2 19.289605385737712 0.2045388968221988 7.873893618512259 0 0 0
77 1 -1.2 19.33447362567174 2.120818567633176 5.595433599919283 0 1 -1
503 1 -1.2 23.477894499561724 1.5421108432473907 7.012279853834763 0 0 0
834 1 -1.2 26.05126967018156 1.1992234612192783 5.700716376119031 0 1 0
184 2 2.4 26.51761146694722 1.8381403289186362 7.177119441899829 0 0 0
979 1 -1.2 25.518420041559366 2.7294180439366067 8.06004736049905 0 1 1
1097 1 -1.2 27.238547480860014 0.7005503748869382 8.169723393526409 -1 1 0
1133 1 -1.2 3.2652994141762517 4.313102684980637 7.53543922469395 1 1 0
1753 2 2.4 4.091282387355865 5.4764929417454615 8.446375657462244 0 0 1
52 2 2.4 7.4358271256098485 2.972898902189522 6.474237354414348 1 0 0
785 1 -1.2 6.179076145723739 3.541956970196333 7.170635970297893 1 0 0
1318 1 -1.2 8.83001075107401 3.880153613906446 6.77931620433665 0 0 0
195 2 2.4 10.471433395532497 4.1589297763167625 6.442566894531776 0 0 0
1383 2 2.4 11.412938905998145 2.8106267394071067 8.508729242311176 0 0 0
150 1 -1.2 11.924009301020911 3.5437393499445125 7.166672186662509 0 0 0
1952 1 -1.2 18.724681048505975 5.190294249882346 8.960139367606654 0 1 1
2116 2 2.4 23.915180246199437 3.0217656472570336 7.829062121957941 0 1 1
1243 1 -1.2 23.725887541194606 4.609762802165704 7.383110221163308 -1 1 0
2002 1 -1.2 27.548234445492113 3.2698472119654416 6.957602874181258 0 1 0
561 1 -1.2 4.723207601351647 8.423929257284197 5.586531596043446 1 0 0
2087 1 -1.2 4.475326090234428 6.359483263677815 7.10118171296686 1 0 0
147 2 2.4 5.589377861229753 7.237247237492898 6.256019460615491 0 1 0
912 1 -1.2 6.659706691924571 7.844721259346105 7.296523463081596 1 0 0
136 2 2.4 8.177463932818494 8.372871834617095 7.420174738918953 1 -1 -1
1061 1 -1.2 9.192165353891937 7.803571491175856 6.24771251905213 1 0 0
807 2 2.4 15.861847523216964 6.698050542138028 7.999081205820391 -1 1 0
1649 1 -1.2 14.287286444063326 6.54780522250283 8.173817962441829 0 1 0
1269 1 -1.2 16.679797589015283 6.985865245014917 9.391142622726637 0 1 0
1248 1 -1.2 16.858285960609535 6.569701821806995 6.65726937518258 0 0 0
409 2 2.4 21.235815830165407 6.676589348573043 5.657920996259072 0 1 0
945 1 -1.2 20.185838049701296 6.7384553760901795 6.877494881456102 -1 -1 0
1825 2 2.4 20.219004721018848 7.751952570859529 8.419740187938237 0 0 1
423 2 2.4 24.02875339551221 5.91801661660901 6.656662497860222 0 1 0
552 1 -1.2 22.644619845058344 6.895632885913407 6.616326964604794 0 0 0
1373 1 -1.2 25.093718880448588 6.816003794849079 7.586444852444445 -1 0 1
1981 2 2.4 26.1747213451631 7.921239720517241 6.729760948718526 0 0 1
2123 1 -1.2 27.4167997896873 6.972377683243587 6.457828727994939 -1 0 1
806 2 2.4 28.928717124217403 6.448241883494849 6.503266602219807 -1 0 0
1757 1 -1.2 29.32412864284224 5.8182979735995755 8.109231256893608 -1 0 0
1730 2 2.4 3.9080235439162783 10.851726573976789 6.989571470547565 0 0 1
1545 1 -1.2 2.790371810066516 10.609593034187755 8.283949253258287 1 1 0
1362 1 -1.2 8.165630518068111 10.0127908427931 7.571548938107896 1 0 1
56 1 -1.2 5.419931787004475 10.200901625217641 7.680605838873238 0 0 0
1432 2 2.4 6.92860770699398 10.936916867516047 8.287641403367623 1 0 1
1229 1 -1.2 11.61605770937073 8.552686113977686 6.191483158283502 0 0 0
950 2 2.4 12.540476018183488 9.944615258120844 6.243018125664567 0 0 0
751 1 -1.2 12.66854173128238 10.553950846854436 7.798501023804463 0 0 0
341 1 -1.2 13.879637321551442 9.24557924177216 5.464606329890364 0 1 0
954 1 -1.2 15.736187511409437 8.43207131283824 7.537769316779626 0 0 0
1555 1 -1.2 20.570654746062715 9.225646332632685 7.764727641916257 0 0 0
1861 2 2.4 21.77482358041595 10.1216292893227 8.365993876704893 0 0 0
210 1 -1.2 22.370742883058753 10.534260013958416 6.896150571779316 0 0 0
791 1 -1.2 26.719818500585696 9.230845868859006 7.466323455440618 0 1 0
849 1 -1.2 26.060643359577632 11.20111783863484 9.34018153838156 0 1 0
1343 1 -1.2 1.2383632779347125 12.801981571804891 8.609347461730954 0 0 1
1009 2 2.4 30.081860659365613 12.847767772182948 8.957683463190996 -1 0 0
908 1 -1.2 3.8521490447538445 12.445260447787922 7.4199291409144585 1 0 1
308 1 -1.2 7.437170105568039 12.521908220830191 7.93772657637275 -1 0 0
1171 1 -1.2 9.732323203583718 13.013911960008844 5.769898604382939 0 1 0
466 1 -1.2 17.10637144448817 13.158886567586041 8.222988423226859 0 0 0
2046 1 -1.2 15.13576919036085 13.228393495640727 6.729043329826661 0 0 1
1254 1 -1.2 20.179263666298414 12.208608113118936 7.500798979284036 -1 0 0
2005 2 2.4 21.553351306795292 11.810481735845123 6.542111458598047 1 0 1
1244 1 -1.2 22.708122224416698 13.204781756089254 6.328161871923487 -1 1 0
588 1 -1.2 24.762839028701876 13.187258984963218 8.31833423644823 0 0 0
752 1 -1.2 29.25331669036757 12.533903269784103 7.423159637178758 -1 1 1
1762 1 -1.2 5.574739029737785 14.573286311190959 7.303783023495566 0 0 1
759 2 2.4 6.599565336476433 13.974523320409347 8.518529619982953 1 1 0
1608 1 -1.2 7.866734490555599 14.907938182260986 8.635262796786721 0 0 0
876 1 -1.2 10.978029082177276 16.56437800790945 7.411735546826776 0 -1 0
1333 2 2.4 10.987810496090617 13.882756997907359 5.471721601557623 0 0 1
1715 1 -1.2 11.625172542697516 13.746167460829067 7.106615799907224 0 1 0
1877 1 -1.2 15.678299945064678 15.858989472387087 7.810928279144001 -1 0 1
231 2 2.4 16.32803577810426 14.249172241036158 7.376244124804981 0 0 -1
907 1 -1.2 17.650959827361476 14.738329836487607 6.680025264426362 0 0 0
693 1 -1.2 18.714697971434642 17.48340410092931 8.440391446227821 0 0 0
1853 1 -1.2 21.727330125497343 16.699699048116436 6.850611652531327 0 -1 1
1502 2 2.4 23.500626399105933 13.8861076929829 7.48077204627083 0 0 1
238 1 -1.2 23.935510633357243 15.198464558851493 6.717739682128045 -1 0 0
76 2 2.4 23.03618770504615 16.17811770649433 5.861192164910926 -1 -1 -1
1755 2 2.4 28.537820569809583 13.102296010434737 6.188983803471084 -1 0 1
2147 1 -1.2 28.255626100217064 14.672035450645783 6.065896559956476 0 0 1
1326 1 -1.2 28.045588398287258 16.23050628370179 8.350819253588988 -1 0 1
1033 2 2.4 27.685955631898285 16.02597642842595 6.747053511229016 -1 0 0
852 1 -1.2 6.520165904383723 17.516411917856637 8.509885510208907 1 0 0
123 2 2.4 7.881470400062949 16.61483033148365 8.397284074706493 0 0 0
927 2 2.4 5.969169950875227 18.805688438808417 7.578292747188582 1 0 0
1339 1 -1.2 8.387760326458695 16.405924071985535 6.777195202440735 0 0 0
952 2 2.4 9.994025890991194 16.631315546995552 6.062874581057648 0 0 0
2155 1 -1.2 9.895345707499727 18.106621382003038 5.567312700577714 1 1 0
20 1 -1.2 14.242857041452636 19.6657308372384 6.475998675877077 -1 0 0
734 2 2.4 15.757033017474045 19.98358199289019 6.737288974765946 0 0 0
512 1 -1.2 16.756440293538066 18.60858468743979 6.54197806573984 0 0 0
208 2 2.4 20.128207941624687 17.52336330945314 7.279404006393613 0 0 0
539 1 -1.2 20.337320557238044 19.102745500818067 7.18072445850255 0 0 0
187 1 -1.2 24.131619711381248 17.54186767970429 5.659441654247116 0 0 0
1092 1 -1.2 25.054886393930534 17.544983957847574 8.320154585394091 -1 0 0
122 2 2.4 25.26117050777773 17.71754255126413 6.776648500577788 0 0 0
174 1 -1.2 26.195179860454868 16.428881169767266 6.256094686844225 0 0 0
1897 2 2.4 28.780833986345424 18.450915279571234 4.980362551900818 0 0 0
1894 1 -1.2 28.669622825028032 17.17281834862323 6.0288793810796495 0 0 1
1257 1 -1.2 0.7049329179314873 20.091072541744115 6.236786251694129 0 0 0
1360 2 2.4 1.1481035225818192 21.058101034624276 7.487902008908713 1 -1 1
1461 1 -1.2 2.609636627704196 20.84695159940339 7.9206254427876726 0 0 0
1658 2 2.4 4.2044095713313965 21.357039590686338 7.932058551167195 0 0 1
737 1 -1.2 4.7228179826773555 21.833857851453203 6.252826024258906 0 0 0
2070 1 -1.2 4.850254697135328 19.89929390913622 8.32173737715406 1 0 1
1289 1 -1.2 7.412839778677109 19.692964653577476 7.565932617189906 1 0 0
72 1 -1.2 8.971721942422915 20.55226522687214 5.62212909262534 1 0 0
724 2 2.4 8.1947594468022 21.060417239092764 6.730690149346451 0 0 1
859 1 -1.2 8.777491469291617 22.129545866944706 7.851555875659903 0 0 0
2076 1 -1.2 11.95177530059319 19.708191964619143 5.504590090362803 0 0 0
316 2 2.4 12.867643357021016 20.554128419682325 6.58859864985771 0 0 0
1724 1 -1.2 12.044955531699827 20.565882314220428 8.00011526504511 1 0 1
226 1 -1.2 16.445717097193405 21.210967592016033 5.886833832603837 0 0 0
138 1 -1.2 15.834828640978648 21.005822345276048 8.21755444667914 0 0 0
1471 1 -1.2 13.451811723759892 22.02617958076027 6.2269282217546005 0 0 1
2102 2 2.4 17.05969311580657 21.757480466608268 7.4027849753507935 0 0 1
725 1 -1.2 18.275817741138596 20.69334261592947 7.821898370004642 0 0 0
886 1 -1.2 19.451167507816077 21.15191859570105 5.584173822337242 0 -1 1
267 2 2.4 19.675735898705952 20.540803221577477 7.1163734499864555 0 0 0
838 1 -1.2 20.73351018834962 21.465887015010008 7.860920947344111 0 0 1
651 2 2.4 22.05205055244311 21.86901594690708 7.386978103090251 -1 0 0
586 1 -1.2 22.196278541341254 21.49882165180469 5.521159808796938 -1 0 0
903 2 2.4 26.958641595269757 19.933892807259138 5.4534447830849055 0 -1 0
413 1 -1.2 25.99430652484201 19.21553336072072 6.6519334923277125 0 1 0
439 1 -1.2 0.17649275500773723 20.363317654357388 8.576633004977989 0 -1 0
1158 1 -1.2 28.457900809112427 19.751260981217964 5.963591780305128 -1 0 0
1233 1 -1.2 1.074591532933246 22.646642286340793 6.729342684664426 0 0 0
967 1 -1.2 6.2896336242372195 23.18703950332693 7.994333625451492 0 -1 0
1957 2 2.4 6.140560092677185 22.86765357494362 6.34622639662616 0 0 1
677 1 -1.2 7.120325092890139 21.851696137308583 5.788497968490273 0 0 0
1625 1 -1.2 11.012634932531846 24.395291004403457 6.462627322571106 0 0 1
638 2 2.4 11.191118826897208 24.561098547356558 8.176263033154049 1 -1 0
502 1 -1.2 12.410173427191339 23.39623666177782 8.37497941304547 0 -1 0
1919 1 -1.2 17.14132983499747 23.250721397285393 7.551198584585319 0 -1 1
1407 2 2.4 18.021279507141703 24.45571746200428 8.52791859019431 0 0 1
320 1 -1.2 19.567585452057134 24.569451879363708 8.111048780251048 0 0 0
1445 1 -1.2 22.141932306670505 23.400996050570203 7.410264539696196 -1 0 1
219 2 2.4 21.28447581260104 24.453914781047807 8.426469549168504 -1 0 0
1787 1 -1.2 26.293462546223505 23.944914334288327 5.412512512353983 -1 -1 1
2160 1 -1.2 26.272784861851743 24.06301777103305 7.7982501793470025 1 0 1
1646 2 2.4 0.059658888552439865 23.981403151164656 6.782743418567367 1 -1 1
1256 1 -1.2 29.367558822252086 23.8290974826303 5.386847660800284 0 0 0
2086 1 -1.2 29.83354146710534 24.433278417410605 8.34919846124114 0 0 0
1224 1 -1.2 0.6510480392842716 25.295879435230496 6.122317377855434 1 0 0
1084 2 2.4 1.3257355728868834 26.726436665067435 6.845542129580184 0 -1 1
1305 1 -1.2 2.992937422970616 27.066187005177518 6.311148039122723 -1 -1 0
233 1 -1.2 5.467981374026702 27.44211920469742 7.975993759322625 0 0 0
1774 1 -1.2 12.032618936153161 25.819065699312823 8.540731714440774 1 -2 1
1455 2 2.4 11.983557130733836 27.511882313879315 8.721875075973466 0 0 1
2061 1 -1.2 15.868975126437512 27.972542438936838 8.35467848391061 0 -1 0
1563 2 2.4 17.056206676854412 27.161893978764773 7.578779875003777 0 0 1
91 1 -1.2 17.202066049126152 25.916047976458692 8.556261421168061 0 -1 0
1193 1 -1.2 21.641880410914638 25.880422052405272 7.2886699928604575 0 0 0
1705 2 2.4 21.97650662808351 27.395539360754373 7.722095320667656 0 0 0
2113 2 2.4 24.654228701026586 27.711338212638935 5.996880871743727 -1 0 1
382 1 -1.2 23.404066014238083 28.241193379370248 7.030569424786386 -1 0 0
153 1 -1.2 24.748407227833344 26.047285550119415 6.329454674243481 -1 0 0
1490 2 2.4 26.011097592909177 25.043353443700784 6.511576015101586 0 0 0
720 1 -1.2 27.520647858958807 26.00699350760304 6.445411038014117 1 0 0
2047 1 -1.2 0.7270657537331034 28.17273664255081 6.170624164633305 1 0 1
1162 1 -1.2 7.946644534602804 27.49588371104771 7.378263519064795 1 0 0
188 1 -1.2 6.333572247376627 29.697818962612658 6.902877350184077 1 -1 0
507 2 2.4 6.7536599694923565 28.47323392751876 7.690692680948502 0 0 0
635 1 -1.2 10.438132198995033 27.868926371732886 8.45174659221035 0 0 0
1690 1 -1.2 9.01251343374008 29.844369056227166 7.276357686033765 1 0 0
1899 2 2.4 9.381347921616806 28.378418037238024 7.220015026421936 1 -1 1
1567 1 -1.2 13.327859280009392 28.24013725316882 7.549864107227305 0 0 1
271 1 -1.2 15.580172962554366 29.03880719736527 5.968111297371419 1 0 0
139 1 -1.2 14.58807211107981 -0.020319773318318194 8.083302010465154 1 -1 0
4 2 2.4 14.629192038197942 28.961565441223026 7.586507792688945 0 -1 0
1292 1 -1.2 18.36839402566184 28.324576110294842 7.066239810523627 0 0 0
1863 2 2.4 19.502365414279733 29.044202299511408 8.043972596006041 0 -1 1
599 1 -1.2 20.984312360326676 28.639871973740206 7.339412524676847 0 -1 0
190 1 -1.2 26.044272325422575 28.470805342408635 6.112681595888488 0 0 0
1 2 2.4 29.950169118326404 29.161138755842966 6.442602272412702 0 -1 0
767 1 -1.2 29.66865163945353 29.866561140788654 7.941550993900626 -1 1 0
1263 2 2.4 0.8821507732217556 1.7721007026779632 9.642674898203307 1 0 0
533 1 -1.2 1.968711775146465 1.0902290358575442 10.666798433286463 1 0 0
1963 1 -1.2 4.299169602259901 2.454808511059893 8.561516130815335 0 1 1
327 2 2.4 5.6139717537606675 3.4060898209579955 8.707204050451022 1 1 0
1352 1 -1.2 4.1835058460351595 0.36904581782176377 11.547617358625548 0 0 0
121 2 2.4 7.637386551483258 2.0711272256474373 10.691876898246772 1 0 0
1236 1 -1.2 6.254866361838274 1.3963669462564707 11.426566128638651 0 1 0
691 1 -1.2 7.126398518076771 3.4341829654895863 9.748303577868096 0 0 0
30 1 -1.2 8.413925829384405 1.0260813535643625 9.685405679886923 1 -1 0
2033 1 -1.2 12.677520695097545 1.7468978770687478 8.839346552987095 0 1 1
817 2 2.4 14.245188970345009 1.6821450414082184 8.432470559334508 0 1 0
1100 1 -1.2 14.926694803029068 2.044987326803565 9.85378354138669 0 0 1
723 2 2.4 15.108362645615925 2.5556840735319004 11.47356067358724 -1 1 0
45 1 -1.2 19.33768536790882 2.7886701211682405 8.514656152734815 1 0 0
2021 1 -1.2 21.507412578008577 1.430850031326403 10.669559452314303 0 1 1
247 1 -1.2 23.489819350886673 2.7943613195536594 9.489613011808473 -1 1 0
1570 1 -1.2 29.885751728731236 1.105214887121094 9.660456729292806 0 1 1
1887 2 2.4 28.706647697769565 0.29735190100072983 8.850251425309223 -1 1 1
1519 1 -1.2 0.8264769919102525 3.2374631818456794 10.528274702307982 1 0 0
845 1 -1.2 5.327331299424244 4.908758131305621 9.221206900744196 1 1 0
1773 1 -1.2 10.771965870430765 3.929835802746413 9.566098165492512 0 1 1
675 2 2.4 10.933145659556212 5.36828685322419 10.305998156952567 0 0 0
828 1 -1.2 11.671547465909732 5.108501826130285 11.786206046140679 -1 1 0
792 1 -1.2 16.07892255951272 4.055644920717059 11.638489094747168 0 0 0
395 1 -1.2 18.390263972289848 3.2824868701738383 10.903354168515325 0 2 0
1804 2 2.4 19.461185044178002 3.8746732883056403 9.725441311259313 0 0 1
1185 1 -1.2 20.928388194354348 4.180704983899606 10.143480038320138 0 0 0
352 2 2.4 22.1047370239965 3.176578309624156 10.545644653656655 0 1 0
1331 1 -1.2 23.026300143487703 4.063224476981987 11.485489095044006 -1 0 0
639 2 2.4 23.948050837243667 5.378743181161227 11.442531875341738 0 0 0
632 1 -1.2 28.742247596057297 4.509436107922339 10.411332533754688 0 0 0
205 2 2.4 29.780675338753476 3.54058645839162 11.18053026214133 0 0 0
1368 1 -1.2 2.0131381814243765 7.783618338371877 10.82950110272673 1 0 1
261 1 -1.2 2.866869360236478 5.969024172935772 9.499293587428495 1 2 0
1933 2 2.4 0.4572509597594054 8.220947911121383 11.125724969827006 1 0 0
592 2 2.4 3.1831818784684307 6.643642605016688 10.928958115038515 0 1 0
1042 1 -1.2 4.575553985002226 7.210337233100559 11.195329637322175 0 1 0
1807 1 -1.2 7.136571748407619 7.268823833583817 11.003160287981679 0 0 1
892 2 2.4 5.935944326099983 7.2772467612789455 12.163867779874888 0 1 0
278 2 2.4 8.553361686642669 7.446853207611503 10.2383099592713 1 0 0
728 1 -1.2 9.400675629998771 5.995094059760888 10.544097532607044 0 0 0
1241 1 -1.2 8.922627880907077 7.873022413364133 8.816329526120152 0 1 1
1830 1 -1.2 11.825465562429624 6.079112285928291 9.290776635851891 1 0 0
1575 2 2.4 13.050860239001379 7.117222741361269 9.170704674697737 0 0 1
90 1 -1.2 14.1291290957066 7.300633878584377 10.607719494542835 0 0 0
1183 1 -1.2 18.95618018330222 7.8443634975539664 9.652573727558302 0 0 0
462 1 -1.2 18.20171362491713 5.734499581657023 11.28014895937592 0 0 0
434 2 2.4 18.137409112959958 6.598538473249303 9.990488653339169 0 0 0
564 1 -1.2 21.04292706310413 6.9884578607375705 9.807984911449328 0 0 0
949 2 2.4 22.15866505372723 7.942483243452961 10.269678225123616 0 0 0
319 1 -1.2 22.915503796367577 6.459378744976442 10.90643483131198 0 1 0
1076 1 -1.2 22.824896957366565 8.652027898525484 8.984964845495652 0 0 0
551 1 -1.2 25.284167550928636 5.738298857955618 10.47876609242528 -1 0 0
1226 2 2.4 26.146535967090752 7.212361416994369 10.572578560448322 -1 2 0
1451 1 -1.2 27.65694590581052 7.156359702932657 9.839346361763996 -1 0 0
305 1 -1.2 30.1644713580286 7.0184982728932575 10.335848974750544 -1 0 -1
1612 2 2.4 28.873799024716668 6.109333126646951 9.91165818607666 0 1 1
1714 1 -1.2 7.148129378334716 10.559874878854322 9.885638037940092 1 1 1
1261 2 2.4 8.187540255225704 10.28120766644631 11.209551532180841 0 1 0
1279 1 -1.2 8.691607316583594 8.679041520294751 11.289151168223963 1 1 0
1978 1 -1.2 12.065010648095031 8.496777569720514 9.138525175781163 0 0 1
1514 2 2.4 12.641445871847656 9.969113722482026 9.334305319259489 -1 1 0
943 1 -1.2 11.387414548933728 10.759587096404054 9.877716111181249 -1 0 0
884 1 -1.2 14.180411633293007 10.165536552746335 10.140311900030847 0 0 0
2079 2 2.4 15.447676054475984 10.811755232806028 10.987046971350775 0 0 0
259 1 -1.2 16.104561470154533 10.996906145186735 9.419723378657388 1 0 0
1844 1 -1.2 21.419169218291167 11.09481172775405 9.698053838343046 0 0 0
67 1 -1.2 21.79190928729718 9.04569620892531 11.331267003382965 0 0 0
1511 1 -1.2 25.587287143946817 8.544726941433154 9.683921224294213 0 1 0
1732 2 2.4 26.510688573009077 9.6332615842923 9.028333073001004 -1 -1 1
1572 1 -1.2 0.28108427998416446 9.741520543198554 10.595835928988034 0 0 1
1794 1 -1.2 27.996220029312425 9.582781826957783 9.840326360411542 0 -1 1
457 2 2.4 29.189829952200675 10.243406147665983 10.693025796049396 0 0 0
1790 2 2.4 2.737743847772918 12.238857346998861 8.710245357284101 1 0 0
761 1 -1.2 3.2084431497849537 12.527385970082438 10.3195219652343 0 0 0
649 2 2.4 11.28149816564798 14.195156914473058 11.188170400364994 0 0 0
887 1 -1.2 11.922884203974712 12.62984769661021 11.798519259403918 -1 -1 0
479 1 -1.2 15.43713318915616 12.469572717825006 11.948765882957133 0 0 0
815 1 -1.2 18.646907321491646 11.50911937372991 9.577500277500578 -1 0 0
986 2 2.4 17.265521100615516 12.32897664495176 9.610697114074204 0 0 0
1749 1 -1.2 17.4955102885222 13.563475183961279 10.778042892790538 -1 0 1
1095 2 2.4 20.06122600600003 12.176907476053806 9.170087325190446 -1 0 0
1997 1 -1.2 20.168603826903063 13.230474137661213 10.270196566436859 0 0 1
1144 2 2.4 25.94862149201588 12.779144581734228 9.364620426056764 0 0 0
415 1 -1.2 25.999276584416368 12.934244619039225 10.891221383084762 0 0 0
1686 1 -1.2 29.69712875811355 11.77875082351996 10.251350824453963 0 1 1
1039 1 -1.2 27.3406339616782 13.41854742685954 8.71717834644649 -1 0 0
1964 1 -1.2 28.996747558521633 10.831629481773899 12.31443369887665 -1 1 1
2121 1 -1.2 5.166826750512892 15.915690879343845 11.504724249161454 0 1 0
1172 1 -1.2 5.488590386330313 14.17754822064109 9.8147132011784 -1 1 0
1107 2 2.4 5.57097165216269 14.409972650299473 11.462743772445775 0 0 0
729 1 -1.2 7.099319396040553 14.412588627207327 11.916226018665316 0 1 1
1027 1 -1.2 11.111046928137473 14.419626238535205 9.526528968716498 0 0 0
578 2 2.4 11.719298906799725 15.096753268444429 8.007853489424182 0 0 0
500 1 -1.2 12.91343807831871 16.09641801842061 8.56442093660907 0 0 0
69 1 -1.2 14.945063138986322 14.585631126824056 9.943909097603669 0 0 0
517 2 2.4 14.567270577527841 15.84906169657203 9.043910717063822 -1 -1 0
1271 1 -1.2 18.003903137968226 16.38261083124705 10.605164556639089 0 1 0
1995 2 2.4 16.086536936067475 13.985551267357632 11.261091341321686 0 0 0
577 2 2.4 21.374784972548476 14.48180681737932 9.832509923580433 -1 0 0
348 1 -1.2 20.35633247304976 15.63206201032062 9.976386267484429 0 0 0
282 1 -1.2 22.331422758713284 14.30533227312517 8.534586426703951 1 0 0
450 1 -1.2 22.399600782100286 14.108092017844239 10.95330480119196 -1 -1 0
116 1 -1.2 27.451905845822928 15.116810354845652 10.650800944505596 0 -1 0
2091 2 2.4 26.618169409136044 14.058108504878918 11.788651484652622 -1 1 0
253 2 2.4 28.147359103078614 14.837841428654617 9.171668641573781 0 0 0
1925 1 -1.2 29.639992543670893 14.268977923740085 9.642236300086925 0 0 1
1327 1 -1.2 0.6081626683505046 18.547592815902924 10.30005713346966 0 -1 0
306 1 -1.2 6.831130766281154 18.238350227740415 11.3307691896828 0 0 0
2066 2 2.4 8.471764352898559 17.79067751893043 10.934437747689199 1 0 1
65 1 -1.2 8.932855782489495 17.43967305918009 9.507953093645385 1 -1 -1
1433 1 -1.2 15.044600582787686 17.009178406566697 10.250698311033231 0 0 1
1852 2 2.4 14.848867269119586 18.125442711469184 11.419029276867928 0 0 1
1980 1 -1.2 14.253273099390118 19.641785758712274 11.116067747676935 0 0 1
88 2 2.4 19.37673371146957 16.934266254867754 9.876770233290198 0 0 0
403 1 -1.2 20.14617807031539 18.32455728212193 10.1709279592652 0 0 -1
1150 1 -1.2 24.536712408179408 17.76720910447991 11.394417571945672 0 0 0
1131 2 2.4 25.13038327644046 18.343271027015962 9.805002878438982 0 0 0
1258 1 -1.2 26.753055902345938 18.379454351714717 9.985501026832884 0 0 0
1035 2 2.4 27.64797996946122 19.077439350120546 11.146062243552706 -1 0 0
283 1 -1.2 28.870024172534052 17.982429593204092 11.57363214045299 0 0 -1
895 1 -1.2 0.41394005536218353 21.352897986917753 10.953109675354574 0 -1 1
518 2 2.4 30.06629675640794 20.0631291535564 10.069165588815203 0 -1 0
1161 1 -1.2 10.693702199160034 22.148267460027952 9.806991818108962 0 0 0
1178 2 2.4 12.077688541542537 21.91465031650043 9.167338681666164 0 0 0
419 1 -1.2 13.235255421836143 21.586096749066854 10.290221793023232 0 0 -1
929 1 -1.2 22.016478233506586 19.86889738678253 10.607306531763426 -1 -1 0
1663 1 -1.2 24.794502166895434 19.90560180473457 9.917340668525991 -1 0 0
1426 1 -1.2 23.12020983087786 20.880401279199177 8.163826122197008 0 0 0
1478 2 2.4 23.165026196709015 20.832587728001663 9.891914824794288 0 0 1
1783 1 -1.2 23.61756217130044 22.01959435514583 11.035451513462009 0 -1 0
379 1 -1.2 28.51791349123148 20.348706077654025 10.439577430771532 -1 0 0
1987 1 -1.2 5.066257707713278 25.135557764895076 9.268905282496265 0 1 0
605 1 -1.2 4.015875462532516 22.43052512182551 9.355864081936813 0 1 0
1370 2 2.4 5.310705679558908 23.617941703674894 9.313038677956381 -1 0 0
1223 1 -1.2 5.7943502976718975 23.3380462555127 10.840096138266514 1 0 0
166 1 -1.2 9.552755559465774 24.579520792560533 8.381720743345426 0 -1 0
386 2 2.4 9.433554476880794 22.96285197394711 9.232623862466394 -1 1 0
498 1 -1.2 8.426787771240473 23.131913700189376 10.390772692579398 1 0 0
2119 1 -1.2 17.875434713901107 23.4032629677876 9.75838602355534 0 0 1
2008 2 2.4 17.205178025564063 23.431188850278996 11.284287014011358 0 0 1
773 1 -1.2 25.62305605310956 23.244976127243138 10.692974936849915 -1 1 0
880 2 2.4 25.71896740139085 24.334578116345963 9.411582335171255 0 -1 0
476 1 -1.2 0.8157273606004536 26.76263835047391 8.343700392100835 1 -1 0
22 1 -1.2 1.7797865562922166 25.075055286005266 9.752902389724614 0 0 0
771 2 2.4 2.920574045156678 26.10011704759374 11.173319486180644 1 0 0
1119 2 2.4 5.4216932999829 26.737250512392535 9.45966203097145 0 0 0
310 1 -1.2 3.834522863322644 27.12886959580573 10.30640479022597 0 0 0
1536 1 -1.2 6.881987104010534 27.35642368835646 10.508023107332265 0 0 0
201 1 -1.2 12.516003013198299 27.933820879096352 10.118217888288651 0 0 -1
186 1 -1.2 21.876519851776873 24.31735857521347 9.958331948246256 0 -1 0
1210 1 -1.2 24.41214500915907 25.24969837995615 9.436175888465753 1 0 0
1203 2 2.4 22.956703340144912 25.800556053638765 10.180578651335004 0 0 0
1196 1 -1.2 22.62012379266334 27.145362171060757 9.358678020500669 0 0 0
947 1 -1.2 26.92434703468565 25.339509649159076 10.146829112880827 -1 -1 1
170 2 2.4 0.36308412793835515 25.532748905528898 9.194654366481627 0 0 0
381 1 -1.2 29.386664392529287 26.192679454331042 10.074308315322984 0 0 0
1345 2 2.4 28.077169625373347 26.314496462857484 11.156881370132574 0 -1 0
2084 1 -1.2 6.801214042611617 29.367614304273992 9.365517177547087 0 0 1
448 2 2.4 7.2849997043054495 28.85601348458092 10.845265540533763 0 -2 0
486 1 -1.2 8.714064449264649 29.269433166284575 11.051461954100485 0 -1 0
555 2 2.4 12.820794708617115 28.0368643984794 11.805597252943466 0 0 0
143 1 -1.2 14.33257454243869 28.753337091986563 11.223527341223138 0 1 0
1893 1 -1.2 17.277079926842955 29.336590740530845 11.041888318144746 0 -1 1
1996 2 2.4 18.926095736636317 29.03539622105561 11.20718845107313 0 0 1
930 1 -1.2 19.430536460944328 28.434159949964435 9.626395604830819 1 -1 0
418 1 -1.2 19.70813050190134 30.296409309610617 11.999454368600407 0 0 0
1363 1 -1.2 25.106521539424392 29.330645454811016 11.332782802785712 0 -1 0
769 2 2.4 26.76053584725045 29.18396388288584 11.07026001499391 0 0 0
1307 1 -1.2 28.28676550569205 29.390217679380754 10.078353185674583 -1 -1 1
1875 2 2.4 1.7514489928150998 1.7981373315736777 14.408603871732414 0 0 0
631 1 -1.2 2.4987527806290735 1.6985973285429525 12.927258977825543 0 0 0
148 2 2.4 2.5138177472490986 0.36562516236700093 12.03421110178454 1 1 0
1014 1 -1.2 8.590395534395812 2.588876204237278 11.94960193253837 0 0 0
334 1 -1.2 8.825402000961953 1.5645208594564222 14.161744279426802 1 1 0
1501 2 2.4 9.289553634519145 30.291644966473662 14.726640869087497 1 -1 0
946 1 -1.2 13.573388850045713 3.1235981396273114 11.6350140572221 0 1 0
760 2 2.4 16.241365756037567 0.8915011295643925 14.053432732006844 0 0 0
1727 1 -1.2 15.786783357038678 1.8468993359289503 12.774579760021258 0 1 0
1276 2 2.4 21.02093871833597 0.7349850597454922 11.905598634275611 1 1 0
1821 1 -1.2 20.847418446390957 1.7992279563471103 12.93860351455687 -1 0 1
2117 1 -1.2 24.735810409328113 0.9196632079607333 12.75631069469389 0 1 0
398 2 2.4 25.5324452456008 1.5923205879603302 13.973374171580716 -1 2 0
1316 1 -1.2 27.064251970683777 1.9448500471388415 13.996139366767446 -1 0 0
1351 1 -1.2 27.337221531476512 0.03985176037341939 12.032612844977622 -1 0 0
763 1 -1.2 28.65677912669976 2.5597076353989197 12.04090922833399 0 0 0
579 2 2.4 28.108551687329463 1.2566597094956746 12.889450755520752 -1 0 0
933 1 -1.2 29.31261837783358 0.44635417250920484 13.608091203595725 0 0 0
1437 1 -1.2 2.9591027234870895 5.582041698767948 12.204030075754215 1 0 0
556 2 2.4 0.1015110284615093 4.33154444664249 14.232304079358158 1 0 0
864 1 -1.2 0.3595347536273043 2.7384926350224807 14.278794539366542 1 1 0
1314 1 -1.2 1.4610892025148032 5.056334620172214 14.724305447768334 0 0 0
1364 1 -1.2 4.4014153550153985 4.980437827958683 14.52738996877426 1 0 1
3 2 2.4 2.851105492635439 5.743647710311545 13.948349219654194 0 0 0
1941 1 -1.2 6.898331431250881 3.5807789284192877 13.586484926527499 1 0 1
1717 2 2.4 6.098704784878432 4.880393155558728 14.191315534182683 1 1 0
135 2 2.4 8.519492853009902 2.9571729177814947 13.569407973102889 1 0 0
1532 1 -1.2 9.670351772756094 4.068159008827565 13.612214529692794 0 2 0
488 1 -1.2 12.197236950488577 4.269519984998245 13.955339318624876 1 0 1
2138 2 2.4 12.98364892922834 4.486534611243072 12.422632461101662 0 1 1
33 1 -1.2 13.972676112239647 5.801517246305062 12.75810804533397 0 0 0
1624 2 2.4 17.721306468199863 4.359396240330239 11.912048662521668 0 0 1
355 1 -1.2 18.2267743156012 4.009142199080731 13.267107123707934 0 1 -1
1841 1 -1.2 20.810381657703555 4.032488074904102 14.444005488485889 0 0 0
591 2 2.4 19.287012986323912 4.836675546065332 14.089258293055641 0 1 0
1462 1 -1.2 24.21972124527129 5.8780085352717375 13.090646412099813 0 1 0
1751 1 -1.2 29.782448712976574 4.513028479948949 12.641226395359343 -1 0 0
780 1 -1.2 2.9901408775515566 7.291693441341154 14.11730840247348 2 1 0
2022 1 -1.2 5.9500739438335835 5.845213762392457 12.942403992633551 0 0 1
1127 1 -1.2 13.412951735330209 8.299030142157106 12.59342425378747 0 0 0
28 2 2.4 14.42277861761001 7.247048016255688 12.130709843918122 0 0 0
408 1 -1.2 15.958530817461503 7.48590937314297 12.521631702050584 0 1 0
1164 1 -1.2 19.675394911245935 6.336062495886351 13.477674451537764 -1 0 -1
376 2 2.4 19.578067903612883 7.8721065098619745 13.977475212725514 0 1 0
2144 1 -1.2 26.97534503321744 5.792886514842643 13.981654463836472 0 1 0
19 1 -1.2 26.194720080910432 7.531096526218137 12.059527157260318 0 0 -1
277 2 2.4 25.736046002968678 6.564469808128879 13.466634799177104 0 1 0
717 1 -1.2 25.587875393959354 7.662331322075676 14.719477370606672 0 1 0
2015 1 -1.2 5.310237381790986 11.041246157809965 14.549628946325685 1 1 0
1538 2 2.4 5.781858638509748 10.549283927877926 12.966768434611495 0 0 0
1301 1 -1.2 6.163413675139804 8.836801303259625 13.022156689944332 0 -1 1
2146 1 -1.2 7.37845194574623 10.832280568685345 12.606566870844087 1 0 0
816 1 -1.2 9.358263997533472 11.2585783644525 11.168436353092424 0 0 0
808 2 2.4 12.387791244718775 9.108031722305538 13.44446685219889 0 0 0
1313 1 -1.2 11.246362847770762 10.195948323012798 12.819719658595268 0 -1 0
159 2 2.4 11.015450548836029 11.268661839923219 11.384234887139623 0 0 0
1836 1 -1.2 13.253110905936028 9.592217311485129 14.731085113460106 0 0 0
71 1 -1.2 16.445621596716023 10.118740467088644 12.050316399257655 0 0 -1
1393 2 2.4 16.60923127017869 8.731331172700248 13.159591635302604 0 0 1
527 1 -1.2 18.17993649220131 8.433466653841592 13.296276212850486 0 0 -1
1699 1 -1.2 21.08686815185859 8.158610508626236 13.519677869986419 0 1 0
2044 2 2.4 22.016804793411847 9.165811049880855 12.974086964844618 0 1 1
1793 1 -1.2 23.817183246255095 8.999199556355107 13.140166493743699 1 0 0
196 2 2.4 24.83587879613198 9.077844000320985 14.459732680141396 0 0 -1
1835 1 -1.2 26.122375763175192 10.313617908427096 14.271126562882115 0 0 0
62 2 2.4 27.68955997447735 10.313204603638152 15.21651643962744 0 -1 -1
550 1 -1.2 0.5295085437967881 8.170552426726102 12.676257880483467 1 0 0
699 2 2.4 30.120977399762523 8.250095608515263 14.269014437330588 -1 1 0
911 1 -1.2 28.92715544494548 9.18953704306506 14.464735615497979 -1 0 0
1442 2 2.4 1.0643762474862262 13.26545987436032 13.741370876805465 0 0 0
1412 1 -1.2 1.8998644343216011 12.111617470633139 12.817057858880075 1 0 0
851 1 -1.2 4.735049290325667 11.21522770325276 11.938837587374708 0 1 0
1167 2 2.4 3.438878281359545 12.368082379232767 11.883824731935812 0 1 0
1053 1 -1.2 4.387076014665627 13.557538844929331 12.469708743837971 0 0 0
2016 1 -1.2 19.720782167248714 12.278574746155924 14.048272150670092 0 0 0
218 2 2.4 21.421165646191703 12.18948577157491 14.101573994610986 -1 0 0
1829 1 -1.2 21.862620062214084 10.815117036901142 13.337895696713304 0 -1 0
2158 1 -1.2 27.16947543657757 13.10287726115427 12.89006382076674 -1 1 0
1293 1 -1.2 30.002951032836656 13.128382576572594 12.926482118199473 0 0 0
942 1 -1.2 28.47208233081753 11.75257252121441 14.51940675299194 -1 0 1
1489 2 2.4 28.67122961864486 12.279829556053281 12.99003569968646 0 0 0
460 2 2.4 1.599438089533947 16.388596952144734 13.721387782652283 0 -1 0
1342 1 -1.2 1.3661588014701846 14.875027307494703 13.518564386390468 1 0 0
263 1 -1.2 3.4805213556292314 16.375033757124857 13.914155106318896 0 0 0
535 1 -1.2 6.074172848476636 16.921004100298127 13.232130796129502 1 0 0
1051 1 -1.2 9.78335131077993 13.999067787173955 11.515987127141495 0 0 0
865 2 2.4 8.728386013858394 14.76802312856981 12.299853023727415 0 -1 0
1638 1 -1.2 8.837609798509968 15.19435394517924 13.777994102688394 0 0 1
222 1 -1.2 12.112342006801885 15.485382518827706 11.578292772191956 0 0 0
915 2 2.4 12.505548893258815 16.631599079611252 12.97802023958847 0 0 0
461 1 -1.2 13.40809751070167 15.835418309759724 13.896904942424417 -1 -1 0
690 1 -1.2 10.933628514805022 16.639917999950992 13.562546828991886 0 0 0
1481 1 -1.2 16.688803724641847 15.145227304573458 12.316471794056834 0 0 1
687 2 2.4 17.336830417572333 16.766586464958074 12.075413097884475 0 0 0
499 1 -1.2 20.322092390778987 15.650198962187012 12.355419416488795 -1 -1 0
1346 2 2.4 21.935420974062243 14.705674322427887 12.398000458156144 0 0 0
1523 1 -1.2 22.1522412366726 13.492308334485333 13.405870029997892 0 0 0
321 1 -1.2 22.93250560700869 15.898882544475972 12.60651191231324 0 0 0
829 2 2.4 24.494130123477692 16.428993915579955 12.506645021062035 -1 0 0
2036 1 -1.2 25.508495709707553 15.28388856601549 12.116990573410398 -1 0 1
1533 1 -1.2 0.8413039023035762 17.082313146973327 12.45044739061673 0 0 0
1731 2 2.4 -0.047033620745897946 18.129234351409092 11.783670333403936 0 0 0
978 1 -1.2 4.509612250985527 18.7412176320573 11.608200426733498 0 -1 0
565 2 2.4 5.425568648088499 17.451685182466694 11.731345606241037 1 0 0
340 2 2.4 9.485910863301807 16.567123796879613 14.216371519954466 1 1 0
1124 1 -1.2 9.007156889813388 16.456307609160014 11.830873766028942 0 1 0
1691 1 -1.2 8.51954904409915 17.856947070970463 13.780357682394143 0 1 0
1589 1 -1.2 13.49259516618684 17.737373908535574 12.241885466968515 -1 0 0
1413 1 -1.2 16.254327732775767 17.88742818009065 12.192311140791924 0 0 0
1721 1 -1.2 18.50134896682105 17.355464604212198 13.133231235303 1 1 0
710 2 2.4 20.355561442176658 16.953790218392736 13.304942222279873 0 0 -1
103 1 -1.2 21.361783197790647 18.210607660203564 12.773478944074489 0 0 -1
548 1 -1.2 25.08385413510616 17.32851139895943 13.648816461446799 0 0 0
162 1 -1.2 27.645441115382077 19.357313718791183 12.722797853583119 -1 -1 0
388 2 2.4 0.9397921361638812 20.774178217775596 12.492049589323308 0 1 0
489 1 -1.2 -0.05335961610731488 19.55831385316729 12.80801422695759 1 0 0
1895 1 -1.2 0.7909037142289103 21.94882080017139 13.818160042995295 0 1 1
1678 1 -1.2 2.4704474989227525 20.17944386566945 12.1559627891888 0 0 0
733 2 2.4 4.045362602321104 19.87429052928601 12.691646410576494 0 0 0
883 1 -1.2 4.720542179656391 21.36617571977642 12.839556750049057 0 -1 0
1093 2 2.4 9.434285781992024 19.186100495772834 13.228323372914362 0 1 0
1664 1 -1.2 9.3079017878085 19.278067719951284 11.637775241782613 -1 0 0
107 1 -1.2 8.326699071173335 20.17216127433525 14.411960457407305 -1 0 -1
969 1 -1.2 10.955883999516885 19.50849842548471 13.463501645233945 0 -1 0
595 1 -1.2 12.066706163823076 21.604217637394246 14.37887836390289 0 -1 0
1684 2 2.4 14.544713140301692 21.222910904771293 11.092809247524483 0 0 0
608 1 -1.2 14.174132774497567 21.704354939551568 12.753417086704514 -1 0 1
1932 1 -1.2 17.702535753408654 20.292846763495497 14.469470440318247 1 -1 1
436 2 2.4 18.34367859251145 21.163180210957233 13.32999051891296 -1 -1 0
1645 2 2.4 20.765932994779643 19.091275491898074 11.642410325957897 0 0 1
2141 1 -1.2 19.502432024839678 19.960944486408792 12.221910615580953 -1 0 0
433 2 2.4 26.721859414227428 20.44298926622739 13.602720093894543 0 -1 0
272 1 -1.2 25.462057190690086 19.640041548189764 14.490657549024887 -1 0 -1
1483 1 -1.2 25.845118253203726 21.739435500501386 12.783049054500143 -1 0 0
1375 1 -1.2 27.780618041347633 21.377440984960188 14.464585335288108 -1 -1 0
1240 2 2.4 1.0473457386101641 23.246639828369787 14.56558103216117 0 0 0
1037 1 -1.2 2.426479993056801 23.931441158177833 14.371463874345912 0 0 1
1954 1 -1.2 5.024491046106018 23.61370788728003 14.243276138235627 0 -1 1
544 2 2.4 3.839731805973184 24.656653385270385 13.922752327528093 1 -1 0
169 2 2.4 7.288501624067742 23.33034801460641 11.574136112839271 0 0 0
1756 2 2.4 5.740178085566076 22.141972299394038 13.784352781035764 0 0 1
298 1 -1.2 6.936253447560214 22.393629087519237 12.87694174940989 0 0 0
576 1 -1.2 6.101479471836619 21.556415912473124 15.343174475350848 1 -1 -1
1761 1 -1.2 7.5539372917624314 24.79603200991024 12.174653934403974 0 -1 1
1067 1 -1.2 12.555712048534398 23.75835576757803 12.937873048518183 0 -1 0
1216 2 2.4 13.392441450570507 22.622750362116992 13.743790035443439 0 -1 0
1074 1 -1.2 15.793243804037607 22.390307218386717 10.896619832322703 0 0 0
1596 1 -1.2 17.6292785915487 22.456215345979842 12.448272222087718 -1 0 0
1031 1 -1.2 19.744373386122145 21.914057978386765 13.948963692580245 0 0 0
2083 1 -1.2 24.403496926149728 23.81930745963324 13.1625073614793 0 0 1
435 2 2.4 24.878107893653535 22.64298757905993 11.984922997258355 -1 0 0
331 1 -1.2 30.131621481849155 24.233204104442716 14.160187503714795 0 1 0
368 1 -1.2 1.52933116495526 26.689610695923804 11.555938278759886 -1 0 0
607 1 -1.2 3.590805826859892 25.160757448605395 12.315011511735207 0 -1 0
909 1 -1.2 3.665524847563635 27.72922448768718 13.124953667920348 0 -1 0
158 2 2.4 4.960905270510691 27.13861808324386 14.29948204154511 0 0 0
1881 1 -1.2 6.2091011843156485 26.77685398722813 13.243514726094968 0 0 1
1417 2 2.4 7.7608656929936775 26.016105270356892 13.180189531171084 1 -1 0
1163 1 -1.2 9.063946627077375 26.963162996357543 12.439525006725217 -1 -1 0
2118 1 -1.2 11.215728942360828 25.596873232156817 14.199450108779821 0 0 0
400 2 2.4 12.72526663332149 25.25746880567677 13.546626544156759 0 0 0
1927 1 -1.2 12.619186979310467 26.271202045052334 12.265804714876685 0 -1 0
2048 1 -1.2 16.242887496765444 27.22671731255995 12.284962537955245 0 0 1
2072 1 -1.2 17.27598090200764 25.106219784262606 11.37508638017505 0 0 1
111 2 2.4 17.628246010513937 26.52144400845918 12.462934397079255 0 0 0
234 1 -1.2 17.903708077701538 25.83574853363575 13.808983085561579 -1 0 0
1486 1 -1.2 22.101527360338398 24.760927672662778 14.61908547689274 0 0 0
443 1 -1.2 22.838606229152983 25.810882332785333 11.819489597926708 -1 -1 0
1312 2 2.4 23.435707645518665 25.090938372379217 13.292442697232953 0 -1 0
1332 1 -1.2 24.25353434319311 26.31055864561332 13.845828621998539 -1 -1 0
904 2 2.4 28.43471551551496 24.827520557432955 13.753837206084958 0 0 0
1689 1 -1.2 28.080228610786023 25.173505636129548 12.174601476249874 -1 1 0
700 2 2.4 1.9291465527751475 27.834313050043363 12.876993892716236 1 0 0
1221 1 -1.2 5.496300085319861 -0.007262623201013913 13.953263408483199 1 0 0
173 1 -1.2 1.8727313238130354 29.46201920031978 12.514724225220352 0 1 0
655 1 -1.2 6.285643267655845 29.332175819650114 11.981882805599312 0 -1 0
2089 2 2.4 5.619697285045851 0.1809891499716312 12.268390119491091 0 1 1
1414 1 -1.2 8.037812176071249 29.590520502968495 15.177171099940889 1 -1 0
300 1 -1.2 9.37707883055078 29.49828679096393 13.34027770663078 0 -1 0
1480 2 2.4 9.682208606068755 28.44832364971499 12.16681179294235 1 -1 1
801 1 -1.2 11.123443852968883 28.60316585405267 11.902769624416988 0 0 0
2110 1 -1.2 12.870895431397974 28.33797294234812 13.57921519572974 0 1 1
1792 2 2.4 15.733323498013002 28.988105343684847 11.97355020422124 0 -1 1
2095 1 -1.2 15.917490824231123 29.758148762973697 13.31059688439686 0 0 0
1530 1 -1.2 18.980370125853586 27.5570726526757 12.031943770966611 -1 0 0
984 1 -1.2 22.307028925631215 30.15879271787488 12.127932443028996 1 -1 0
1780 2 2.4 23.90600839357913 30.053792892850748 12.573477347299667 0 -1 0
1823 1 -1.2 23.804123740884194 29.0466428407031 13.819188053431064 0 -1 0
784 2 2.4 23.72602799910304 27.727617083369754 14.638884086434587 0 0 0
585 1 -1.2 27.413999756456043 27.701270267534092 11.617290447546242 -1 -1 0
1977 1 -1.2 1.2284422398087684 0.352487976787347 14.90111810895887 1 0 0
901 2 2.4 2.7688689813009733 2.1587674827444605 16.990626559114826 1 0 0
671 1 -1.2 3.0202238809101427 2.485832334104316 15.490582935684655 0 0 -1
264 1 -1.2 6.0665856587190286 0.009526715937801553 16.620450679682705 0 1 -1
584 1 -1.2 10.759873166015826 0.06438730595488464 15.2276850876558 0 0 0
940 2 2.4 11.37996694636164 1.404950429235769 16.16216725472771 0 0 0
1041 1 -1.2 12.95084459569251 1.682794448577182 16.14530897401965 0 0 0
1347 2 2.4 14.581750460988449 1.5792411225887166 16.737558927851232 0 0 0
330 1 -1.2 15.510897922640375 0.7891011225111578 15.726785806484731 0 0 0
1290 1 -1.2 17.799579565300114 0.8300102259979304 13.795290758189637 0 0 0
469 2 2.4 18.975151431976318 0.7311278070740302 15.091531859280531 0 0 0
511 1 -1.2 18.17413152575276 0.28162141090833726 16.70500418030596 0 0 0
2114 2 2.4 20.94642610450483 2.4073269458873527 14.396679691239989 0 1 0
606 1 -1.2 19.83924232073032 1.8838303042787417 15.46796861571548 0 0 0
1423 1 -1.2 22.501995439297314 1.6700708181409138 15.160543775093725 0 0 0
569 1 -1.2 25.100594008266707 0.9898828849934184 15.432622579391106 0 0 0
1635 2 2.4 29.901496354235892 0.14762281500456348 15.120791810641837 0 1 0
850 1 -1.2 29.05816735706366 1.038250575632826 16.282644478747336 0 1 0
709 2 2.4 10.876529160407673 4.144057574507734 14.858597348521915 1 0 0
774 1 -1.2 10.401220178249607 2.7859037115022027 15.646586653408498 1 0 0
1603 1 -1.2 15.311454028613552 3.017179686574553 17.186718427401875 0 1 0
1669 2 2.4 15.024325292318442 4.373747431666472 16.359261461396752 0 0 0
941 1 -1.2 18.755127379929064 4.605971021315059 15.710672192096562 0 0 0
1000 2 2.4 23.913015380899033 2.0634152610138816 15.708541146459584 0 0 0
2130 1 -1.2 24.658306630926973 2.8788391009964243 14.517239803644992 0 1 1
1508 1 -1.2 29.32709101574446 4.576376666034714 15.163141085818076 -1 0 1
6 1 -1.2 2.7074585630136676 7.340895401419253 16.68500676328627 -1 0 -1
740 1 -1.2 6.826947703078893 5.295895318983383 15.426753148591368 0 0 -1
167 1 -1.2 10.891477479207914 5.803044825387924 15.414078042527386 -1 0 0
130 1 -1.2 10.803936557171394 8.584128779706967 16.240336762419933 0 0 0
619 1 -1.2 11.370404522115159 7.970843066407619 13.874066932376154 1 0 0
490 1 -1.2 14.402350578562679 4.4879938875745 14.768740390832379 0 0 0
2103 2 2.4 11.511041249030388 7.348013445457934 15.551192765939314 0 0 0
1582 1 -1.2 16.248423361862653 5.138703596947154 16.826223827794117 0 1 0
2098 1 -1.2 13.361101468802552 7.477120739078079 16.308710788443186 -1 1 0
1071 2 2.4 17.845244675603343 5.336848889169796 16.823581516101516 0 0 0
1474 1 -1.2 17.94233044179502 6.858556624057633 16.36092531165505 -1 0 0
1003 1 -1.2 29.507811818434455 6.786690885737264 14.306549859712403 1 0 0
1099 1 -1.2 27.63069074499542 6.11592315803044 16.38887643604125 -1 0 0
447 2 2.4 28.22458554386207 5.900351915254197 14.963143339390324 -1 0 0
2017 2 2.4 2.5153797462095033 8.283418425637862 15.482879001984918 0 1 0
2108 1 -1.2 0.8908223663079493 8.161326527370804 15.174446864500755 0 1 1
5 1 -1.2 30.02841416649 10.829438987228832 16.779592184348964 -1 -1 -1
224 1 -1.2 3.6026208024147874 9.506427998419413 15.612717264581327 -1 0 -1
961 2 2.4 5.290604073795855 10.012246764397014 15.754239182230668 0 -1 0
1554 1 -1.2 6.210025097912468 8.648827767365002 15.576630946802743 1 0 0
236 1 -1.2 8.578034114996669 9.4426143990803 17.257417996538045 0 0 0
281 1 -1.2 16.039056535246527 8.76576609330482 14.653781268138971 1 0 0
1515 2 2.4 14.47888742052277 8.813424735387494 15.508675284819816 -1 0 0
1434 1 -1.2 14.698165280043764 9.743752558912988 16.95749130110456 0 0 1
938 2 2.4 15.559634529100805 10.937670719193248 17.38665738769172 0 0 0
429 1 -1.2 17.138526839191947 10.519424003220873 17.808875689975483 0 1 0
1441 2 2.4 19.324328928604295 7.638961120733151 16.838149943749674 0 0 0
1341 1 -1.2 19.88449092782467 8.399286395592764 15.536750920948 0 0 0
70 1 -1.2 19.422575553126716 9.203458416740835 17.832396643707956 1 0 0
1775 1 -1.2 24.181691107464104 9.338064383421877 15.920649757346695 0 0 0
1128 1 -1.2 22.55708224645775 10.724135969322019 17.54789417073026 0 0 0
1285 2 2.4 0.7079098163883986 12.042099386248736 16.57863728146966 1 0 0
1781 1 -1.2 0.908093478213318 13.021322950174685 15.326679370394057 1 0 0
473 1 -1.2 4.953818051087085 10.595413820874075 17.26499824883147 1 0 0
1716 1 -1.2 2.2321228991151654 11.106137281209454 16.3999085944672 1 1 0
1052 1 -1.2 4.3869388241969824 13.009635401326094 16.422242755603705 1 0 0
2059 1 -1.2 15.78385815555304 12.243008301617353 16.386233475520534 0 0 0
51 2 2.4 19.16674128440814 12.951597336618041 15.519080598604674 0 0 0
1602 1 -1.2 19.115220938457103 11.851761106253885 16.682286366772143 0 0 1
154 1 -1.2 22.055723123830607 12.22435877443143 15.549371117946347 -1 0 -1
916 2 2.4 22.329728393239733 12.246027477751614 17.26661941748186 0 0 0
1063 1 -1.2 23.762955996242123 12.84514816531923 17.543839745544116 0 0 0
288 1 -1.2 27.648257530649303 10.162219561839752 16.809065613557365 0 0 0
520 2 2.4 28.640454030671183 11.099696936211659 17.447023855882076 -1 0 0
350 2 2.4 5.0470992066693325 16.349102147992326 14.371993378691537 1 0 0
1733 1 -1.2 5.40503594673013 14.969387864894903 15.246910380520902 0 0 0
483 2 2.4 5.430064015572296 14.443528661167877 16.97133570700189 0 0 0
614 2 2.4 9.572824088995212 16.12828954177894 17.388901108963946 0 0 0
756 1 -1.2 12.771225096874154 14.666804926795333 16.23772406430908 0 1 0
1334 2 2.4 16.28235225882505 13.741723943305756 16.04312065361162 0 0 0
1209 1 -1.2 15.453932057439557 14.804989001028098 15.114874231215486 0 1 0
458 2 2.4 13.948415276989262 15.37304370839369 15.373530721131376 0 -1 0
1811 1 -1.2 16.495150923788934 14.68129717271727 17.47513998666153 0 0 0
648 1 -1.2 17.780903507898156 13.695745974821453 15.240547562948839 0 -1 0
1188 1 -1.2 20.105996034279325 14.17081757261988 16.150199022894906 0 0 0
1840 2 2.4 20.791029410166576 15.740371671960657 16.311931237860975 0 -1 0
1529 1 -1.2 1.4560263700748042 16.969493312631613 15.219293114023376 0 0 1
1670 2 2.4 1.7733268784636296 17.33803702653415 16.781456992681182 0 0 0
1113 1 -1.2 0.7383333002152821 18.410591418075022 17.3659781549709 0 0 0
1102 1 -1.2 2.127058138054059 16.55222639362421 18.13829570270119 0 -1 0
2013 1 -1.2 3.2332139641110706 18.119848517435237 16.46588060450319 1 0 1
521 1 -1.2 5.366169815800075 17.43894287557039 15.470694601510663 0 -1 0
571 1 -1.2 9.697688710162156 16.629949898008448 15.934644951077171 1 0 0
1324 2 2.4 13.501380103851693 18.411051295301483 16.506104337255742 0 -1 0
1470 1 -1.2 14.130025644985341 16.878921977409206 16.321000184167946 0 0 1
814 1 -1.2 20.412688203856835 16.290045034996933 14.837048551234567 0 0 0
1217 1 -1.2 22.30128924846306 15.977674156039711 16.741114633116332 0 0 0
1548 1 -1.2 24.250756948303486 17.41312517317095 16.015153685554147 0 -1 0
472 2 2.4 23.000230231411997 17.407574001465377 17.14912359963157 0 -1 -1
1296 1 -1.2 21.774466849739298 18.368883572507706 16.93836445125157 0 0 0
109 2 2.4 25.410177905572503 18.12761108831495 15.021044341103796 0 0 0
1629 1 -1.2 26.831612424232453 17.545775133331613 15.59357274441382 0 0 1
1286 2 2.4 27.46740394282605 16.980782729218163 17.200595193280083 0 0 0
654 1 -1.2 3.8682696159348366 19.233448154032818 14.35157174482461 0 0 0
758 2 2.4 4.510052635300383 18.90253552669242 15.764966892989058 1 0 0
1080 1 -1.2 5.37491377655382 19.50496413887602 17.016038559455083 1 -1 0
888 1 -1.2 7.812889532105878 20.2017970046095 17.073076145866356 -1 -1 0
1876 2 2.4 7.770439422030713 20.913823988918786 15.667062110419648 0 0 1
252 1 -1.2 10.524203300000297 20.475857839089727 15.910850527420807 1 0 0
1242 1 -1.2 12.770231027483831 19.241010033181798 15.331722110546998 0 0 0
580 2 2.4 11.52775454568179 20.1173006172434 14.803669396865205 0 0 0
646 1 -1.2 14.562970171627903 19.309833873897873 17.1155112652784 0 1 -1
378 1 -1.2 17.041674862391805 19.245265652345346 16.678977188666025 0 0 -2
590 2 2.4 17.419718076518894 20.700941927742857 15.990830919172533 -1 0 0
1278 1 -1.2 18.69161615361144 21.507800226416155 16.358785070556564 0 0 0
1642 1 -1.2 20.659433875354562 20.29776980001056 16.16098994684843 0 0 0
1994 2 2.4 20.01206463189645 21.60236021216649 15.590698083675138 0 0 1
1148 1 -1.2 23.305418240734532 20.944570741511654 16.577578457544117 0 0 0
337 2 2.4 21.807015036890128 20.069251179390186 17.14460941174154 0 0 0
1389 1 -1.2 25.623601419422798 22.662425450375554 15.864163947845057 0 1 0
506 2 2.4 29.854933364116047 22.15398366754112 16.921776148316056 -1 -1 0
1101 1 -1.2 0.8738840700226204 22.626250918375252 16.102843996283838 0 0 0
824 1 -1.2 8.234036222510472 22.371484435812913 16.310207507828547 0 1 0
665 1 -1.2 10.522073535913181 23.954799544187317 16.30401024785964 0 -2 0
998 2 2.4 9.312030574665352 23.174214362524708 17.31467209058923 1 -1 0
1764 1 -1.2 16.081227349229767 21.897388919501385 16.366284093404307 0 0 0
2115 2 2.4 14.856194289616823 22.790295752793686 16.675576879133608 0 0 0
24 1 -1.2 14.242596084611131 23.186141972679653 15.067005315341333 0 0 -1
1029 1 -1.2 15.791608376605662 23.943611621439143 17.474629646380002 0 -1 0
906 1 -1.2 20.700023633652297 22.958983285715124 16.054236242763462 0 -1 -1
1173 1 -1.2 23.595045305952006 23.4441327630235 17.277455156618586 0 -1 0
999 2 2.4 24.455813891303762 22.047187802137245 16.893070559071315 0 0 0
1130 2 2.4 27.223466547119127 22.527001925207955 15.475495970257645 -1 0 0
1662 1 -1.2 28.28976672625807 22.77885800491741 16.64395042545747 -1 0 0
1366 1 -1.2 27.276882845548748 23.84756801486272 14.402439876489925 0 -1 0
2010 1 -1.2 1.0461450753778692 27.270917919074915 14.385966523256494 1 0 0
402 1 -1.2 4.4761953493761055 25.87936361119833 15.01704058560814 1 0 0
156 1 -1.2 8.586784746466185 25.336741263661963 14.525277258568744 0 -1 0
1610 2 2.4 10.119333643028307 25.409134126218895 15.50028315623248 0 -1 0
647 1 -1.2 10.44274801997569 26.34471286546889 16.770076518315793 1 0 0
1299 2 2.4 12.171836044770101 26.52050915781049 17.30360120850382 0 0 0
1675 1 -1.2 13.797334218777706 25.861746102230892 14.456253944864471 0 0 1
2065 2 2.4 13.608760206484469 27.563945343330165 14.810860027008864 0 0 1
1505 1 -1.2 14.975536389517966 26.44618585039588 17.282209751486448 0 -1 0
1416 1 -1.2 17.143133605965698 26.32559181121986 16.14619982582869 0 -1 0
1695 2 2.4 21.06830656623075 24.45289949885102 15.91867549347998 0 0 0
363 2 2.4 18.452160343124422 26.046430372469043 15.287917604835949 0 0 0
918 1 -1.2 19.615064896496232 25.266022107326528 16.098793274903784 1 0 0
1542 1 -1.2 21.969858665709985 25.604374166593786 17.04294513647109 -1 0 1
698 2 2.4 23.384825361122058 24.95508547387766 17.45936567233718 0 0 0
1701 1 -1.2 24.777425100689985 25.635036176080654 16.660894955570008 0 0 0
84 1 -1.2 27.242442140434942 27.284446333308406 16.33866360639276 -1 -1 0
102 1 -1.2 28.364811524184017 25.865585346914724 14.81692083458378 0 -1 0
2020 2 2.4 28.617810230905818 26.23535205437239 16.380169263757793 -1 0 1
168 1 -1.2 30.132445039920757 26.647645578505156 16.50431171301561 -1 -1 -1
477 1 -1.2 1.7453672204991968 28.33389013657877 16.71987317593717 1 -1 0
64 2 2.4 0.5737731733118847 27.89832522523586 15.70396532040602 1 -1 0
960 1 -1.2 5.530987766054633 28.492077103832933 15.18586790084296 0 -1 0
531 2 2.4 6.287686637193829 29.6987612977635 15.164420408221211 1 -1 0
1320 1 -1.2 12.710418037304578 27.57551226297806 16.235297715949837 0 -1 0
1109 1 -1.2 15.119818187907969 28.014041858392833 15.283112830221233 0 0 0
988 2 2.4 15.941480114617336 27.50864008230457 16.59022727958304 1 -1 0
837 1 -1.2 16.613968002343988 28.706314867192088 17.402352665789778 0 0 0
1340 1 -1.2 19.263830142516657 27.609877693989453 15.092425661783864 0 -1 1
1159 1 -1.2 20.233174134591916 30.00258428857448 15.157438703753234 -1 -1 0
841 2 2.4 20.602803382872942 28.350335924126778 15.521561526185748 0 0 0
2082 1 -1.2 20.938856936139356 28.626034634976524 17.056214897631165 1 0 1
1796 1 -1.2 22.122006272399393 27.619843051403578 15.208074780687662 0 -1 1
890 2 2.4 25.704352568610542 26.901087178369757 17.012348053502084 0 -1 0
1820 1 -1.2 24.78023620517467 27.885485867306617 15.994367912712965 -1 -1 1
53 1 -1.2 27.83581212086005 29.45811191200157 18.063080984672464 0 -1 -1
1090 1 -1.2 29.921258863256565 29.200333000802743 15.598319370331103 -2 0 0
1619 1 -1.2 2.80650958404053 0.45534042326893787 17.26703011010006 0 1 0
1179 2 2.4 4.7465093204217785 1.5461613815448982 19.39945199710807 0 0 0
185 1 -1.2 4.130765902468647 0.1543357318977737 19.98082779268289 1 0 0
2039 1 -1.2 4.13242520903631 2.3241171894134505 18.192134705571835 0 1 0
1001 1 -1.2 6.44803927122067 0.779552950040269 18.938743912299554 0 0 0
1868 1 -1.2 8.391789765115451 2.3582988407558867 18.88756729859222 1 0 1
686 2 2.4 9.222268378520809 0.780624227252285 18.59066857355187 0 1 -1
788 1 -1.2 9.60994415154422 0.440339089160415 20.129734088673672 1 0 0
762 1 -1.2 10.640504648805575 0.8495651166037174 17.575076860247368 1 1 0
293 1 -1.2 12.838220597256365 1.3674714501811178 20.65529281737871 0 0 0
119 1 -1.2 14.05257382392473 0.828044712349797 18.15092374474518 0 0 -1
566 2 2.4 13.733581431747629 0.4647701393423814 19.662145408714455 0 0 0
1019 1 -1.2 14.954807731957478 0.28805255766219706 20.70027710256955 0 0 0
176 1 -1.2 16.66187357309956 0.15763008950210503 18.91757790013289 -1 1 0
1791 2 2.4 26.39248908682196 1.225112590895593 19.143956713393987 0 0 0
1556 1 -1.2 25.6040106620523 -0.07310266801705367 19.380133031778996 -1 0 0
1030 1 -1.2 27.974653229580827 1.4306718441228132 18.584247690535722 -1 1 0
1550 2 2.4 28.941365791295958 0.40480967861490535 17.759323163239383 0 0 0
1472 1 -1.2 1.1894097931450764 2.674644006993568 17.65072552842809 0 0 0
2019 2 2.4 1.1538938351870371 4.147822821418828 18.724186092572378 0 1 1
1026 1 -1.2 5.186468175232521 2.2134697492082456 20.800667363335055 0 0 0
203 1 -1.2 7.2686339158474 4.513704747050454 17.994695955260102 1 -1 0
1142 2 2.4 8.533154043462723 4.008135630029146 18.97243216888965 1 0 0
451 1 -1.2 10.212597470521827 4.4027283306220415 18.620651884617363 0 -1 0
1310 2 2.4 10.317721247530235 4.574502329386214 20.221034283632143 0 0 0
1013 1 -1.2 8.553970085707343 4.616903664867936 20.615803606098382 0 0 0
1175 1 -1.2 10.77748301568179 2.9390060965090936 20.67867278878845 0 0 0
572 1 -1.2 16.104037087710733 5.20309550519993 19.40717493678611 1 0 0
467 1 -1.2 13.792538671632595 5.05253987679722 17.147995368948866 0 0 -1
23 1 -1.2 17.25446998998943 2.3356842328168934 20.125991723498988 0 0 0
2037 1 -1.2 18.33883487124796 5.488506476907128 18.300986481808405 -1 1 1
858 1 -1.2 21.923387142977763 2.644898037999754 19.3778436167772 0 1 0
1974 1 -1.2 23.311483908880085 2.9319251759243325 17.150851115836208 0 0 1
268 2 2.4 22.896294228645676 3.7378188955861145 18.447642864505013 0 1 0
669 1 -1.2 24.404757472342418 4.563278307435153 19.168494351143178 0 0 0
836 1 -1.2 25.71901880238142 2.469085528882315 18.497390071108356 0 1 0
1564 2 2.4 25.802933313788234 3.8618358236705577 19.22398048629266 0 0 0
1004 1 -1.2 27.034958609330815 4.775991512666792 18.50212530811789 0 0 0
1544 1 -1.2 30.23789729479382 4.842651965659233 19.283582803618145 -1 1 0
597 1 -1.2 2.1824651255726804 5.189379144458893 17.96103685882907 0 0 -1
1149 1 -1.2 0.4746353255038318 7.277878875991544 20.006805339167766 1 1 0
2026 1 -1.2 5.056813178725352 6.041582520386205 16.930847868928158 0 0 0
529 2 2.4 3.5850049002671507 6.317190666070233 17.756736482687415 1 0 0
482 2 2.4 6.696867956362006 5.706372187739963 16.938489480697253 0 0 0
1353 1 -1.2 7.4332270596381145 7.039044980632897 17.074122801554427 0 0 0
1656 1 -1.2 10.933902382302843 5.800258814181621 20.90540032275083 0 1 0
1325 1 -1.2 12.143549922084578 6.460820497338817 18.28519384690594 0 0 -1
1707 2 2.4 12.348206388680845 6.318940431267014 20.041457911983525 1 1 0
1600 2 2.4 13.65402870140058 6.466126238067194 17.77277994510589 -1 1 0
1522 1 -1.2 14.703193325876812 7.321813051912927 18.787485334351857 -1 0 0
747 2 2.4 17.594821997224347 5.8068005876319 19.699519222580392 0 0 0
2069 1 -1.2 18.16100940233248 7.2976684111586785 20.09528106798346 0 1 0
1640 1 -1.2 22.110712468223873 5.315441462329046 17.88713530813456 0 1 1
894 1 -1.2 20.40824206617442 6.772676379686887 17.53833111668672 0 0 0
944 1 -1.2 22.7119435919042 8.110743533986302 17.29620090695556 -1 0 1
601 2 2.4 21.921415037442653 6.999669016391805 18.004427375075856 0 0 -1
322 1 -1.2 22.12396030762665 6.901927903298803 19.64718403765907 0 1 -1
1198 1 -1.2 26.197449319744543 7.357834149835437 18.315173387777303 0 0 0
1190 2 2.4 27.292519062022706 6.309701460553452 18.188676222266945 0 -1 0
1913 1 -1.2 28.606690000526857 6.659354859658121 19.203045203610667 0 0 0
1168 2 2.4 29.644485724295865 6.236591075848988 20.248524620245615 -1 0 0
1207 1 -1.2 3.9888063547578096 7.3576818470343 18.92700897203188 0 1 -1
1970 2 2.4 5.209713326444512 8.364825497458645 19.393414475874724 0 0 0
1302 1 -1.2 4.456854897288461 9.669804458398763 20.034161835380154 0 0 0
1106 2 2.4 7.156161869775854 8.718184748018816 16.89250027321164 0 0 -1
1398 1 -1.2 6.081691815354328 8.668708259838354 18.05251643032176 0 0 0
86 2 2.4 10.12151446909874 9.164102870296064 17.60939703017303 0 0 0
1847 1 -1.2 10.710846738622774 10.798942000655725 17.440891661348836 0 0 0
1597 2 2.4 10.895205307179761 8.929825171339841 20.38071028662154 0 0 0
2058 1 -1.2 10.313091026195451 8.300215443133162 18.879019256379273 0 1 0
428 1 -1.2 10.952509954775936 10.545207899072652 20.077141839262612 1 1 0
715 1 -1.2 12.375236880739308 8.030330764301866 20.409340188631877 1 1 0
604 2 2.4 18.69025238246735 10.704431493984591 17.860265437255237 0 -1 0
1798 1 -1.2 19.062678066999123 11.399942868538258 19.320705198765097 1 0 1
1983 2 2.4 23.599143873019077 9.468311222233336 17.35641013091023 0 1 1
1322 2 2.4 25.58785616520023 8.344485150345111 19.427161172898238 0 0 0
1966 1 -1.2 24.596182922257594 9.306352817459244 18.56252751925987 0 1 1
1463 1 -1.2 26.820653394402544 9.262846512398665 19.931182081641424 0 0 0
1227 2 2.4 28.21658218446452 9.95471043801044 20.378800395611318 -1 1 0
371 1 -1.2 29.650138471719035 9.34777769011488 20.820443655648077 -1 0 0
754 1 -1.2 28.696007338105836 10.378021869997191 18.843834694305258 -1 1 0
325 2 2.4 1.9929755873729957 12.961680133635102 19.076331477863324 0 0 -1
1951 1 -1.2 0.7612553073407062 12.53376107723147 18.07171535041675 0 1 1
770 2 2.4 3.5574022676398394 11.742205154813103 17.172501979251525 0 0 0
935 1 -1.2 3.1536861036572414 11.882443971576397 18.780882985839973 0 -1 0
1630 1 -1.2 9.009930368711036 12.281824926576418 18.622648007023702 0 0 0
1012 2 2.4 10.70898903486201 11.652615691242442 18.80340270774898 0 0 0
1401 1 -1.2 11.701224275836713 13.080383229184395 19.34382027226759 0 0 0
1498 1 -1.2 14.731076942049958 11.082536633473088 18.972280030009472 0 0 0
2 2 2.4 15.57137962200251 11.961880886001452 20.12145999824891 -1 0 -1
127 1 -1.2 14.225583007392292 13.070402718514927 20.468441291854237 1 -1 -1
993 1 -1.2 16.602794073160943 13.072878715681284 19.216033636967946 0 0 0
1369 2 2.4 20.472686495170116 12.21761867446799 19.585574682226135 0 0 0
2064 1 -1.2 21.198115023918973 12.910103414358147 18.25557187813836 0 0 -1
713 1 -1.2 23.64619821005815 13.688176195022928 19.73212465687192 0 -1 0
1722 1 -1.2 28.640086405579716 12.655777991157423 17.515080779570393 0 0 0
1734 1 -1.2 27.8361642348543 11.496228255497961 21.091042785945543 -1 -1 0
992 1 -1.2 2.4901771506198074 14.530310200419454 19.17632732642786 0 0 0
2006 2 2.4 3.2724498219599756 15.837995393886752 18.859348651673987 1 0 0
1979 1 -1.2 4.620324892208383 15.488566130757121 17.9930711072079 0 0 0
1882 1 -1.2 6.897882913143199 14.230434021061134 17.46790757910614 0 0 0
1206 1 -1.2 7.9232397865626725 14.503468110276005 19.97211553644408 1 1 0
1525 2 2.4 8.151099948547243 13.714517719913047 18.51322905644207 0 0 0
1917 1 -1.2 9.437842823460812 14.484956580659667 17.524149274163364 0 0 0
688 2 2.4 12.996878666176825 14.119661969011839 19.875013404871993 0 -1 0
452 1 -1.2 13.434846802237058 14.942948953360585 18.45843938021268 0 -1 0
1747 1 -1.2 15.632152191998285 15.522214162430755 20.386965868275826 0 -1 0
1191 2 2.4 16.89239079197612 14.78008038603054 19.010132988039643 0 0 0
538 1 -1.2 18.10619906483069 15.831803641752094 19.61960832616252 0 0 0
1355 1 -1.2 19.940422599331125 16.104695990826666 17.756468621154454 0 0 0
1694 2 2.4 19.734002887991505 16.147900809065593 19.320129776884155 0 0 0
805 2 2.4 24.587510139576498 13.788191387741197 18.4341952915872 0 1 0
1176 1 -1.2 24.22378629295649 15.457697314743674 18.03156803392996 0 1 0
318 1 -1.2 26.225888892661317 13.705211787666563 18.222434132513342 0 0 0
1601 1 -1.2 27.81448757898241 15.489773150997172 17.60440852477237 -1 0 0
1789 2 2.4 27.80385239434587 13.910676915468816 17.967902635600794 0 -1 0
1245 1 -1.2 28.329727362305317 13.804123575008086 19.786149722176127 -1 0 0
2097 1 -1.2 3.4264283698804388 16.656936086203405 20.309167143258517 0 0 0
966 1 -1.2 6.8957105592345 18.980200983611393 19.257514921367164 1 0 0
1971 2 2.4 8.43692122526256 18.403148136002333 19.186786705200934 0 0 0
1931 1 -1.2 8.402399370448983 17.054723570978574 18.22706133072119 1 -1 0
1541 1 -1.2 9.232624742721052 19.12266386062459 20.403761201908598 0 0 0
1477 2 2.4 12.49736797442096 16.01579270156994 17.65754323980947 0 0 0
1962 1 -1.2 12.643652510707211 17.839486037385207 17.68595389582158 0 0 0
1277 1 -1.2 10.862679086651735 16.097816497850715 18.235364489561498 1 1 0
721 2 2.4 15.682770070768667 17.16401406262206 20.320940644809802 -1 0 -1
896 1 -1.2 15.767244205793506 17.834144457049717 18.897022516838838 0 -1 0
1152 1 -1.2 19.2997799833034 18.17948157477244 19.484687419225622 1 -1 -1
928 2 2.4 25.02070761030325 16.767829075739858 18.802585344142308 0 0 0
965 1 -1.2 23.60329213763521 17.751468515479914 18.494318362238744 -1 0 0
1580 1 -1.2 26.1225207290483 17.522286086520758 18.032966262067532 0 0 0
1064 1 -1.2 28.722315612103465 17.912464016658696 17.08954157651727 0 0 0
628 2 2.4 29.598009841410605 19.15759530014211 17.525138858587145 0 0 0
1616 1 -1.2 29.026547695047483 19.210670518455167 19.08357778345418 -1 0 0
1077 1 -1.2 5.848292333153645 21.518119919898528 18.793260340937493 0 0 1
830 2 2.4 6.35044918849168 20.087969134552253 18.161126952210665 0 0 -1
1126 1 -1.2 9.480231142921795 19.145474193989656 17.972493105871205 0 0 0
1467 2 2.4 10.394399390893206 20.622037697391416 17.472620509848575 0 -1 0
846 1 -1.2 11.765054497421312 20.481029495957607 18.522775096293014 1 1 0
640 2 2.4 13.2169460105094 21.564435827414115 19.03837082047495 0 0 0
1247 1 -1.2 14.081281973560095 20.418038533100688 19.619578548771706 -1 0 0
1246 1 -1.2 14.02515129014794 22.371411270547846 17.901537278769187 -1 0 0
1273 2 2.4 15.999046118866053 19.171581235100174 18.07897419740077 0 0 0
1907 1 -1.2 16.93552497980282 20.218163090108696 18.868503046708526 0 0 0
1153 2 2.4 17.080769687797055 21.034183931213416 20.373102916541935 0 0 0
844 2 2.4 21.354036842913068 21.29955086628409 20.0376901172212 0 0 0
679 1 -1.2 21.227068729414594 20.77611962694328 18.50253226251869 0 -1 0
1676 1 -1.2 23.016657643809843 21.13445046405217 20.020213045573904 -1 -1 0
1473 1 -1.2 25.24243196023467 21.698174580791605 18.38097166607114 0 0 0
523 1 -1.2 30.023387773628688 20.51279424694805 16.49435021703453 -1 0 0
270 1 -1.2 30.088774570574113 22.52450861572058 18.420544396967927 0 0 0
764 1 -1.2 0.4122357391265624 24.61912709952628 19.969809350370532 0 0 0
871 1 -1.2 5.6459365260521555 23.744428790661196 19.934513984062402 -1 -1 0
704 1 -1.2 9.830131597975864 22.072428025003315 18.183922301065067 0 0 0
329 1 -1.2 9.029963075267057 24.35672110247992 18.44272630034353 0 0 0
1622 2 2.4 9.47200244901335 24.691071157787484 19.829723785556055 0 0 0
1049 1 -1.2 12.821124088437257 22.418387910629203 20.196272087462162 0 -1 0
1459 1 -1.2 19.58451946329277 24.862656318018093 20.320292644365093 0 -1 -1
1315 1 -1.2 17.456659335260305 22.73025405163617 20.27596857471812 0 -1 0
672 1 -1.2 20.178374253665254 22.389036894596334 20.49506629266098 0 0 -1
374 2 2.4 24.627020663407045 21.743474880437354 19.955246637564002 0 0 0
1718 2 2.4 29.689886365494107 23.245855486535017 19.793868940535244 0 0 0
1805 1 -1.2 28.045877141850802 23.678194944652603 19.834574629411293 -1 -1 0
357 1 -1.2 7.792868613298349 26.882383807437808 17.095195456545767 1 0 0
1739 1 -1.2 6.209281894167857 26.3695464687271 19.51861306598888 0 -1 0
554 2 2.4 7.236121019720293 27.450545490032496 18.472566412139813 0 -1 -1
164 1 -1.2 8.467495385563439 27.730223673013107 19.554633826761254 0 0 -1
389 1 -1.2 10.220960687651221 26.152371415435233 19.97974478034622 0 0 0
1989 1 -1.2 13.094739316509356 25.130671410347208 17.340453944358767 0 0 1
1291 1 -1.2 14.759548813520537 25.275536127302267 19.542700334667643 1 0 0
1239 2 2.4 14.703308353065347 25.022173065195645 17.910700560578547 0 0 0
39 2 2.4 18.576493001326327 26.116330717749268 19.990205951051642 0 0 -1
1005 1 -1.2 17.098316008465325 25.821821897413447 19.86749699103636 1 -1 0
953 1 -1.2 19.283340937932895 26.87556613157188 18.831341349832634 0 -1 0
1112 1 -1.2 23.320904594742053 25.05926920607251 19.206775989187907 -1 0 0
1143 2 2.4 24.717766734240456 24.667617895616246 20.28159315315876 0 0 0
478 1 -1.2 25.961428724281003 25.26298788585255 19.125539418246575 0 -1 0
491 1 -1.2 28.604524593009184 25.339440709665492 17.80918546723635 -1 -1 0
1396 2 2.4 27.52291868301445 25.071175922230367 19.102479934527754 0 -1 0
209 1 -1.2 28.572716289068556 26.11717954857367 20.081413834069494 1 0 0
1371 2 2.4 1.7090616253366908 29.885631212980112 17.513850764695366 0 0 0
1410 1 -1.2 1.756121430401456 29.350251272746725 19.080319359699875 1 -1 0
532 2 2.4 6.604319189660262 30.03976507583303 18.029994648698413 0 -1 0
47 1 -1.2 6.177198265631565 28.64783781322614 18.69356528596236 1 -1 0
1025 1 -1.2 8.355275530046962 30.118194604216967 17.92824993752155 0 0 0
1409 1 -1.2 10.934183573915492 28.616556165153995 20.680844257232366 1 -1 1
1499 1 -1.2 12.110450687215147 27.401215879888248 18.52480731512031 0 0 0
1911 2 2.4 12.512466746837099 28.09331180223623 19.954433557825112 0 0 0
1184 1 -1.2 13.386131494188335 29.358437980636154 19.557599739222407 0 0 0
1777 2 2.4 17.555122978869406 29.821925832346153 17.861578597162783 0 -1 0
2154 1 -1.2 18.908859065088393 29.24637546429618 18.65783471231823 0 0 0
2080 2 2.4 20.184049280904777 28.271768357441946 18.456862812094094 0 0 1
2096 1 -1.2 21.301089387896017 28.67077735817655 19.577382422054047 0 0 0
1110 1 -1.2 25.99515439930589 27.603301075557237 18.687805420190674 0 -1 0
962 2 2.4 26.660580480892005 28.9776700886017 19.33758428284825 -1 -1 0
1942 1 -1.2 27.959044508755607 28.54921935842612 20.106993861378385 0 -1 1
1007 1 -1.2 0.17178911432607846 30.217005971661305 17.661434351769103 2 0 0
57 1 -1.2 1.6512754658147686 0.8349609884913988 21.081729169058196 1 1 0
1022 2 2.4 2.5697766755513882 30.066556742077136 20.337301434377594 0 -1 0
361 2 2.4 7.260411975014479 2.8861661525135633 22.899651624857444 -1 1 -1
823 1 -1.2 7.822483104086531 1.7697728693107195 21.745554850734987 0 1 -1
913 2 2.4 8.874146904202005 0.528039016738871 21.702645805496655 0 0 -1
1365 1 -1.2 10.341599502743417 1.2630454894423462 22.40317886380194 0 0 0
914 2 2.4 11.461805308907964 2.208955364823209 21.774253566951153 1 0 0
32 1 -1.2 12.47682334173189 3.2653520037175765 22.491883615709042 0 -1 -1
1213 2 2.4 16.52554689150525 0.5696148293372875 20.443184098957992 1 0 1
581 1 -1.2 17.34926118342805 0.4338714387570209 21.863571409261564 -1 1 0
695 1 -1.2 21.01026554942361 0.5873828166528042 20.78783038093198 0 0 0
496 2 2.4 21.435112136190842 2.215451825374763 20.954173657877185 0 0 0
970 1 -1.2 24.75217441880944 0.5059300241496473 22.574933931613074 -1 1 0
1587 2 2.4 26.14993508108477 1.1641341456878338 22.707865465465225 -1 1 0
1349 1 -1.2 26.456033307772007 1.585937993783338 20.913318420522195 -1 0 0
925 2 2.4 1.948582590093062 2.275463127653084 21.51471241272803 1 0 0
1655 1 -1.2 1.5408262633354508 3.265645960640103 20.15441780041002 1 0 1
863 1 -1.2 1.3065381069398698 2.3621111124730874 23.085689360458176 1 1 -1
2045 1 -1.2 3.601735152336648 2.72410499302335 22.33211536020914 1 0 1
637 2 2.4 4.749235128184567 3.592168982219097 21.633279415253963 1 0 0
657 1 -1.2 4.561065227483164 5.2425650287540355 21.099551282780617 0 1 0
1121 1 -1.2 6.179722357712566 3.9669312151879956 22.542188553118514 0 1 -1
1915 1 -1.2 8.61923482900461 3.29951168083628 23.56778405876025 0 0 0
1788 1 -1.2 17.86900456628253 3.102735560405608 22.322414512108555 0 0 0
620 1 -1.2 18.49238156459743 4.897539324769374 20.823724523118667 0 0 0
1659 2 2.4 18.404022136547436 3.3488705044004377 20.928567763989207 0 1 -1
860 1 -1.2 19.9208872548684 2.778561986715253 20.881234854062292 0 1 0
2073 1 -1.2 22.20356199138602 2.8238196315999677 22.188768080921115 0 1 0
1822 1 -1.2 26.401247817023336 4.497021888096452 20.706124717258188 0 0 0
973 2 2.4 25.90180514210221 3.957542804103372 22.311202687372116 0 0 0
1692 1 -1.2 26.317593814519796 2.674004262514108 23.319034466659385 -1 1 0
1769 1 -1.2 3.725127089562984 7.723915212466181 21.819994254473734 0 0 0
1910 2 2.4 5.168281681410896 6.634145653197288 21.679336231297857 0 0 0
621 1 -1.2 5.903092052067256 7.51092760393791 20.530747958690093 1 0 0
1637 1 -1.2 8.391627189401692 7.398116663608618 23.26314034991142 1 1 -1
1066 1 -1.2 13.70100239635703 5.772219829271548 20.742115037948718 0 0 0
424 2 2.4 15.252834583230623 6.231389285527612 20.402780723211922 0 0 0
285 1 -1.2 16.178636909043032 6.758732921895964 21.70655657745526 0 1 -1
1765 2 2.4 17.36060983466703 7.984706128330542 21.42581146807617 0 0 0
778 1 -1.2 18.358884802960482 8.399683284272887 22.670500015076342 1 0 0
777 1 -1.2 20.673636593489896 6.849220344562005 23.176908070536868 0 1 0
1082 2 2.4 23.091900636401476 7.579133865494459 20.505757341940893 -1 0 0
1535 1 -1.2 22.81262055523643 6.517166130885854 21.827768580366378 0 0 0
454 1 -1.2 24.77076737656941 7.350825247057946 20.406995403207887 -1 0 0
1627 1 -1.2 27.094209357369024 5.174879226424282 22.956385006745208 -1 2 0
1771 1 -1.2 29.25408078411682 5.951514538031319 21.664103777079024 -1 0 1
1249 2 2.4 28.807602840319163 5.4394798531718385 23.34559442067295 -1 1 0
465 1 -1.2 1.7876963673131114 9.492302159159157 20.87596360103006 0 0 0
1929 1 -1.2 0.4962710176158886 8.127984750862957 22.855790009291194 1 1 0
1406 2 2.4 0.5787386257710576 8.647861879165621 21.101109917528238 0 0 0
611 1 -1.2 3.515836478283038 10.144269035790593 22.638490010873852 1 -1 0
843 2 2.4 3.4176886954989993 9.274201761484504 21.28087594485627 1 1 0
1986 1 -1.2 5.908369908081179 11.650206628662009 22.122315375241108 1 0 0
1973 1 -1.2 10.293719539597813 8.460599035300007 21.817698430854605 0 0 0
641 1 -1.2 7.739933920923731 9.697074512750847 22.30064673513344 1 0 -1
1934 2 2.4 8.983209181054933 8.759232992159774 22.780477241514248 1 0 0
926 2 2.4 15.911798151467135 10.429593865628885 22.046721259310274 1 0 0
885 1 -1.2 14.228476557305598 10.731694548524024 21.69011982392287 0 0 -1
1651 1 -1.2 16.442669686908463 9.291590440242654 21.113648874179294 -1 0 0
1458 1 -1.2 21.586789227552423 10.483020029039158 22.89244432946416 0 1 0
1493 1 -1.2 21.247189624038814 11.052539427633812 20.41290996851753 0 -1 0
1378 1 -1.2 22.690968964044337 9.04791352711394 20.93501207600813 -1 0 0
385 2 2.4 22.300624676451946 10.506998256476034 21.42556366180854 0 1 0
802 1 -1.2 1.874890078722448 12.679874091735822 20.754526963923066 0 0 0
7 1 -1.2 1.362144120762173 13.887592740675432 23.462987591917603 1 -1 -1
367 1 -1.2 3.858345072486286 13.039098237115159 22.6624175688559 0 1 -1
124 2 2.4 7.616017049130052 11.356559732458267 22.385926351529985 1 0 0
2156 1 -1.2 8.58787478539602 12.2909830150012 21.47842896140335 1 0 1
1212 1 -1.2 10.044499050004525 14.485228183064983 21.65772258225961 0 0 0
736 2 2.4 13.314563533847313 11.38685046848003 22.859486155851616 0 0 -1
1294 1 -1.2 11.917045408602727 12.219942075912778 22.241676401715164 1 1 0
674 2 2.4 11.52372361670434 14.061165502702988 22.35953842305777 0 0 -1
1494 1 -1.2 16.65628941020293 11.5778494818621 21.34963386589397 0 0 0
202 1 -1.2 19.961600685741427 13.601566511794445 20.397711549163915 0 0 -1
1594 1 -1.2 23.3874050069804 11.656655482728876 21.591086904430703 -1 -1 0
508 2 2.4 23.539734077834183 13.396896648426551 21.39419217720108 0 0 0
1759 1 -1.2 21.96446249651847 13.783409180972265 21.93132743755047 0 -1 0
732 1 -1.2 27.756157131770177 13.933803800194092 22.365354181385907 -1 0 -1
74 2 2.4 28.238562530513594 12.944407948448609 21.237757019796682 -1 -1 -1
2003 1 -1.2 29.874038175959072 12.827671745839796 21.467946982174265 0 0 0
937 2 2.4 0.619119486447123 13.814334760371448 21.852543809719116 0 -1 0
1404 1 -1.2 0.236390575849561 15.500921099227433 21.806441376342036 0 0 0
1443 2 2.4 0.2284830122725469 17.020563566670955 21.777568490978176 0 0 0
1736 1 -1.2 2.732040649119737 15.581786930305675 22.817349077138005 0 0 0
1060 2 2.4 3.0219379153958696 14.161864911956492 23.536257392672816 1 0 0
360 1 -1.2 7.47253801716539 14.69897571059809 22.396541758574106 1 1 -1
853 2 2.4 8.519521030453653 13.943951548665781 21.41317553175058 1 0 0
1854 1 -1.2 12.38529242318244 15.04963388774224 21.249892479247084 1 0 0
2133 1 -1.2 20.946899733426594 16.252322886832232 20.603310607392903 -1 0 0
2129 1 -1.2 19.947770528952674 15.201261170690744 22.780240180199144 0 1 0
1036 2 2.4 20.575367674592037 14.677492017704848 21.362549377580546 0 0 0
1385 1 -1.2 24.63697657874094 14.243557964403895 22.301772414685686 0 0 0
1448 1 -1.2 25.0503859798396 16.188655013653065 20.482095605734532 -1 0 0
49 2 2.4 24.757497108638105 15.913728862351077 22.002826664381935 0 -1 0
714 1 -1.2 26.267550366256646 15.835278376329924 22.86406337861316 1 0 0
1205 1 -1.2 1.775561652231719 17.664074454959298 21.760083997292387 1 0 0
976 2 2.4 3.176771270220306 17.14147786390886 21.804062747657515 1 0 0
1953 1 -1.2 4.086199616300864 17.996279255942788 22.89856472859189 0 0 1
878 2 2.4 4.974655464659244 19.145285476124325 23.58892808890114 0 0 0
1507 1 -1.2 10.883079691686113 18.509640277085108 22.425571742359665 0 0 0
1155 2 2.4 12.261802585377142 18.624973973328807 23.322452712139235 -1 0 0
617 1 -1.2 14.498808358231553 17.95136123837241 21.036754544576848 0 0 0
2128 2 2.4 18.465292570367417 18.56580649779633 20.91151498134452 0 0 0
1356 1 -1.2 17.063752688841575 17.835725751896707 21.153383416720214 0 -1 0
1614 1 -1.2 19.562207257619157 18.400553797048847 22.029482557282034 0 0 0
1238 2 2.4 20.753315987804484 19.39145172250089 21.946701536835295 0 1 0
416 1 -1.2 22.146365149810595 18.74891842700632 22.606791657589966 0 0 0
589 2 2.4 23.495980202592957 18.294546784919987 23.19365251950865 -1 0 0
1520 1 -1.2 23.73888877467385 16.80938957525137 22.72848558507761 0 0 1
1283 1 -1.2 24.825441215913735 18.991716439160452 22.478958612249553 0 0 -1
1282 1 -1.2 27.44047736187194 18.793025220948863 21.593027169812395 0 1 0
1617 1 -1.2 29.294878324028204 17.341425511299366 20.72991443529189 -1 0 0
1180 2 2.4 28.83241346359512 18.90822204540228 20.651293988437356 -1 0 0
54 1 -1.2 1.6418076079582948 21.396160640679216 22.702922085737757 1 -1 0
613 2 2.4 0.08324463315576716 21.09832423676356 22.204071558086174 1 -1 -1
1800 1 -1.2 29.96843347626673 19.7122707599047 21.310857856911163 0 -1 0
142 1 -1.2 3.678332777851072 22.133549924640363 20.83988433336235 1 -1 0
359 1 -1.2 6.297397243574803 19.174322997537935 22.659875897389657 0 0 0
1335 2 2.4 7.139443033095172 20.69371219193446 22.728015454205057 0 0 0
659 1 -1.2 6.279908730777931 21.470526683255603 21.506789684348416 -1 -1 -1
664 2 2.4 9.941985877550563 19.820148645999705 21.683671508603535 0 0 0
1869 1 -1.2 8.592129998601854 20.282505757402063 22.85609418558671 1 0 0
214 1 -1.2 10.522477266677102 21.1018513803802 21.06851478515292 1 -1 0
1697 1 -1.2 13.169542438276657 19.54888755845823 22.204951528844983 0 1 0
1958 2 2.4 14.407583635652582 19.672889081887867 21.149953209138708 0 0 0
1044 1 -1.2 16.035056761000316 20.88553436076647 21.661650239391022 0 0 0
509 1 -1.2 18.487080570737938 20.202779236426306 20.923816869852626 0 0 0
101 1 -1.2 21.134919386892513 19.72692415637046 20.386264411176136 0 0 0
1146 1 -1.2 20.461684481315086 20.45952555961052 23.099714194472586 1 0 -1
2122 1 -1.2 25.82965667679752 21.164985185920397 20.993163910774648 0 0 0
1562 2 2.4 26.11193245991525 19.910506597394868 22.143933494220256 0 0 0
696 1 -1.2 2.12891380054788 24.24326185030588 21.784786179320847 1 0 0
541 2 2.4 5.245613230991221 22.045925469614627 20.3382784455505 1 -1 0
735 2 2.4 2.6013108236750653 22.712055711461954 22.082396385623177 0 0 0
1135 1 -1.2 10.764693818739085 23.913806531159924 20.834912047064787 0 0 0
160 2 2.4 11.570797737887704 22.47872003128755 21.312698444344218 0 0 0
932 1 -1.2 12.231580491531027 22.521081514124237 22.673176095054533 1 0 0
312 1 -1.2 13.840011044844541 23.935639173216515 24.287215471803147 0 0 -1
1528 2 2.4 18.824888456861544 23.43322790332723 20.804596360578497 0 0 0
237 1 -1.2 18.658137843960965 23.3241052244798 22.42752453389117 -1 0 0
776 1 -1.2 24.634677740706888 23.212194087267846 20.59139522264461 -1 0 -1
118 1 -1.2 29.98957383843634 22.260170492433698 21.136423597650968 -1 0 0
825 1 -1.2 -0.09691470420743187 24.705702558832606 22.95950150132217 1 0 -1
2152 2 2.4 0.887692675311019 24.961620801996784 21.513745545439676 1 0 0
1784 1 -1.2 1.3061808861649218 26.54337053591892 21.430863833420762 0 -1 1
1838 2 2.4 5.02668452340691 26.485706530988832 23.152383889869583 1 0 0
1017 1 -1.2 8.1148045833186 24.561517429832353 20.70123857742247 -1 -1 0
1969 2 2.4 6.406108748169915 25.005767574581316 20.553934825684863 1 -1 0
474 1 -1.2 5.576260739635323 25.55405087402969 21.936379042535116 1 -1 0
560 1 -1.2 9.029646403173878 27.428250749965887 22.272040609957557 1 -1 0
15 2 2.4 9.743758082241653 27.556810426810575 20.587036645144188 0 -1 0
1858 1 -1.2 12.852783985364336 27.053616636716125 21.097458594643708 1 0 1
1428 1 -1.2 16.090353622300967 24.78510536399366 22.025111493074906 1 -1 0
232 2 2.4 14.783336605087763 25.061948329032592 23.583512843259662 0 -1 0
1778 2 2.4 15.73853839089739 25.7410926767498 20.57632347986867 0 -1 0
1999 1 -1.2 15.371163726199942 27.309123818004664 20.909209677682643 0 0 0
344 1 -1.2 18.344412205768815 27.072925753726196 21.370107013127747 0 0 -1
811 1 -1.2 24.24264605042182 25.758013228767783 21.563481314464283 -1 0 0
304 2 2.4 25.37397641088384 27.01027328680767 22.047961687163433 -1 -1 0
1939 1 -1.2 26.7814300918066 26.75588353304971 21.45265393719917 0 -1 1
193 2 2.4 2.199410118793673 27.87953686350868 22.285159417697237 1 -1 0
1199 1 -1.2 3.0979678376757165 28.98052966395047 21.359072295773718 0 0 0
743 1 -1.2 3.3437548118505926 26.811009815910342 22.931021658336654 0 -1 0
2134 1 -1.2 6.201492705667123 27.828902698062016 23.094387419623093 0 1 0
1738 1 -1.2 8.108579552397835 29.933836596540942 22.43860431758674 -1 -1 0
519 2 2.4 7.8504092297558605 28.276778447484844 22.85109275037882 0 -1 -1
171 2 2.4 14.269339578239475 27.500146494607925 22.083578248117625 0 0 -1
2120 1 -1.2 14.046168407706856 28.90648806871943 22.953451460675147 0 0 0
1088 1 -1.2 17.990364758152158 28.667302200647466 23.452629057617685 0 -1 0
616 2 2.4 19.178097536532984 27.917282785277084 22.69439563440251 0 0 0
1959 2 2.4 21.232920627970525 29.506059896766622 20.967377413034466 0 -1 0
2051 1 -1.2 19.90606190743992 29.036480954601895 21.814687702734748 -1 -1 1
1073 1 -1.2 22.627819868060534 29.389853489760075 21.95199866291449 0 0 0
1492 2 2.4 23.984518748795725 29.650359810352114 22.900208023352356 0 -1 0
235 1 -1.2 25.111515292215604 28.748603302876205 21.940021851628387 -1 0 0
855 2 2.4 28.113178252641553 27.358662943679242 20.98066692294937 0 0 0
1905 1 -1.2 29.092866328692928 28.007581875117243 22.242132787317594 -2 0 0
1834 1 -1.2 3.6194136741918537 1.1953978038278963 25.015356198537305 1 1 0
459 2 2.4 4.147885601333721 30.34051246895947 26.05116814450312 0 0 0
668 1 -1.2 6.288307571083666 2.2894978279673532 24.12944494808339 0 1 0
99 2 2.4 13.555505295086583 2.9128925338408256 23.58868745110422 0 0 -1
1079 1 -1.2 13.603373591383505 1.2028508644418021 23.816634700058884 0 0 0
217 2 2.4 18.174283895950772 1.4253646494888585 25.841226564429316 0 0 -1
251 1 -1.2 17.510955094875882 2.729408547059953 24.972076953654497 0 0 -1
1411 1 -1.2 18.369953643049755 0.11598364646546663 24.535894861680664 0 1 0
151 1 -1.2 19.791843835329843 1.3706888200142413 26.506764442964222 -1 0 -1
1998 1 -1.2 27.501368969568038 0.2178003723582485 22.90630774274324 0 1 0
335 1 -1.2 27.869680441007613 0.6160118247363965 25.58634139193251 0 1 -1
370 1 -1.2 0.624076202409837 3.2894086025339386 25.79627571529132 1 1 0
1139 1 -1.2 1.7715577142046914 4.928645820106729 23.83223968491822 0 0 0
387 2 2.4 0.6999249015015012 3.6584896630703674 24.093349069873778 0 1 -1
61 2 2.4 4.955183762630558 2.438853125217408 24.85004318693676 1 0 -1
1745 1 -1.2 4.245854532426197 3.773541201014241 24.230812001895092 0 -1 0
13 2 2.4 9.01660522305604 4.134649907589919 24.909025489917966 0 0 -1
1908 1 -1.2 10.60410054310513 3.917156338714636 24.66333727081583 0 0 0
11 1 -1.2 8.403324765562898 3.472375178963925 26.454032171786903 -1 -1 -1
1709 1 -1.2 13.401516044205158 3.7734757363269624 25.152523187988905 0 1 0
2032 2 2.4 11.959625685672991 4.299894304852013 25.805272777170515 0 1 0
2057 1 -1.2 15.303524740639046 3.3114345328396197 23.22969427896172 0 1 0
1403 1 -1.2 17.075161703600706 5.060469582740509 24.073911067890666 0 0 0
2126 2 2.4 16.87239653989074 3.41782732092751 23.427143175021534 0 1 0
653 1 -1.2 24.529254406699817 4.686241351501534 22.669748913186694 0 0 0
1839 2 2.4 23.302484747123636 3.865829090222549 23.371755800497013 0 0 1
1450 1 -1.2 24.013433475716802 3.367002667747149 24.70107989027036 0 0 0
29 1 -1.2 22.13125252763357 4.973431764225927 23.838142996274875 0 0 0
2027 1 -1.2 29.5021259024754 4.216915154661861 24.109149122063027 -1 1 0
1141 2 2.4 3.03422936260581 5.143896768174375 24.811235160782655 0 1 0
827 1 -1.2 2.978421257608874 6.76736648579994 25.001869909364313 0 1 0
1208 1 -1.2 6.18841044605542 6.356886723296183 23.001578920626315 0 1 0
1308 1 -1.2 8.023141950817703 5.299978247720169 24.887397512926952 0 -1 0
1816 2 2.4 7.434116176326741 6.782106506252094 24.22019186012577 0 0 0
1880 1 -1.2 6.5452603942682925 7.715418797605671 25.338126063285294 -1 0 0
1818 1 -1.2 11.668641257546557 5.905585399571206 25.84752659108095 0 -1 0
786 1 -1.2 16.341951118375107 6.750509328800722 25.756443101089896 1 1 -1
1923 2 2.4 17.732295129902994 5.881699777534649 25.27366886482883 1 0 0
1665 1 -1.2 19.09521693734122 6.849458895472108 25.039767546515222 0 1 0
1491 2 2.4 19.403272031507214 7.691863785576698 23.83823242508935 0 1 0
1960 2 2.4 22.262173773390128 6.535938961828937 23.218226860815115 0 0 0
1181 1 -1.2 22.82524660396343 8.032987725658563 24.018526110218325 0 0 0
189 1 -1.2 29.45627866249423 6.723962319460917 24.297035396547145 -1 0 -1
1540 2 2.4 2.420061112090822 8.0429051177307 25.654555046362344 0 0 0
1938 1 -1.2 0.8339476365501323 8.073430629133682 25.40067878442795 1 0 1
1350 1 -1.2 2.7580172837960166 9.715697300110914 25.2851289519539 2 -1 0
2060 1 -1.2 9.95978465710007 9.158855837947602 24.1393751720983 0 0 0
623 1 -1.2 12.11576475005538 8.128584635402134 25.036522606288873 1 0 0
707 1 -1.2 12.103941043385225 10.034125479223922 23.240757448813003 0 0 -1
1083 2 2.4 11.288248202210266 9.482035886124214 24.7477120552838 -1 0 -1
1487 1 -1.2 16.10835726361825 10.016712575564165 23.77737512073967 0 0 0
1265 1 -1.2 19.824093083627947 9.148463537511816 24.612441181449363 0 1 0
1768 2 2.4 20.565434590478187 10.571339252570928 24.114670555822986 -1 0 0
1926 1 -1.2 21.76527592772326 10.397198476995422 25.127422083682863 0 0 1
1321 2 2.4 23.163864212469818 9.26422752245036 24.988351172951635 -1 -1 0
68 1 -1.2 24.402707308881322 9.996440604910896 24.003085973983836 0 0 0
55 1 -1.2 26.577348525317117 10.266940981101772 25.456507968094712 -1 0 -1
1096 2 2.4 25.315059383874754 11.304950442129078 24.913336506281958 -1 0 0
951 2 2.4 30.099511842117842 8.149419872092533 24.345615245520012 0 0 0
1819 1 -1.2 29.32284844878801 9.49653611046277 24.77921690149999 0 0 0
314 2 2.4 28.22580404610543 10.683376634055282 25.369492682367564 -1 0 0
1623 2 2.4 4.459952734911266 11.516198824852108 22.883724242227753 0 0 0
1809 1 -1.2 4.516428162652589 11.520735812597994 24.66547929255341 0 0 0
1808 1 -1.2 7.525407101131148 11.612331173044987 26.4839932204299 0 0 1
242 2 2.4 8.325182526525603 12.308713397895149 25.47430185000412 0 0 -1
1103 1 -1.2 7.821644510925509 11.869211793541497 23.95476650406946 0 0 0
924 1 -1.2 11.936225005771146 10.383757765691918 26.035229294575082 0 0 0
902 2 2.4 15.571884499638852 11.321946490071237 24.691560413200584 0 0 0
1712 1 -1.2 14.256598441213832 12.180443226138465 24.09528655633066 0 1 0
2034 1 -1.2 17.109679944421273 12.223321385121565 24.19192392252656 -1 0 0
1479 2 2.4 18.482025044147274 12.912107688693181 24.698320374806 0 0 0
108 1 -1.2 19.55597856961759 11.840696188372178 23.889491817286334 0 0 -1
612 1 -1.2 26.12031087750122 12.51496883949492 23.996971482595935 0 0 -1
1648 2 2.4 27.570577954053576 13.31712192601657 23.95718056444867 1 0 0
1865 1 -1.2 28.629257326654404 12.219389646230846 24.464796284330347 0 0 1
1903 1 -1.2 3.64429062789046 14.317809349986806 24.954382773576498 0 0 1
291 2 2.4 5.070461810083738 14.906293409432948 25.473102855616037 0 0 -1
1581 1 -1.2 6.1107676859547695 15.36286989171936 24.410845362163563 1 0 0
1400 1 -1.2 8.243876916652704 14.088417889697173 24.867144423332423 0 0 0
207 2 2.4 7.686488146283957 15.344034164371095 23.951031824150682 1 0 -1
1485 1 -1.2 11.710929943776812 14.516132702587837 23.87274724959864 0 0 0
1874 2 2.4 11.895653756909141 15.820429377531445 24.67591525279422 -1 0 0
893 1 -1.2 13.107516385687 15.416645906714743 25.905215428828367 -1 -1 0
775 1 -1.2 18.15500912921006 14.599897844494347 24.69797962195773 0 -1 0
833 1 -1.2 18.978239823403214 17.132774843719737 24.67233860815338 -1 1 -1
1886 2 2.4 19.54049863101255 15.593403339801121 24.30824364118091 0 0 0
643 1 -1.2 20.443747574818197 14.884228684350635 25.795639351908115 0 0 -1
676 2 2.4 26.570773931943787 15.871945311831553 24.459791082152844 0 0 0
1038 1 -1.2 24.982381402824885 15.776746341525772 25.13075738354064 0 0 0
609 1 -1.2 27.385196317827194 14.639575488911754 25.028785911402448 0 0 0
2157 1 -1.2 5.47170818294605 18.432029853139973 24.938545065532608 1 0 0
1418 2 2.4 4.982631038258651 18.130063754998016 26.39170994708321 1 0 0
821 1 -1.2 3.8413484970608667 18.895373281978983 27.087886813627016 0 0 0
1904 1 -1.2 8.180172647999164 16.60966627195777 24.896864902033435 0 0 0
1680 1 -1.2 10.62767177044443 16.372391047383193 25.51785735408731 0 0 0
627 2 2.4 9.255617146843202 16.515257390549518 26.41301735675661 0 0 -1
1956 1 -1.2 12.615763306767677 16.997499827670325 23.82249930553169 0 0 0
757 2 2.4 15.571830152941647 19.480329237121804 26.109949620215563 1 0 0
1468 2 2.4 18.478714439384948 18.323299705870923 25.74545718418181 0 0 0
1857 1 -1.2 16.743140965547997 18.471744268615993 25.2210858107846 0 0 0
1613 1 -1.2 30.030675063538936 17.122539920329466 23.326161111819644 -1 -1 0
1866 1 -1.2 27.683446465580662 16.904190162316752 24.939373199622086 0 0 0
1873 2 2.4 29.122157009509365 17.707966507844304 24.4722861167194 0 0 0
273 1 -1.2 28.318566935121122 19.321157778858943 24.061083103794527 -1 0 0
246 1 -1.2 2.64213339265523 21.209784460576333 25.55614440223459 0 0 -1
401 1 -1.2 4.312170459742844 20.487583308483913 23.894724209818918 1 0 0
1309 2 2.4 3.8899828469515505 21.897216959232516 24.827042174746943 0 -1 0
995 1 -1.2 5.150629631041066 22.17950044891007 25.64879284197594 1 -1 -1
934 1 -1.2 7.329492713676473 21.384166714468073 24.23238706205531 1 0 0
1338 1 -1.2 11.8130040136416 19.060756154209134 24.732364080334897 0 -1 0
494 2 2.4 12.581245479088519 20.120747262149067 25.799688280146526 1 -1 0
2132 1 -1.2 12.690430473405943 21.71351422688593 25.174539881297363 0 0 0
105 1 -1.2 14.085356053123412 19.288069925698952 25.531162013381962 0 0 -1
636 1 -1.2 15.811664301640688 21.088220244451204 26.00426914907803 1 0 -1
94 1 -1.2 19.348040300799124 19.5654071070745 25.23376896471039 0 -1 -1
1513 2 2.4 20.128127759355483 20.94987334933846 24.571849272202233 0 -1 0
840 1 -1.2 21.68804380299522 20.670047143577698 25.42692105851474 -1 0 -1
1735 1 -1.2 23.16574301981399 18.900615146094186 24.61135019298995 0 -1 0
1813 2 2.4 23.35137218436037 20.823931436558276 25.299589635068045 -1 0 0
296 1 -1.2 26.506140425207633 20.76518279262108 23.529763254514258 -1 0 0
81 1 -1.2 29.54028838664368 21.305608385679513 23.368033658251093 -1 0 0
2054 2 2.4 27.997930272736653 20.800196092528342 24.304107806884506 1 0 0
971 1 -1.2 27.890086772319844 21.304896599006213 25.781716540474854 0 0 0
79 1 -1.2 3.366669724808046 22.839106761330918 23.54279190644638 0 -1 0
375 2 2.4 6.664044317345674 22.651556616679276 25.56320252561803 0 0 -1
810 1 -1.2 6.957773503572599 24.016493180774905 25.07720191204006 0 0 -1
575 1 -1.2 11.577341628705188 23.878571246862396 25.20083923075597 1 -1 0
14 2 2.4 12.557431414747642 22.98532711529098 24.230022832399897 0 -1 -1
1546 1 -1.2 16.9741488985224 23.540025089628237 25.988676094014632 0 0 0
1850 2 2.4 16.955020698631554 25.013469749009555 25.42700785520633 0 -1 0
835 1 -1.2 18.32377972615799 24.91854620881878 24.454725296262286 1 0 0
602 2 2.4 18.911492583099864 23.51625776756997 23.939374462624258 0 0 0
131 1 -1.2 18.97291277347968 21.922945965837293 24.74031189628361 0 -1 -1
431 1 -1.2 20.509266931544133 24.328676669450296 24.04817855457689 0 0 -1
1976 1 -1.2 23.949993796471645 21.995428102284066 24.259640301817775 -1 0 1
662 2 2.4 24.329792708267572 23.367351563868464 25.503264488773823 -1 0 -1
1253 1 -1.2 24.26539239562407 24.82697512497429 25.052785015220262 0 0 0
274 1 -1.2 25.887742869778936 22.754079979706667 25.59892366569993 0 -1 0
1947 2 2.4 27.50055341890851 23.03167138576459 25.975320623718346 -1 0 0
332 1 -1.2 28.460257575312937 23.995278803271017 24.913843032016317 0 0 -1
1392 1 -1.2 0.7196758551821263 25.015041460392137 25.492617646241808 0 0 0
1641 1 -1.2 2.4180515181740505 26.797157659217145 25.405997382812863 1 0 0
75 2 2.4 1.3954837999445222 26.08320339811387 26.47083785071067 0 -1 -1
2088 1 -1.2 4.861895709477332 26.34223474529233 24.889788500707272 1 0 -1
1046 2 2.4 3.9738727539630236 27.30814885043629 25.605207172284636 1 0 0
2000 1 -1.2 6.777585641738968 26.75695293650781 26.044821303907966 0 0 0
1599 2 2.4 8.034038055835927 27.83382075005527 26.066294771084554 0 0 0
2106 1 -1.2 13.78590121803735 26.219801579404052 23.083785645491986 0 0 0
1737 1 -1.2 15.754608692457523 25.797099815173667 24.799302356775257 -1 -1 0
1849 2 2.4 20.753914770984675 25.813477184839947 24.457184142619393 0 -1 0
1571 1 -1.2 19.989416663132786 27.255923608096552 23.847059240060528 0 0 0
1856 1 -1.2 22.270309743975155 26.487570754456424 24.585813897924922 0 -1 0
1300 2 2.4 23.95297153412275 26.41047466440425 24.591670833111216 0 0 0
1687 1 -1.2 24.740347446645416 27.418396073593073 25.818859597784055 0 0 0
1832 1 -1.2 25.34614299489474 26.70237381137117 23.56530943115166 0 0 0
303 2 2.4 29.874415880161706 25.02250424289031 24.3928787101106 0 0 -1
1421 1 -1.2 29.802230025463945 26.84375827633616 24.451920497793356 0 -1 0
126 1 -1.2 1.3027451486141874 28.60677446638466 23.481795993600763 1 -1 -1
882 1 -1.2 4.204656663902956 28.824797027993473 25.32449113263451 1 0 0
179 1 -1.2 7.954031473198965 28.29632615918959 24.54628895544283 0 -1 0
870 1 -1.2 14.054183285356048 29.88955906866301 25.512331726811073 -1 -1 -1
1859 1 -1.2 15.846010019682108 -0.061194350928907223 23.988499383247557 0 0 0
2068 2 2.4 14.303762725354714 30.318696205279725 24.07187403631944 1 -1 0
1888 2 2.4 17.362162968393513 30.262700164259943 23.363297738900258 0 0 0
922 1 -1.2 24.047234989964835 29.56118815294281 24.496749013308698 0 -1 -1
445 2 2.4 25.285176818630063 28.887974365778984 25.369201978269107 -1 -1 0
1268 1 -1.2 26.904628877137814 28.65686255230942 24.54164904030597 -1 0 0
1503 2 2.4 29.961881984916047 28.20833835933522 23.61217049710326 0 0 0
1323 2 2.4 27.93939089249225 29.893479364383442 24.4271443265801 0 -1 0
804 1 -1.2 29.609401387726052 29.544068300621777 24.501856684404885 -1 0 0
1547 1 -1.2 0.6720674312064198 1.176648602768647 27.615723574183342 0 0 0
1215 2 2.4 1.66063593575325 -0.11752234328981995 28.019980916097598 0 1 0
1785 1 -1.2 2.8320244558883525 0.1685478534572411 27.03753599356304 1 -1 0
2135 1 -1.2 5.74081375300308 30.202722481916343 26.653070113122254 0 0 0
213 1 -1.2 8.446597309209569 0.8870547640292551 27.524318282971528 1 1 -1
349 2 2.4 8.293902317977167 2.5191878360624127 27.822131655973756 1 0 0
873 1 -1.2 14.736688036315776 1.7473350704639627 28.916632168554383 -1 0 0
889 2 2.4 16.56650682378441 2.0387314884167753 28.586242198518203 0 0 0
546 1 -1.2 17.29023736071389 1.2154461692424423 27.227243384505 0 0 -2
1729 2 2.4 20.669888770543817 0.6239335350506143 27.487759820403046 -1 0 0
1230 1 -1.2 21.926121097306098 1.533627717452426 28.489693172210057 -1 1 -1
133 2 2.4 23.21582282151481 0.5788563015588583 27.86650501622294 0 0 0
1639 1 -1.2 23.642304724863408 1.5828068014150023 26.66514943919099 0 1 0
1195 1 -1.2 21.922690625598122 30.317144957963468 26.881386969871482 0 0 0
955 1 -1.2 26.31633230836462 2.3997916077078485 26.50148584728881 -1 0 0
256 2 2.4 26.587136628453393 0.7627116243697906 26.84878515301553 0 1 -1
990 1 -1.2 27.115965025411562 0.33052501982801935 28.28037594068484 0 0 0
241 2 2.4 0.9330011401762757 2.8187155614737094 27.516464365237756 1 0 -1
545 1 -1.2 30.25818704584205 3.629053555561622 28.565087684022828 0 -1 0
1930 1 -1.2 2.526777736002958 3.0055966950968767 27.933733147573363 1 1 0
727 1 -1.2 3.2843019114940675 5.108691474956661 26.422116256381262 0 0 0
266 2 2.4 3.353483381529292 4.440120538735178 27.97184832471845 1 0 -1
680 1 -1.2 4.782897486519367 4.357995967803303 28.72064087318707 0 0 0
1650 1 -1.2 5.219779651318395 2.821995247427371 26.561481576954428 1 1 0
1311 2 2.4 5.398541428095967 2.830004294530395 28.28889166357807 0 0 0
1748 1 -1.2 6.964873820392623 2.774242253563693 28.78314909400025 0 0 0
1517 1 -1.2 10.003269946266117 2.6539247289623042 28.627888960284352 -1 0 0
1287 2 2.4 10.776294149436863 4.305788427103964 28.2738471332317 1 1 -1
536 1 -1.2 11.695379473636415 3.619473950497477 27.290732445595115 0 0 -1
1943 1 -1.2 16.76167613381351 3.617117815187197 28.17970431713726 0 1 0
1814 2 2.4 17.65724046485981 5.046779157070738 28.048893910026752 0 0 0
1719 2 2.4 24.61666379368294 2.9150341516715232 26.276718177204973 0 1 0
2067 2 2.4 24.277588294892816 5.302637751858452 28.531649932873485 0 0 0
1763 1 -1.2 24.588799371683415 3.9992089746551693 27.437714425221927 -1 0 0
492 1 -1.2 2.4266237739979326 7.8934815046844555 27.395854763016548 0 0 -1
1810 1 -1.2 2.6507682135034494 5.4035749745473804 29.012717839855856 0 0 0
875 1 -1.2 6.426971935736259 7.084128137370327 27.878142336740865 0 -1 0
1358 2 2.4 7.533180447453868 7.82863579967252 26.76695167365308 0 0 0
1068 1 -1.2 9.041792155385417 7.66245954376687 26.543052276201983 0 0 0
146 2 2.4 9.870252768185612 7.2235123082300055 27.824898197437392 0 0 0
2023 1 -1.2 9.904346978510455 5.675833589495279 28.073168806532912 0 1 1
1922 2 2.4 12.560453554244067 7.1241617831460085 26.36152194076843 0 0 0
1255 1 -1.2 11.465272759491423 7.539895695435974 27.592043463532534 0 0 0
525 1 -1.2 14.116116805654679 7.333986987800707 26.618474014275833 0 1 -1
856 2 2.4 15.805949756517103 7.355549988071206 27.192421356477343 0 0 0
1618 1 -1.2 16.234648676438578 6.014018600937033 28.057253877421342 0 1 0
1376 1 -1.2 18.381866285419438 5.048450064578879 26.502548463281524 0 0 0
897 1 -1.2 23.242381786249474 6.377925711277312 27.767352490713943 -1 0 0
1720 2 2.4 22.8432799963301 7.929051608063172 27.638771231900538 0 1 1
1918 1 -1.2 25.77482405458889 5.637168396350677 28.883107952744393 -1 0 0
1059 2 2.4 1.684243926078364 8.733455007837629 28.655919181915785 1 0 0
480 1 -1.2 0.30241469978723323 9.038553815246619 28.09154702201254 0 0 -1
1766 2 2.4 3.902677423319749 10.807666931654031 25.94695858360042 0 0 0
1028 1 -1.2 5.107702460342231 10.290571854919884 26.941772046677364 -1 0 0
1872 1 -1.2 2.9046088843957403 9.882937466087446 29.02208287270408 0 0 0
959 1 -1.2 7.579963486292366 9.275996073162384 27.504551764551362 0 0 0
1348 2 2.4 6.759455494831452 10.594039762984123 27.4908464871079 0 0 0
1842 1 -1.2 15.210860667247182 11.21266062530402 26.186216577933788 1 0 0
820 2 2.4 16.00277752491824 10.71504807844971 27.46863175891664 0 1 -1
501 1 -1.2 16.25884753197238 8.98460861545562 27.091759568809152 0 0 0
1746 1 -1.2 21.196845883802798 7.9433903463668365 27.640928336177456 -1 0 0
1395 2 2.4 20.285352432950503 9.085916259876456 28.56241122898731 0 0 0
294 1 -1.2 19.998013311078957 10.835004635980631 28.4724400475186 -1 1 -1
1147 1 -1.2 23.64571531997754 8.653404289926113 26.45426780331218 0 0 0
377 1 -1.2 25.730126427851694 9.673281111253036 29.654155606352482 0 1 -1
543 2 2.4 29.525272024726075 10.49717129499483 28.2042587257486 0 0 -1
645 1 -1.2 29.114548329449725 11.080571168163551 26.62835380947434 0 0 0
1824 1 -1.2 28.516064388535003 9.713507603260464 29.192529758702555 -1 0 1
983 1 -1.2 30.080393954660863 11.839056407511908 29.000965996662057 -1 -1 0
1425 1 -1.2 3.129145659899681 11.950588828896345 26.81891619951581 1 0 0
1576 2 2.4 3.0334310358857484 12.969901892293375 28.1125845308701 1 0 0
697 2 2.4 6.145532150671042 13.335128005666967 27.969053869379195 1 0 -1
1955 1 -1.2 6.407480003994734 11.792554932969475 28.664745208029565 0 0 0
1440 1 -1.2 9.836681340680425 12.150671365544547 25.88716386458915 1 1 0
1961 1 -1.2 10.918443439033272 10.990479543750931 28.290050564459445 0 1 0
1982 2 2.4 11.240712984618321 11.57854952173733 26.74536390486243 0 0 0
1723 1 -1.2 12.307111506483906 12.838790244444981 26.628362025192715 0 0 0
390 1 -1.2 15.110803938504828 10.840172737043922 28.79698110247271 0 2 -1
1604 1 -1.2 18.874011871644836 12.112880094314331 26.061504193621214 0 0 0
475 1 -1.2 17.299640690486193 11.348344439848676 27.989353201908727 0 0 -1
182 2 2.4 18.851864084004184 11.756861755637901 27.76270975110671 0 0 -1
1559 1 -1.2 19.088087571230872 13.21920169695872 28.50919166870386 -1 0 0
968 1 -1.2 24.037848670891844 11.164105791784179 28.197335502102405 0 0 0
438 1 -1.2 22.287993547595175 12.99423668372209 26.54860921970968 -1 0 0
626 2 2.4 23.75962762057223 12.602688618165002 27.16293777367131 0 0 -1
718 1 -1.2 24.2790126162609 11.786958197431396 25.842013547401827 0 0 0
1527 2 2.4 1.5555317522317382 15.484216083401721 28.403119499499088 1 0 0
1137 1 -1.2 0.17867476993725562 14.732038198359682 29.150271354987872 1 0 0
2035 1 -1.2 2.2188796972914546 14.34319904102187 27.47153479227064 1 0 0
2050 1 -1.2 5.929463328469127 13.723800258110538 26.498301857375143 1 0 0
1280 1 -1.2 7.177597897103529 14.4528571690106 28.920777845748034 1 0 -1
1848 1 -1.2 9.086076424992084 15.099124469278548 27.129746913321554 1 0 0
181 2 2.4 8.856377885084383 14.383816510730576 28.826418843302406 1 0 -1
1032 1 -1.2 11.653422989430121 14.539140364964766 28.34165234782181 0 0 0
1465 2 2.4 12.85727591642326 14.304554712449479 27.12216103448941 0 0 -1
2011 1 -1.2 13.952038463810448 14.787018909716291 28.32925529507393 0 0 0
165 1 -1.2 19.0438759525981 15.892132438611347 29.287757539608556 0 0 -1
748 2 2.4 19.9123850026855 14.416153239524812 29.135689055280306 0 0 -1
862 1 -1.2 21.052800038780635 15.153257128045299 28.287882123996827 0 1 0
484 2 2.4 21.743386535462587 14.67916043624014 26.709212476840953 0 0 -1
537 1 -1.2 22.842253088161108 15.748099093818738 26.663269724281573 0 0 0
848 1 -1.2 24.6850153703475 13.47026524963053 28.189249378283254 0 1 -1
1831 1 -1.2 24.840780624901637 16.397885807418675 28.05091659923286 0 0 0
921 1 -1.2 1.3165249355821909 16.57447483939485 27.123817083621862 1 0 0
323 1 -1.2 1.0457666621130688 19.62240591881592 27.39569687911409 0 0 -1
1058 2 2.4 0.5238848194785601 18.00099933129358 27.026951459159722 1 0 0
178 1 -1.2 4.924024275410682 16.237112588121118 26.25968631760543 1 0 -1
1435 1 -1.2 2.6657808431713423 16.47717006337838 29.15825530381712 1 0 0
798 1 -1.2 6.189915986275694 18.461864257388566 27.332071481650075 0 0 -1
172 2 2.4 7.445371818930041 18.270118364856685 28.188121706842985 1 0 -1
1595 1 -1.2 7.058483861583275 17.0030388285219 29.101252924525127 0 0 0
1390 1 -1.2 8.70165332484123 18.004698444088437 26.9430124740948 0 0 0
872 1 -1.2 10.803836714228545 17.285584932659102 28.221116631617278 0 0 0
1045 2 2.4 11.128007344869625 15.827325922818481 29.129265183294557 1 0 0
765 1 -1.2 13.376488974420312 18.059288934130723 28.087499274051773 0 0 -1
369 1 -1.2 15.705084551652428 18.751923977205838 27.491708812169154 -1 0 -1
2042 2 2.4 14.806650682932826 18.366741849765692 28.732422391265885 0 0 0
1303 1 -1.2 18.823860126974974 17.743662912502497 27.243094199232104 0 0 0
25 2 2.4 19.32159613779103 17.425441915070458 28.756298638922377 0 0 -1
1891 1 -1.2 20.882304969115292 17.98830400461287 29.010516866077964 0 0 0
1008 1 -1.2 23.15722421580107 18.718702239715096 28.171345642179354 0 0 0
1633 2 2.4 24.2760028628222 16.52259028682845 26.384605975837417 -1 1 0
790 1 -1.2 24.70359154735515 18.03022453710611 26.50460132597601 0 0 0
738 1 -1.2 30.09533292236342 17.424797963407027 25.77478408627674 -1 0 -1
1679 1 -1.2 29.748861482799565 17.54156192567913 28.231916754379213 -1 1 0
1935 2 2.4 2.5646405038559603 20.22227470967461 26.96755356363899 1 0 1
1495 1 -1.2 3.303074256140838 21.355470385284104 27.929497415632472 1 0 0
347 1 -1.2 7.4174127352131025 21.681112742781703 26.944969953972276 1 0 -1
17 1 -1.2 8.506315301597967 19.248277104452978 29.310644599352777 0 -1 0
313 2 2.4 11.88057192449524 18.686010561051354 28.268408827111195 0 1 -1
593 1 -1.2 11.69602308056937 20.024520903451336 27.189395360439995 0 0 -1
1584 1 -1.2 11.728179236733396 19.46434998300669 29.71094002279176 1 0 0
279 2 2.4 16.532427149568445 22.268805956446673 26.899622848137955 0 0 -1
656 1 -1.2 15.33354912630294 22.543176105820788 28.19218458146859 0 0 0
563 1 -1.2 17.940055663911473 21.597503759244454 27.71028241632266 1 0 -1
573 1 -1.2 19.917435010626097 21.64072938866329 29.185947911415912 1 0 0
712 2 2.4 24.662380294470804 19.280588105597737 27.41211344895747 0 0 0
1776 1 -1.2 24.240067646309175 20.606300342043955 26.496509906165016 0 0 0
2004 1 -1.2 25.84569233435375 19.938154484666654 28.315326977336472 0 0 1
455 1 -1.2 7.890253537233246 24.483554868606994 27.706272350741532 0 -1 0
183 2 2.4 6.712867740461829 25.146050836987413 26.399356445313586 0 0 -1
2153 1 -1.2 8.436188521462872 21.7799468721248 28.960295332128165 0 0 0
175 1 -1.2 9.987361480051568 23.081530220291263 27.105401609713017 0 -1 -1
2150 2 2.4 8.383506108188637 22.86656554464528 27.634843887728163 1 0 -1
650 2 2.4 11.26646760033219 24.035143123972816 26.94560708493545 0 -1 1
1211 1 -1.2 12.719412705601467 23.444395411369864 27.540449518896043 0 0 -1
1108 2 2.4 14.14255920682869 23.8251849913215 28.40097432503115 0 0 0
1319 1 -1.2 14.498290376394937 25.423107514118893 27.799156094316974 0 -1 0
1827 2 2.4 18.933944647488275 22.69084311907502 28.414330149171885 0 0 0
113 1 -1.2 19.343738773889157 23.767145261716962 27.358189683770995 0 -1 -1
59 1 -1.2 21.87015258367908 24.99632155981518 27.942319685770432 0 -1 -1
115 1 -1.2 23.36979422526272 23.00979860222637 26.732485642384848 0 0 -1
1672 2 2.4 22.92600559957028 23.713226709721614 28.332109203750928 0 0 0
610 1 -1.2 27.620410815653802 23.103282403918328 27.681623294054507 0 0 0
1634 2 2.4 27.439675936741427 23.14620311277912 29.381017999593816 -1 0 0
276 1 -1.2 2.573896404633265 25.298560404932765 27.11547493601854 0 0 -1
2137 2 2.4 3.8522804152969656 25.836224261304576 27.790252326377328 1 0 0
42 1 -1.2 4.025053835434355 27.351491370343062 27.34195958993895 0 -1 -1
78 1 -1.2 5.131234120704953 24.786867042873048 27.202114312463824 0 -1 -1
980 1 -1.2 9.373803064608941 26.74448592138905 26.53399637069985 0 -1 0
31 1 -1.2 11.231709410793016 25.52181994878305 27.618145495594 0 -1 -1
1357 2 2.4 10.727405081741217 27.202117588868504 27.383199915479135 1 0 0
905 1 -1.2 10.782627912484646 27.63049531789492 28.815224817396192 0 -1 0
1192 2 2.4 15.610902106639825 26.48887725243806 27.551588887146504 0 -1 0
582 1 -1.2 16.037116945950817 26.986821952338786 29.10406812377137 -1 -1 0
287 1 -1.2 14.951800486080847 27.8221866617119 26.82760753149668 0 0 -1
1968 1 -1.2 17.104195851507825 26.101965629349827 26.804130261053118 0 0 0
1708 2 2.4 20.25948040048515 25.215114251934175 27.52470577070448 0 0 0
1949 1 -1.2 20.22162477747084 25.87832633266936 26.072978044918653 -1 0 0
177 1 -1.2 19.345117733280844 26.207294839292423 28.621342841926054 0 0 0
583 1 -1.2 0.4439576979550484 26.851936442359758 27.31987488262093 0 -1 -1
249 1 -1.2 0.7039400483487598 29.113759210099456 28.052374911243014 1 -1 -1
975 2 2.4 7.42665476419912 30.0760051116591 27.66039991327192 0 -1 0
441 1 -1.2 7.54802402846216 28.525444455895475 27.344968029660944 0 -1 0
1509 1 -1.2 12.040935988947599 28.000528152942938 26.65500578040903 0 -1 0
446 2 2.4 13.585071733510803 28.684293514053294 26.620980537677326 0 -1 0
1688 1 -1.2 13.324747150303553 29.918451514948742 27.902061658816237 0 0 0
328 2 2.4 14.459355888139797 0.1599429124528603 28.79871403231654 0 1 -1
2099 1 -1.2 15.795255231377356 29.59839894300852 28.64916560665869 -1 0 0
1704 1 -1.2 19.99770785119963 30.189304242004333 28.530286314939417 0 0 0
93 1 -1.2 25.33143423091146 29.800726755893773 26.620593978267184 -1 0 -1
1693 2 2.4 30.165162542766634 27.98159080316932 28.55631691563177 -1 -1 0
1284 1 -1.2 28.531926249663087 28.177698913587424 28.486567640477226 0 0 0
1500 1 -1.2 0.45470738954380363 30.291014896223498 31.73693589563904 1 -1 0
510 1 -1.2 2.3443725960688164 0.07383733903260521 29.446892818474016 0 0 -1
557 1 -1.2 3.471975118682114 1.1975329346333725 31.699094602669625 0 0 -1
1713 1 -1.2 4.472968551469284 1.6462285678921136 29.280747856292482 1 1 -1
440 1 -1.2 6.273467178243661 30.3603333206736 31.715271135093698 0 -1 0
2071 1 -1.2 14.160440738701531 0.17785067610225652 30.4085068465075 0 1 0
1266 1 -1.2 17.291923953133708 1.8445135567543705 30.20884433825499 0 1 -1
997 2 2.4 18.405112443275147 1.45797209609755 31.314288417604388 0 0 -1
1543 1 -1.2 19.58561557477285 2.661101886750124 31.49779993184855 0 0 0
442 1 -1.2 22.02249177812161 30.361193454657293 30.346049097461606 -1 -1 -1
726 1 -1.2 24.08639168684531 -0.03433039586576712 29.121589556631502 -1 1 -1
110 2 2.4 23.598042502913 0.21214947936778317 30.704119605481 0 0 -1
46 1 -1.2 23.87809650084001 1.64753081856822 31.40030447280068 0 0 -1
781 2 2.4 29.341517178871115 0.5334281049354505 31.371916475327914 0 0 -1
2159 1 -1.2 29.237083853142877 2.1896657821706134 30.57176435014595 0 1 0
822 1 -1.2 28.417113963452394 30.163021652960495 30.56270718033522 0 0 -1
819 2 2.4 1.9469953345785718 4.711660829858441 31.725879457668587 0 0 0
1054 1 -1.2 0.46322322279270933 4.699852630465571 30.899720425476765 1 1 0
464 1 -1.2 2.709801266316446 3.4141547717177376 31.160086861464222 0 0 0
1802 2 2.4 4.075484733066937 2.5508783416592538 30.956989284184168 0 0 0
1833 1 -1.2 5.232693066015605 3.633897415345144 31.340264542338662 1 1 0
744 1 -1.2 7.657907295761061 4.175790642275181 31.76850163237734 0 0 -1
1047 2 2.4 6.2040451747303 4.98355507956231 31.67425427478915 0 0 0
730 1 -1.2 11.393708914466178 4.503256657507983 29.844359170641134 -1 0 0
1132 2 2.4 12.5266576939512 5.270378532181953 30.66321886980552 1 1 1
692 1 -1.2 14.044968911972777 4.632708075872483 30.548488504475465 0 0 0
831 2 2.4 15.245882254095191 4.828291211823768 31.616656061832245 0 1 -1
324 1 -1.2 18.726494021886072 5.371583093550814 29.224227716970542 0 1 0
1889 1 -1.2 16.721824205775437 4.605958036634029 31.17017641433513 0 1 0
1288 2 2.4 18.214761115124286 5.5312779264668865 30.788514534191805 0 1 0
629 1 -1.2 19.335704790003625 5.308267967876071 31.81364335970158 -1 0 -1
739 1 -1.2 21.73742862364152 4.314943482362786 32.05651815006463 0 1 -1
132 1 -1.2 23.518145891728622 4.576985208477479 29.99496964926512 0 0 -1
1504 2 2.4 22.889594644816864 5.336554922248896 31.407314708389585 0 0 0
1125 1 -1.2 24.277230789868593 4.956259458927432 32.33770897578342 0 1 -1
1531 1 -1.2 28.304280796982955 4.710452866043753 29.817837885029725 -1 0 0
244 2 2.4 29.626199088355015 3.7428083610777665 29.947353835370617 -1 1 -1
1772 1 -1.2 1.7616509014674153 7.758217420133952 30.0079488426622 1 0 0
1078 1 -1.2 2.9650367987866653 6.027405664693294 31.629253682782547 1 0 -1
1743 2 2.4 3.055447185714951 6.589710145210994 30.060252529664044 0 1 0
1673 1 -1.2 4.369680142178756 7.397207958390433 29.582800665636274 1 1 0
797 1 -1.2 6.4455853822001234 5.42852955761451 30.046368191540626 -1 1 -1
1779 2 2.4 6.071421291006697 7.149720706644108 29.455489091724157 0 0 0
847 1 -1.2 12.354750139085331 6.8046280742596394 30.405421044146696 1 1 0
1466 2 2.4 12.525995269736727 8.371603097949963 30.81141891773508 0 1 0
1992 1 -1.2 17.622049983411916 6.983998498466035 30.991979175525127 1 0 0
2040 1 -1.2 21.911945212322685 6.6460683016823925 31.39192357635382 -1 1 0
1328 1 -1.2 26.786367859254927 5.922625158814119 31.668172953086152 -1 0 0
87 2 2.4 27.035885696014528 5.822477714639302 29.987468289173574 -1 1 -1
2024 1 -1.2 27.336704837901422 7.447086178965919 29.753088605780285 -1 1 0
1157 1 -1.2 1.9239549003482976 9.710644361163414 31.318426516118194 0 0 -1
1682 2 2.4 2.7018635785161713 10.87554333146791 30.25593982906916 0 1 0
1628 1 -1.2 7.040489614337607 8.275023918868888 30.05627603348635 0 -1 0
1666 1 -1.2 9.46379556111759 7.735244208920475 29.368906542509137 0 1 0
114 1 -1.2 9.32404336334145 8.490257606076218 32.03345176618662 0 -1 0
1202 2 2.4 8.632771841306553 8.730148469911267 30.471841524976167 0 1 0
558 1 -1.2 8.987252690001123 10.30541125999531 30.01758544033625 0 0 0
1795 1 -1.2 11.371033751774492 9.687529872692584 31.154314328586217 0 0 0
1565 1 -1.2 13.613115996510201 9.055763116036285 29.958277197942984 0 1 -1
362 2 2.4 15.244562494469129 9.807904983960421 30.133479794399836 -1 1 -1
1985 1 -1.2 15.722295231748088 10.77828444814831 31.425581789066193 1 0 0
1379 1 -1.2 16.212859444505245 8.663872203026187 29.912402077042128 -1 -1 0
753 1 -1.2 18.86300302481074 8.282838099927536 28.973739746573187 0 1 -1
289 2 2.4 17.80740560905674 8.485907071383155 30.341703862681552 0 0 -1
1750 1 -1.2 18.696843971837843 9.762261255236934 31.232064808558956 -1 0 0
100 2 2.4 20.25940216107226 9.796290499503538 31.511518385567335 -1 0 -1
497 1 -1.2 21.037085808269026 9.475544250285333 30.059631232257036 0 0 0
1916 1 -1.2 23.71019801381968 8.551496226208712 29.058997102264737 -1 0 0
1431 2 2.4 24.110870624166434 10.128208189412092 29.403388771307696 0 0 0
192 1 -1.2 23.169779371161713 10.703883135862906 30.70606925803508 0 1 -1
964 2 2.4 27.311303784622687 9.08680210810036 30.021528595001158 0 0 0
1232 1 -1.2 27.63158156005192 9.328110628228306 31.628748202353112 0 1 0
1399 1 -1.2 2.4884409054354966 12.381263384601604 29.616231986217255 1 0 0
920 1 -1.2 4.377320237060079 13.606653734709317 28.392438560452167 1 -1 0
82 1 -1.2 3.864406330130766 11.296285317790948 31.561522819058148 0 0 -1
1259 1 -1.2 2.394877359548688 12.95875621943457 32.812495983197806 1 0 0
1138 1 -1.2 9.135625229906603 12.684694021352431 28.57267851544135 0 0 -1
1177 2 2.4 9.782225467005334 11.754478781005545 29.657010949217927 0 1 0
2043 2 2.4 11.741832039100244 11.054945510287578 31.885627424503294 0 1 0
936 1 -1.2 10.565329241563663 12.273528552231825 31.226885958909868 1 0 0
1901 1 -1.2 15.94475433501255 13.020880465093391 32.53945353575146 0 0 0
18 1 -1.2 27.176520973568614 12.022387663527622 31.982724293479954 0 0 0
1557 1 -1.2 0.6438697259768863 12.936415287051927 31.089131547708117 1 0 0
1117 2 2.4 1.54320668575015 14.048248843868388 31.84810236530406 0 0 0
809 1 -1.2 2.840661925075876 14.975816234481403 31.06861068669931 0 0 0
1367 1 -1.2 7.437717369795037 16.513995889574407 31.650941685912606 1 -1 0
1812 1 -1.2 9.912035876727789 14.910131049686072 29.847444253272826 0 -1 0
1909 2 2.4 13.836753457549758 15.56031964007741 29.704622581110275 0 0 0
694 1 -1.2 14.009195532592134 14.196068616298929 30.924185011533666 0 0 0
540 1 -1.2 20.220409679119623 13.951927325619057 30.661959695895995 0 0 -1
1643 1 -1.2 23.806899458578265 15.229505941817848 30.206524869035828 0 0 0
199 1 -1.2 21.30548309942906 16.141580230409538 31.50589252662191 0 0 -1
373 2 2.4 24.884080988100017 14.894712335339982 29.067739695028408 -1 0 -1
1397 1 -1.2 26.51526505899783 15.068409384362408 29.285868701693904 0 0 0
1298 2 2.4 30.153958788632345 13.373117670950135 29.835446239080202 0 0 0
2052 1 -1.2 28.480747913717728 13.695940695710568 29.93907002614324 -1 0 0
1454 2 2.4 27.61300782316444 15.067007856799721 30.39240615484885 -1 0 0
420 1 -1.2 26.692996126245394 14.547103198772966 31.679117259269137 0 1 -1
258 1 -1.2 0.4666716112465809 18.225260503866394 30.621165586004526 1 0 -1
1946 2 2.4 1.5681414295487346 18.975600713787916 31.49665103999573 1 0 0
1496 1 -1.2 2.5019715236730073 17.703061162729867 31.464127858001685 1 -1 0
97 2 2.4 3.202563022470533 16.483819535276695 30.67901229686037 1 0 -1
534 1 -1.2 4.75498737608999 16.27865420717196 30.81287552610407 0 0 -1
1741 2 2.4 6.349305285755629 16.967464143590075 30.56702111813507 0 -1 0
204 1 -1.2 6.087154449064233 18.41089630234554 31.32163527279689 0 0 -1
1476 1 -1.2 12.339591102782077 16.05719269227726 30.067755071863544 0 0 0
742 1 -1.2 15.04498139208922 16.701389332780415 29.464135202619005 0 0 -1
456 1 -1.2 14.877076608846123 19.235434598717895 30.01261161733304 0 -1 -1
832 2 2.4 18.435270357686683 19.10356213878476 31.51663409947158 0 0 0
1652 1 -1.2 18.610550145016074 18.274155334913047 29.942745589090947 1 1 0
1586 2 2.4 22.87244853368777 16.43131403670823 31.16307489573837 0 0 0
1419 2 2.4 22.09169859297311 18.843496581813863 29.36225164650481 0 0 -1
1075 1 -1.2 22.842806251882646 17.967626752045348 30.62458394281774 0 -1 -1
406 1 -1.2 28.453704877259753 16.66918340351256 30.238623526599188 0 0 0
1021 2 2.4 29.489193140719102 18.009838185653905 29.725154985232674 -1 0 0
861 1 -1.2 2.4103599129210536 20.003584970622818 30.412409748024654 1 0 -1
1609 2 2.4 3.5142498635256896 20.982068987314364 29.67076319277705 1 0 0
1661 1 -1.2 4.883616741426431 20.210898411304406 29.54980909865664 1 0 -1
974 2 2.4 5.629009471882125 19.853517986917932 30.954405095707923 0 0 0
1510 1 -1.2 6.974927768133487 20.81980231661674 30.985950333855374 1 0 0
2056 2 2.4 8.389021324373 20.717690330346215 30.15071759199933 0 0 0
1906 1 -1.2 9.769752625300912 20.707741898672744 31.127244954491665 0 0 0
793 2 2.4 11.189919118048497 20.860248481646128 30.285386325743552 0 0 -1
211 1 -1.2 12.186256408980038 20.880293575681467 31.570667272813765 1 -1 -1
1237 2 2.4 15.525391562749288 20.256614112110412 31.262216411463395 0 -1 -1
1674 1 -1.2 15.691249038673346 21.947140790899155 30.88255885925608 -1 0 0
1424 1 -1.2 14.68223483642842 20.11375044591935 32.481835700889704 0 -1 0
345 1 -1.2 17.125418089419973 19.991200614126527 31.20900988854918 0 0 -1
1359 2 2.4 21.161752787031347 21.6747952598279 30.02439270558772 0 -1 0
570 1 -1.2 20.696110925425494 22.37376966230773 31.476201677453865 1 -1 -1
269 1 -1.2 22.334337768724808 20.390767515273613 29.960472364205238 0 0 -1
1174 1 -1.2 25.521343325035 19.43139296240293 30.772584118837074 -1 0 0
685 2 2.4 26.734123912564538 19.834971749854024 29.786721376555715 0 0 -1
48 1 -1.2 28.26771834056676 19.230125527095293 29.91042310392423 0 -1 -1
716 1 -1.2 26.94506558717098 21.482851666716886 29.97412098361701 0 1 -1
250 1 -1.2 0.30055162263677104 23.01304342299164 32.226743106849206 1 0 -1
311 1 -1.2 3.5839210438844016 22.43863640992065 30.340007735269758 0 0 -1
351 2 2.4 3.7271488172102303 24.074732457945018 30.667574071816716 1 1 -1
356 1 -1.2 2.733609963077644 24.55675784635112 31.72934949172261 1 0 0
1402 1 -1.2 5.027364699623223 24.196235518510232 31.738507782151576 1 0 0
2107 1 -1.2 13.505601176590895 24.048437678811045 29.99224885985378 0 0 0
994 1 -1.2 11.259348561003689 22.476360435543334 30.094274910182847 0 0 0
422 2 2.4 11.990598555944635 23.843344168963316 30.734540601605584 1 0 -1
1170 1 -1.2 16.642869825348736 24.56113352309358 31.320316538320032 1 0 -1
813 1 -1.2 18.29227550350234 23.50685401047206 29.74075844179547 0 0 0
1549 2 2.4 17.082638392294236 23.045076144171905 31.052055303068816 0 -1 0
1786 1 -1.2 22.239506807370848 22.83025746008099 29.377092555764413 0 -1 0
900 1 -1.2 24.0668386183647 24.37302066606062 31.607675758548183 0 -1 -1
719 1 -1.2 26.22956634047692 24.315162200777678 29.900853094785273 0 -1 -1
397 2 2.4 29.43403768500711 23.965369670043223 31.667781485242266 0 0 -1
1568 1 -1.2 29.0146257539375 23.354122075154518 29.891775311680316 -1 0 0
1950 1 -1.2 29.959713992704298 25.427887414615345 31.795622436316044 -1 0 0
427 1 -1.2 30.095291217205833 27.117576535414376 29.91543526638989 0 0 -1
1136 1 -1.2 3.7483662933926207 25.2188658806928 29.315858655232486 0 0 0
1204 2 2.4 7.972842404860149 27.300798365736018 31.047739509508574 1 0 0
1631 1 -1.2 9.188374875152075 26.61762381497287 30.21504275023244 0 0 0
1744 2 2.4 10.855549994983345 26.70290771178139 30.180163528577406 0 -1 0
317 1 -1.2 11.355916214930405 25.312809517060327 30.503893361096683 1 0 0
689 1 -1.2 11.593114964159183 27.842013486030567 31.119323049904686 1 0 -1
2049 1 -1.2 18.25010705907344 27.07633573238527 31.04134961755629 -1 0 0
339 2 2.4 19.17915043233154 27.308895609514366 29.75877043216872 0 0 -1
1275 2 2.4 17.421546721452113 25.782874944142826 32.00219290151027 0 0 0
923 1 -1.2 24.36744898835737 24.419919138185765 28.381014428969905 0 0 -1
1574 2 2.4 24.84280147517806 24.961238523639985 30.142504738251972 0 0 0
1579 1 -1.2 24.796268614872137 26.510267562761204 29.61515753106103 0 0 0
1862 2 2.4 -0.10959034549145485 26.989164034096536 31.410782036457622 1 -1 0
227 1 -1.2 0.9489252276532487 27.858082474835623 32.138971505164406 1 -1 -1
1742 2 2.4 3.2622312836614324 30.17530507733096 30.864700440944667 0 -1 0
128 1 -1.2 4.43673430707002 29.46220340423672 30.31709466874691 1 -1 -1
1725 1 -1.2 2.819716881376628 29.523535272067832 32.10123928061496 2 0 -1
1591 1 -1.2 6.643225823222141 -0.04868579762951441 29.104421717519273 0 1 0
1767 2 2.4 6.000044837166523 29.6343792173408 30.303078038300736 -1 -1 0
1871 1 -1.2 6.929650349040774 28.381630780787432 30.568398112660887 1 -1 1
526 1 -1.2 13.363755629350985 29.185059531415927 32.555617225789696 0 -1 -1
404 1 -1.2 15.924687865106394 28.886508896143855 31.126077070576827 0 0 -1
85 2 2.4 14.578738458498602 29.63572031743169 31.596925921694986 0 0 -1
2053 2 2.4 16.437850594358196 28.544319905824132 29.58780995693159 0 0 0
92 1 -1.2 19.52920649198317 0.4211313598969788 31.104557659804644 -1 0 -1
957 1 -1.2 17.954508571804222 28.49344665886846 29.228819065616708 -1 -1 -1
412 2 2.4 20.39669428751879 29.826303709754544 30.19806291338084 0 0 -1
1991 1 -1.2 20.465128199557295 28.213045145985056 30.36519517780492 0 0 0
1870 1 -1.2 24.54793751020161 27.556483417660342 32.23110959382616 0 -1 0
26 2 2.4 25.68486597368277 27.507205751355272 30.970195619726734 0 0 -1
95 1 -1.2 26.298892677189162 28.5837657972033 29.532320405578073 -1 -1 -1
505 2 2.4 27.722981397592793 29.484286188272392 29.25888022942642 0 -1 0
796 2 2.4 6.698049782189194 0.4956061400920119 33.26868575675687 0 1 -1
1770 1 -1.2 7.214979952592341 2.075974269922523 33.42349587532868 0 -1 0
1605 1 -1.2 5.354972890527648 0.2595881294570602 33.897137762384006 0 1 0
1667 1 -1.2 15.772836431511763 1.8655954086692885 34.33229035284983 0 1 -1
307 1 -1.2 17.960418332322046 1.1854848206802002 32.91683733667675 0 1 -1
1898 2 2.4 16.57929275791336 0.6184195743042615 33.615789515973674 0 0 0
36 1 -1.2 24.477167536165023 29.798642044227574 31.63687491797091 -1 -1 -1
1344 1 -1.2 24.312991175039205 2.5336233119388907 33.94577407211516 -1 0 0
1539 2 2.4 25.05621934865656 2.150210455165229 32.44058692783251 -1 0 0
468 1 -1.2 26.279638657545764 1.046108127948808 32.831157564029986 0 0 -1
2041 2 2.4 27.353437108040637 -0.04092729407555046 33.390231872315255 0 1 0
683 1 -1.2 28.81673923580345 0.586994512608039 32.897851896982594 0 0 -1
1200 1 -1.2 1.6675484149660666 4.800784651221934 33.402527727502765 0 0 -1
1034 2 2.4 8.104925579740128 3.5047107140662983 33.103232785025185 1 1 0
1098 1 -1.2 7.577647545549883 4.443308776411689 34.273553803359064 0 1 0
2124 1 -1.2 9.83393425263316 3.2722949996207693 33.117675988936746 0 1 0
1552 2 2.4 11.099553428770653 4.689183024658442 33.3749766075004 0 1 0
996 1 -1.2 11.216545514275445 4.6496338662398475 34.93343489509361 0 0 -1
513 1 -1.2 12.342191671286544 4.989655267323876 32.47025970656224 0 1 -1
661 2 2.4 15.940998827292406 3.559119958841337 34.39456804209601 0 1 -1
977 1 -1.2 15.282637457742473 3.7745883062274848 32.983051872643934 0 0 0
10 1 -1.2 17.470266930867577 4.197783053549995 34.37426875485986 0 0 -1
987 2 2.4 20.24831952285448 3.9065642986100286 32.394712795409546 0 0 0
1235 1 -1.2 19.982373554520812 3.553329993510225 33.93692755115375 -1 1 0
1123 1 -1.2 26.119344914404305 3.3282485720779587 32.01777371927735 0 0 -1
603 2 2.4 25.783139476290476 4.950946709693402 32.51865090079144 0 1 -1
1879 1 -1.2 28.059400787142216 4.3295496910152815 34.5343214458905 -1 0 0
1593 1 -1.2 0.8356755228441884 6.091535484083238 -0.001970651546620741 0 0 1
625 2 2.4 0.4066173133792098 6.1048191019112705 33.600464834791595 1 0 0
1615 1 -1.2 0.6723868237421003 7.471480897594657 32.66740500005839 1 0 1
1469 1 -1.2 6.055796495964492 5.835217470787596 32.90644951309895 1 1 0
1225 2 2.4 6.8872068670587945 5.933185225702452 34.180490523788265 -1 1 0
394 1 -1.2 7.905210093871902 7.212609746941557 34.11928624927424 1 1 -1
191 1 -1.2 9.93457055086485 5.823750969698019 33.17975122985779 0 0 -1
2139 2 2.4 9.31062541284047 7.421864550938723 33.36925087441966 0 1 0
260 1 -1.2 14.907514213968007 8.23448787959476 34.526989405622835 0 0 -2
80 1 -1.2 13.577538289640565 8.694256576413485 32.29285892552399 0 0 0
1330 1 -1.2 14.911347305633365 6.297743884750386 32.25725289003041 0 0 -1
553 2 2.4 14.7960230557726 7.957229107544653 32.81910406530796 1 1 -1
40 2 2.4 22.212014230972642 7.651646205185459 32.6287954745775 0 -1 -1
1260 1 -1.2 22.5704490719058 6.96096325774972 33.940585217578594 0 0 -1
58 1 -1.2 26.33126718537618 5.685969235165065 33.896165988822176 0 0 0
1057 2 2.4 27.84492924762962 5.917336917983485 34.394536729039054 -1 1 0
2025 1 -1.2 29.116266160548896 6.2560782310084395 33.58762783254947 -1 0 0
495 2 2.4 1.5371321211849416 8.914869915425754 32.76409686449517 1 0 -1
1062 1 -1.2 1.1542214074196286 10.227036372622148 34.010984322272456 1 0 0
1512 1 -1.2 2.799848323703497 8.199959551835404 33.87361818644968 1 0 -1
515 1 -1.2 9.23795225385468 10.917351198043285 -0.00047365383809326936 0 -1 -1
225 1 -1.2 10.129300678546564 8.394621423884509 34.226666786824715 0 0 -1
1843 1 -1.2 11.116358733971671 11.305431687522516 33.3420103484423 0 1 0
487 1 -1.2 16.506945169893733 8.21028980266565 32.88535615807188 0 0 -1
2148 1 -1.2 20.637338654222447 8.424212179939062 32.36407860451977 1 1 0
44 1 -1.2 20.77454451906479 11.225351644417882 32.284067297480355 -1 0 -1
430 1 -1.2 23.08479489554495 8.98227788796699 32.64417140505105 0 0 -1
1588 2 2.4 23.722599306356038 10.372565414207386 32.260056336346445 -1 0 0
463 1 -1.2 25.383427599459438 10.21146560291674 32.19166088300495 -1 0 0
1297 2 2.4 26.99992848187986 10.60580714685868 32.50340611363761 -1 -1 0
681 1 -1.2 27.49249495328136 9.808329979228482 33.99161771585537 0 0 0
624 1 -1.2 30.152192185864095 12.4354183560856 34.08370364112538 0 0 -1
1551 2 2.4 1.7096730489654886 11.714470518474364 34.61044964357403 0 0 0
1011 2 2.4 3.8616177249219814 12.173641425571933 32.929990683831484 0 0 0
1018 1 -1.2 3.4374766683542606 11.301541258135256 34.19527411893558 1 0 0
1091 1 -1.2 5.249433300585913 13.020478966756928 33.048387186741586 -1 1 0
1936 2 2.4 6.6904228542727475 13.185602690070318 33.581634613883814 1 0 0
336 1 -1.2 7.887188208679527 12.017864284400574 33.1243209761963 1 0 0
1706 2 2.4 9.45450084266459 11.856743408852353 33.88268181332131 1 0 0
622 1 -1.2 9.859001439514559 13.448151958037068 34.06714228123933 0 0 -1
333 1 -1.2 13.198888618870727 11.623038748867925 31.962527145734768 0 1 -1
1377 1 -1.2 14.41768905462662 10.702939268197339 33.92946526644719 -1 0 0
206 2 2.4 14.792199902026864 11.776200792875246 32.42567095098016 1 0 -1
1087 1 -1.2 21.261240734469244 11.22948473709331 34.67368514030713 -1 0 -1
1081 2 2.4 21.811393672332457 11.942576445601805 33.403562718867086 -1 -1 0
881 1 -1.2 21.69824746384684 13.383752873625411 32.63570161464643 0 0 -1
383 1 -1.2 23.329699431271518 11.471995378418477 33.38635086484019 -1 1 -2
1154 2 2.4 27.01504447981853 13.566580831522439 32.82654598438974 -1 0 -1
666 1 -1.2 25.901189998036756 13.229293198788655 33.93247432581754 0 0 -1
2143 1 -1.2 28.324539549410282 14.112672484149961 33.49809772448593 0 1 0
1264 2 2.4 29.91345322156794 14.175762740146153 33.896354940810895 -1 1 0
37 2 2.4 0.8969787221270371 16.262389703211042 -0.09139731001607032 0 -1 0
215 1 -1.2 0.6111536724263612 14.857171220279687 32.98216808255403 0 0 -1
12 1 -1.2 7.225916024652815 14.500096810432108 32.97236678073935 0 0 -1
2031 2 2.4 7.818671240787679 16.092636753938468 33.29188015750864 0 0 0
1573 2 2.4 10.087641950203825 14.979694861149106 34.50980144623772 1 0 0
799 1 -1.2 9.38806121872114 16.222269515715986 33.663420640647 -1 1 -1
1815 2 2.4 13.171056402041303 14.748786929517342 34.73798150357256 0 0 0
787 1 -1.2 11.754704487533134 15.292530501265007 34.20007433153636 1 0 -1
1050 1 -1.2 13.784896821567374 14.552903438789999 33.266228569068474 0 0 -1
393 1 -1.2 15.785772862145077 15.986404213268548 32.17455486992599 0 1 -1
842 2 2.4 14.973210964841106 14.456526760253597 32.13204315036069 0 0 -1
1578 1 -1.2 18.6289944591272 13.757763870691946 34.6207122087379 1 0 0
1023 2 2.4 18.953300068362847 15.205750328147882 34.48432913925173 0 0 -1
2081 1 -1.2 17.731792872477346 16.512785109477903 34.28207847327507 0 0 0
772 2 2.4 20.402386751912545 14.63162924685965 31.978702137431934 0 1 0
1380 1 -1.2 19.326049634532836 15.354518693685211 32.871100982000115 -1 0 0
1965 1 -1.2 22.50748068662515 15.625465293274859 -0.05397143998128038 0 0 2
749 1 -1.2 23.9190489306325 16.35292882312523 32.667599716650635 0 0 -1
1197 1 -1.2 24.965767580017488 16.387626095950896 0.23231163463987828 0 0 0
1160 1 -1.2 0.29659322609132843 17.863464494248127 -0.14822298560920671 0 0 1
2007 2 2.4 0.13307219979203647 19.189373947652665 34.174006651292764 1 0 0
1754 2 2.4 5.806578283028726 17.756578719078266 0.2605570474565426 0 0 1
137 1 -1.2 6.518225176870357 16.657653309197052 34.389196548062266 1 0 0
1436 1 -1.2 15.344435246345784 17.40948034293025 34.15069169666314 0 0 0
1116 1 -1.2 17.50618126890297 17.9471149308089 32.462222989962655 1 0 0
1945 2 2.4 16.66372309519736 16.932523228202893 33.291081394894775 0 0 0
1069 2 2.4 23.6146098829002 16.754468886432804 34.3755650162912 0 0 0
1085 1 -1.2 28.9102063732141 19.079681538075842 33.743078483213836 -1 0 0
1902 1 -1.2 1.0628624171394534 19.37007711356405 32.894815725342085 0 0 -1
239 1 -1.2 3.0114833760510407 20.573512043893334 34.332483756586875 0 0 -1
230 2 2.4 4.1851894557739575 21.264219046790284 33.462684857283676 0 0 -1
1016 1 -1.2 5.5064682801137765 21.70783727135257 34.17890332193684 0 -1 0
514 1 -1.2 5.753764225050715 19.439341439104812 0.036481854150632556 1 0 1
755 1 -1.2 4.78723051650351 20.44025901682547 32.18223048307823 0 0 -1
547 1 -1.2 7.787607780688143 21.272667779197075 34.65276969433016 0 -1 0
634 1 -1.2 12.277204336519548 19.57983962455088 33.787624582913935 1 0 -1
1382 2 2.4 13.026205315705097 20.710340057203585 33.13370195941234 0 0 0
1890 1 -1.2 13.537739896945434 21.971662004237984 33.98152564197501 0 0 0
1122 1 -1.2 18.227999922762635 22.480982022462182 31.98628922554803 0 0 0
1797 1 -1.2 19.423623243338717 20.106507506648956 32.16645479640894 0 -1 0
411 2 2.4 19.6021627272877 21.63651453960204 32.53245423519701 0 0 -1
1845 1 -1.2 20.3301331005499 22.31498184524013 33.82688052464686 0 0 0
346 1 -1.2 21.924144876306023 20.49804119062072 34.72171658783894 0 1 -1
221 1 -1.2 23.528225216336992 19.80381743567546 32.67008615760009 -1 0 -1
711 2 2.4 23.222223152650827 19.783714446200655 34.308619598406345 0 0 -1
1817 1 -1.2 24.690844860534757 21.948829527297423 31.87760261440637 -1 0 0
1252 2 2.4 25.0705030146186 20.19794061116944 32.18756985070195 0 0 -1
1439 1 -1.2 26.238677756834267 19.852603259727957 33.32109451947744 -1 -1 0
1993 2 2.4 27.48573059954271 20.18518407849542 34.15228497213688 0 0 0
854 2 2.4 1.8248300739137404 23.503714335066558 32.57274749838783 1 0 0
212 1 -1.2 1.4416604413354086 24.220164660790466 33.960673530771814 2 0 -1
766 1 -1.2 2.8784939541870465 22.08272199707278 32.74746865839659 0 0 0
1194 1 -1.2 5.999745298385695 26.02032139589196 33.617463609064494 1 0 -1
1020 1 -1.2 7.129885069648238 23.56646921960153 32.928444342596826 1 -1 0
1621 2 2.4 6.3333356519717885 25.016454759529953 32.474704492126065 0 0 0
2149 2 2.4 7.837103838075193 23.113802890227344 34.432733899913885 0 0 0
1387 1 -1.2 9.38207231398579 23.47791605583946 34.44953232190697 0 -1 0
358 1 -1.2 12.146341095571005 23.424123614535006 32.380600758465384 1 0 -1
125 1 -1.2 12.343461718458647 24.331962764297646 34.94921112526745 1 0 -1
2078 2 2.4 13.028525203547225 23.51092258933933 33.717721690805604 1 0 0
1654 1 -1.2 14.410030641253929 24.480998514156305 33.34757504773721 0 0 -1
504 1 -1.2 23.407130244953954 22.99822099766611 34.015067697392865 0 -1 -1
1585 2 2.4 24.392576227431103 23.23372736205306 32.593088336199735 -1 0 0
366 1 -1.2 25.70070358476155 23.357834773904635 33.69237912516871 -1 0 -1
117 1 -1.2 27.653619163517487 21.75321986915655 34.2397926639699 0 -1 -1
220 2 2.4 27.41672828240317 23.32018764460062 33.84558819620012 -1 0 -1
1447 1 -1.2 28.100046730449627 24.04501405924295 32.532769862406184 0 0 0
265 2 2.4 4.525465735127396 26.152401881521758 34.59159200535056 1 -1 -1
391 1 -1.2 3.405607449694906 27.19363259888775 34.02352441198314 0 0 -1
958 1 -1.2 7.262881144805855 25.939251672451082 31.44031001563064 0 -1 0
1855 1 -1.2 6.889414209746738 28.00671873432671 34.65638626674292 1 0 0
1632 1 -1.2 10.230088061193202 25.652623484340946 0.4696399236196144 0 0 1
1801 2 2.4 10.958242142482957 27.107146510426976 -0.1358729430232791 0 -1 1
826 1 -1.2 13.697544851458881 26.74063540347679 32.54410340887224 1 1 -1
782 2 2.4 14.811389249773313 26.041738987427987 33.501119936926976 0 0 -1
919 1 -1.2 16.244177326135876 26.618188620131967 32.559783370087146 0 0 -1
1975 1 -1.2 18.753246558482935 25.336109051462937 32.70960855162087 0 0 0
149 1 -1.2 18.4032736974293 27.320246330637183 34.67424840211265 0 -1 -1
326 2 2.4 18.98384023439431 25.660164344140743 34.349096799169345 0 0 -1
1267 1 -1.2 28.934663774474153 27.862193385128265 31.89094178984641 0 0 0
1644 1 -1.2 28.341396198625336 26.87289380927574 34.30338934438993 0 0 0
1251 2 2.4 1.3037956148929883 29.302468333579647 32.535540611172365 0 0 0
1231 1 -1.2 1.2440052953755159 29.107299337711673 34.151465807016265 0 0 -1
1072 2 2.4 2.5842702146437664 28.228775309103938 34.86966683801119 1 -1 0
1988 1 -1.2 3.242051884007987 29.707443452959208 0.454010526382771 0 0 1
1914 1 -1.2 8.151543006235691 30.114127416658405 33.860696112991675 0 0 0
1086 1 -1.2 8.680992755482936 28.127622886689945 32.44852035733736 0 0 -1
2077 2 2.4 8.335108527788885 28.55347097866193 34.11947490070152 1 0 0
2029 2 2.4 12.309516380115626 27.713058090748678 32.524716658732004 0 0 0
35 1 -1.2 10.983491814862369 27.079615063973474 33.322607845878565 0 -1 -1
1937 1 -1.2 15.169846549165342 0.015923232754113153 32.911857755775046 0 0 0
568 2 2.4 18.404774546702463 29.01796118360888 34.997963926841145 0 -1 -1
562 1 -1.2 17.44644627937859 30.181189235329498 34.55699698631354 0 -1 0
2085 1 -1.2 22.389380981916734 28.8970146606039 33.173799966240125 0 0 0
2127 2 2.4 24.065419870673733 28.914243160691644 32.94897745957532 0 0 0
1488 1 -1.2 24.731505991243633 29.508739920926413 34.57786133484973 0 -1 0
705 1 -1.2 26.710531505616213 26.453086041769332 31.785534152465495 0 0 0
783 2 2.4 27.66342280386791 27.393956712908476 32.82391133065318 0 0 -1
426 1 -1.2 27.163411949582187 28.99701838800363 32.89745804916705 0 0 -1

Velocities

684 -1.097331293801047 -3.2046873706768304 -12.445486618952588
1864 -1.5464415266206253 -0.6183461744610862 -7.898784217377286
1304 1.9429569814230507 12.810795773665577 -7.871744273258216
1386 -4.998208217558041 8.98438107854528 -3.291902218180444
425 -4.194827792830926 -1.8297684186948886 -4.543640549283515
1921 -5.547153444670264 12.150911931601602 -1.8173687550041904
658 -2.5780991076751323 2.0247808574545294 11.995622545549457
1140 0.19469806649867535 -4.533536971293889 13.952315572733692
1657 -7.948899875254453 10.277072509773982 7.578882518264164
1867 -13.6004946411531 7.074164723379243 8.40831341616995
678 5.758478060257609 -13.434821260655276 4.718996323728118
485 6.4004743115471 -30.888619277440963 4.9107626379088485
134 -10.740576086544161 -4.797652053609304 0.616632082290059
2009 9.661351613228348 18.819185371182726 9.679710244656762
1281 0.853061173519034 4.266461795007103 4.2006633459074685
240 15.992913031067133 6.62945563391809 -11.574628214855608
963 -0.3510576363443287 7.180303608912568 5.738025183388924
2074 -3.6797843247467625 -13.65268563372754 -2.960311763647816
1828 10.017048301503094 6.1849477287810375 18.764886132366765
1677 11.55946934809171 -7.829707727427685 13.642860809962254
380 6.955370048233187 5.269720544952485 5.74557908861719
1972 0.8755667116664783 0.1735878471757018 13.084725072689007
2028 5.951867583867696 11.557551585580407 -1.229259100547234
1156 -2.191726793025148 1.9412770418300394 -5.726954287370454
1317 7.7667179020338 13.273080685490546 -9.503468804506063
1561 -8.001225325680068 -6.270651604430635 -5.711779400408806
1606 -4.97620164636619 11.717308403591435 -18.31091635349131
1384 -12.597860659383274 12.19388440685727 4.4998762049820575
66 -8.88119755508498 -12.508652051746008 5.0912023910227076
1134 20.466180176554335 -5.91865858138564 15.353568598791563
1671 -10.275607405808511 2.6978262163513653 -10.297832969641622
129 -6.403179079469124 -10.171737724799074 -6.59941776641282
857 5.660675236960833 -9.198893534136252 0.3561142871995797
161 -26.651693731364187 -21.18820276571836 -7.127898942945511
145 1.3235469976358976 6.922690520956792 -9.068713012518918
180 16.78258542907424 -5.632536759999866 -17.340156468642604
1270 7.2054037738322965 3.199895724382499 -8.54287463356663
1984 -1.0684503636099998 -4.466321111852998 -7.3558255459075745
2093 2.6128349531037767 -4.611207750013788 -14.56541543952831
280 4.228675604127903 -11.25803812604696 -5.3173868392379315
140 8.97975026886699 -19.60153956956009 15.238541384455896
1438 1.7979510653692659 11.10581102990404 3.852259827422415
432 3.2779438432765002 7.559901913346537 -6.0107951718282076
615 3.461051524584385 4.777318062794706 -5.584808880504438
702 -12.258563338200375 1.4507471407779822 -9.21687358675745
444 3.432181940000217 -17.417156611472922 8.48988951983292
470 11.42216588221338 -15.718746578368323 5.6920811093908
1558 15.91238403305957 11.308798648820996 1.812511447302372
98 6.362084927063119 6.655306294653658 12.269422622990572
120 -6.573904053560587 21.321580720517858 -4.349648203897402
1660 -12.843140912834242 2.845114169139432 -9.474272581495324
516 17.12284024834569 -2.4247807848917438 7.544785458817026
879 -5.5909806570615075 0.18004911460203024 6.078456508575328
1015 8.740691549105403 7.265291794156081 -3.299840889668043
1752 -18.009878955707013 5.163312640103932 -3.5042754055558785
991 -7.8772279505749365 5.467032220586365 -30.57977210032424
284 -9.540578499337013 -1.8487913912599125 3.290549243410995
1010 0.4736531669494981 -17.15624880913621 -9.701768802732088
839 0.47963918520750065 0.5418698003215066 -12.415282192055749
1129 -7.744113642845164 11.705806062234684 -5.776184873160033
1577 -10.46726137646762 23.790616863389637 -4.425694233005137
1220 0.3893957459450914 5.6563977620258346 16.907076050399258
1456 13.091259995488077 -8.600413788456093 -0.9542159383925765
598 -6.281708975079462 -2.53275966305911 -4.124207306740528
286 -1.867095683378004 13.614475574443158 -13.54733041277496
243 -8.11413053239638 8.148207523838556 1.6624934245936138
1234 12.138536602176513 -2.405729308780382 -8.236923643929051
1169 -3.7190407757815827 14.850602264409144 -15.683444681035358
618 -1.1680367718146476 -14.386118464730055 12.255304788233277
2101 -9.390477754108385 2.7936635895940514 -11.218918818766133
1928 -1.7015664010996412 -14.476392743377431 8.41886035883672
1896 9.641080374353487 2.6816324737306694 -3.2319895864634005
302 -12.53543755494739 -4.960727203548045 -8.174555385112685
1405 6.580446538896362 -2.944555010306602 0.2518017377454221
1702 -3.8986946204138113 -5.6899974781825176 6.554295863917102
701 -5.0750420469214585 -6.043886275711427 -24.055673565227796
1484 -18.94760303772556 -11.934490629215514 1.8291867989735318
1186 8.214926340325139 -16.283875787526387 -5.387302236026145
152 -4.189592794298808 -4.127319764403881 -0.4533880636800365
877 -12.28142822662363 -1.1092713074883633 -7.37741091539792
1055 -0.8468805992910583 -10.075037732214412 1.5139133424803548
2038 -6.797291218149924 -11.578127567154812 -9.601380128209692
1696 -5.525056913181032 -5.226601282760712 -4.8880433085836446
1760 -7.675093667377153 3.655136348833583 -8.50419647009392
1590 1.3633909355671359 7.692488068420704 -10.238259608710317
223 9.23332803390248 -10.829563739655235 -8.078173088731148
574 16.323421135087983 14.519706477381124 -12.518344780890066
587 -0.10947332337926 -5.629287624005865 9.30329842792516
1457 -4.539829484956829 -6.2644744201060805 6.720977478333749
542 4.801614927145994 -4.501410874414119 -1.6091590935328441
982 -1.2805737558788548 6.836162299245353 3.4501575318605493
1094 -7.535295266336048 5.372628079805246 1.8850612654602201
1219 13.279655205625694 0.6216222494856456 -6.395645014020914
1295 -4.900626433701276 -12.033930355245385 8.390937262463947
1006 2.275881070928931 4.926964236234272 -11.678824847172475
1118 2.518021353678055 -18.044736988435606 -7.167486793508577
2100 -1.5678676533096343 1.6320285911321524 6.58650803635228
396 4.400825228000525 -3.0483445235034745 3.7677114567196837
530 -4.203205271956033 0.5640929065134426 -4.359622719648272
874 9.128368713877496 -2.018561912240688 5.127211545283288
673 5.172732568423065 -14.91487490578083 9.67945397123085
779 -8.181424708551845 -11.832530657299088 5.307703295455555
1683 -0.6771880629475813 -2.789537622247253 -0.7686082911479569
200 -8.301130308887332 -18.266586266668998 -18.72993015992145
1024 -2.8913715875719754 10.862233946952417 -2.4937597948592245
1449 4.008979187826432 -10.158920583475567 2.98829102769951
106 6.527129039188916 -9.98396306676883 -0.9645362188467538
1885 6.746488303905021 -8.599476423683402 -0.5868283916098631
353 -13.591560004721266 7.965380237652429 5.240446998409122
453 -4.4690536317348 -7.921892639170375 -1.8561093935467672
2104 11.676229018682 4.16399173160767 -1.7951305744341217
1391 -3.852603280117319 15.687369948729755 2.937728977131529
1070 6.104971135692077 -6.774634827619171 0.6791932846876516
703 6.678163584913161 -0.15705337697792632 -1.572828173144399
1698 -3.650873279436584 6.539784832304412 7.231280416881474
2090 -6.448770287480566 2.8023075447335732 6.491367829979016
1607 2.59606563206936 -8.52827785858365 -8.68023375367207
1274 3.9590663733125715 7.562098395323883 -8.014046259512718
372 -4.207565778918339 0.16975942001210645 2.1102128155078947
1846 -5.2687885976016195 11.858569396383688 13.808484570219372
1394 -2.505854348149815 -0.7768458501706303 -17.771830453252743
1560 -0.9378362630801811 18.767398495095268 -10.995373729272297
2001 -0.3797391435212253 -7.204940243500046 -3.8615595158364004
1189 2.577614811436332 -2.9739447451046 12.637696005888744
1583 -8.743028267755259 -3.583471698482413 -11.763060451468267
338 -17.380411183365172 -11.023452255377915 -5.9907140812338495
245 6.690159049503828 -10.999645626568018 1.923421009814637
1892 8.002764491089904 -20.837416270710065 -9.105621858298926
2136 14.398492434545137 8.217958048419428 3.0322541072208926
1250 -5.41927689050253 3.888832575328175 2.2958310946172125
2112 6.964698711467662 -17.072915364495852 -8.463789262986689
1111 2.5440228804379017 0.9436619058199103 -13.433121281205347
2030 -3.8071820295322296 9.121952648074192 -3.2449796878174384
682 -7.779277520278016 0.3665876231899124 3.878931671180294
1860 8.26750915628986 4.499938162085801 -8.52725731626112
1151 -10.103952106791544 18.275531435577474 0.9027685229362985
1653 -8.21698522748249 -1.2736464412603796 -0.15611064545684217
745 -1.7804739437246335 -1.7575515972775786 0.6375603834414576
1883 8.971752078738316 3.2377360333638388 -7.186878569429213
1482 20.470017155270835 2.358733544924727 10.5605427765117
83 -3.0291913499458714 -8.67255917796103 -2.3322862023095183
1228 14.015389332358088 -15.445056319926724 5.44667872390982
38 9.02362206696268 4.6434281358858 -6.8635086467146715
43 -7.401414161881093 0.8572346945650118 1.0467773384760763
16 8.139378369787277 -21.420755627017446 2.299719499989563
746 9.840108406141818 -1.2412243458010221 -8.224641365875465
1710 -7.561373133853264 0.9453248148182524 -16.652959927530766
1361 5.38288578893971 15.584782279041606 -20.522721614645118
1048 -1.1450394500770438 5.40241959631311 -2.725951575321982
1592 6.2523203433262085 2.137920415349557 -6.337852266915242
1851 -13.133292887482773 -7.035538283197899 9.143051782187662
708 -15.657810402360608 16.335105505054667 19.351972306773064
198 -4.563957521124315 5.6285947122280415 1.0307935245099797
2014 1.5401284945523177 8.59082782112083 -16.42133351241256
63 13.93425680854605 -13.67830475995088 -5.666234534992963
2142 -11.131126363590464 -7.224006527518167 -0.8036457766061503
1703 -4.587150300127866 1.2919097414593463 -6.728607347107046
1145 0.1845979743083706 -0.6298223333182386 -5.209220998503442
365 18.396474403776214 1.0849360644702328 3.007357850628547
295 -7.682464875921797 8.605827621803808 5.761002617928002
652 -0.9450394212311386 -5.674196165080014 -2.363622174104154
1884 -11.050341420218338 -9.397280002639816 0.09618427075676728
2018 -2.50264230862752 -7.848431279151657 -0.05376159939956172
633 17.160832578290403 4.473707185385545 -2.4546703416709392
104 -7.410453359529597 8.71430099558548 7.3479901107504935
262 6.8017169250484475 7.100443022221641 12.760169862481348
8 -10.19477390197922 -8.941049487584811 -7.208086868980865
1354 4.3264963802672955 -6.214974099635332 12.716194682892725
1803 14.85472688333736 9.867439632455644 -3.7507715536280526
50 -13.351614400965065 5.920911158571093 2.486778244220335
1187 -18.063846264842287 -6.655216098709437 -17.009189590027958
275 -2.1034458945181687 -3.138919453146832 14.277781681817755
2125 7.514087018037629 -7.774603505863293 18.493582314053214
956 0.9192301160726009 3.679656517382565 -12.57189497864748
722 -3.265977429618311 14.260132018462272 -19.606253665943452
741 10.54281213074536 -18.46034595581614 13.021511624156487
410 0.45795089255187804 6.632516087442728 15.072084095143301
1668 2.866624109258798 3.272040904413471 15.35312263089744
1782 1.2300324008677987 -1.3046565032040023 -5.065951675868027
2092 10.800059796070741 3.122176512562623 -4.709762851563242
1912 2.7704647607897286 -8.775033458274644 -12.905986360280549
41 -15.134725477997755 -19.754478817692437 2.451560967500932
898 -16.76004431456263 -8.033634719178318 -4.252195115752386
1940 -1.365889490614723 8.269580953817558 -5.057079429397648
1002 -5.047940754183397 -15.405516108135012 2.1288829988309494
229 -3.105941014846648 -2.2809165154893614 -9.374475785489318
972 12.16828042230743 4.691633640904527 -2.0239820624914975
2012 -5.3586982181966984 13.786901417343067 3.0058307165651437
2075 7.105621554017902 -3.500807319999729 -6.952446989183381
1262 3.101535382747503 2.8619690557999724 -6.472148281172467
1065 -2.3257928478109013 -9.179622864926856 -5.008687239413226
528 -8.74647221558394 -5.4503776895666265 2.2142312916926445
471 10.821931442289465 -8.914721034490924 0.13723947695284006
1043 5.303966337170268 -20.295597689908707 20.666283452321846
1464 3.338090083167647 6.659197403640955 -9.957174169539101
1647 -3.570875654545583 -0.3868881098209995 -4.2973932607983825
803 -1.3717377438780292 13.618144002374686 -16.14803900916879
1453 6.926762167946155 6.486814403185765 16.178449084660652
60 2.242358000603202 4.922200437751262 9.853780581178052
768 -9.470853112826115 -3.88143215516288 -32.365234609305475
1537 -13.090787109259894 -1.6946824164333594 2.3893870162897204
1534 1.38051360591528 -0.9779244393424357 1.495225980027384
549 -0.7645936869922265 2.7898825306117856 -14.661322696197375
2109 0.9772309226128105 -2.9123199859053575 -8.017440000359723
795 7.420244829379638 1.5228495731110838 1.8103457845826931
2063 5.681028615707185 -7.272856235373765 7.5097191323777555
34 -21.936428474814246 24.275774371705918 -1.3870847838677163
642 15.149592191012905 8.340385306278696 17.541770998890435
364 1.1077592711812452 6.911697618833509 -14.379424315885174
869 6.642026844857 -6.299019850767002 -7.755015469994564
1837 5.488312738974815 13.717113093549864 -3.3467082182331094
89 -6.670721302628004 7.883671578630889 -7.002894347106157
155 -7.095008648513538 3.0125044332389432 -4.697988945982406
1711 -0.9621009706135303 -3.5085457903369845 -13.730587322334891
1900 -3.724879277035147 13.723325820009796 2.4985710737380478
948 -11.189499915221619 8.685915211962563 3.917181246041039
255 -8.614530377537225 4.410023727548386 -4.929950420878736
1506 -16.60390430009492 3.741253989163985 -14.565387710073077
630 -3.153271110443882 16.74830297742445 -14.816682972593771
1056 0.6592732364696257 -6.387661145758266 4.489463667731731
1636 -10.642243914002904 -9.51209416648149 -2.0848451554565046
989 8.038179676893414 -18.320786558751987 4.146688749235643
706 8.773989386469438 -6.6944829807329675 -9.51754557592851
1948 -10.805635488882407 -6.807431666919377 1.211794744456179
1475 -13.43034010555262 16.876458288857265 4.3075855678093635
931 5.2434031704701125 13.079017683643343 2.264830018813771
867 4.67257896689905 -0.08979648132316084 11.512252668208298
981 0.15761179874680448 -3.707914445207056 6.926139497102493
163 -0.7306427522816007 -23.088957333660066 7.226929946656481
292 3.1931276072965713 -2.2246086767916258 9.577718801991516
1990 6.387850064955098 -7.734766079041171 19.278997901799297
27 2.837465092309898 4.676550332337454 -3.5153135119472876
1104 2.200884565148339 -9.585659806210487 -6.570529965854
297 2.0744472995540444 -1.758333000886557 16.372176609063185
1620 15.601303305458805 3.8864432877226345 -7.0671186771550785
1120 -10.121927467610064 -7.969459074012354 -7.9533910159949155
750 9.381353679558902 -20.709224197030533 2.722423260534156
596 10.919877400506776 -3.6117911038073665 4.613810886080664
522 23.575383798875404 -19.899838608229054 15.601838294892344
112 -5.200028109763963 -1.9229437040392752 3.420464712485154
2111 17.036453537434763 1.3703824431321494 -2.4283740443109187
1516 -12.62718862193734 -0.41436647282225636 -18.403979790956534
384 -15.272724784477122 -7.932592573083359 -2.5951027368693516
493 -6.567550424864692 -18.320330862497112 -1.1402338434854238
1040 -7.602874139924109 -6.730511456615871 1.2741473327318682
228 -1.4726297655112386 11.767517999814743 -1.529808473242118
1165 -0.7652756035001018 -2.245591455536104 -15.310832756223439
1218 16.396765474202105 -12.407170226509335 0.12126345422346409
1944 0.34223520668719287 -2.4390655078648575 4.042213714260348
891 -9.911422753012152 -9.1879990511919 -8.692377476237974
1182 1.341673465392684 -3.6819669756129443 14.783359535233428
315 -5.588215003270041 -8.088272297285545 0.9980234899442829
1826 -6.45816809222794 -6.0616960023172926 8.110194734729076
789 -11.943029360921313 -0.19330341897968029 -4.28820970921313
1497 1.4344360514730317 -12.389412320694321 -13.737962141039098
73 3.7775253578439343 -3.2656625840680555 0.33801786932593514
1415 -1.8537802464423685 -13.827113345026682 5.1618104886750995
2055 -6.228410639851005 8.309053780791297 -2.6364331304588307
1799 9.909259870932514 -19.92624901168789 17.114016985833977
1728 12.232386566315215 -2.187977562153602 6.641530679679057
197 5.644692889919481 -23.038731118825485 12.723598167298643
21 -5.473492173108067 -9.401655573770082 8.598459864057219
1924 0.9868946557801092 -8.565035716875288 3.846064713315052
731 4.303007963000687 12.152864230798258 13.88339321806087
1967 2.9067029394184605 -11.56426459843686 4.31076953395136
421 -3.82599547325112 5.254050223783491 1.0121383745593862
254 -7.895666308368131 -4.5656906124894405 1.2327935824885559
1446 -8.216393127221542 3.5255345842564987 8.474564350824469
1201 11.277858848262143 -10.783075253390107 -0.1725291221784822
1726 3.9713846288816694 11.346266583890618 1.09704514187506
800 9.483335953995635 0.36164883113135493 -6.487277685964009
1388 -6.508603273902102 11.287079801526048 0.6554143415719464
794 -1.532447538407299 0.31659776674296275 -8.192749429373578
2105 -17.007189643990902 -10.30985657178018 -12.495462612464145
600 24.785823640209358 -16.999018498568077 -3.2216025019928995
301 1.914938205365521 -2.1063567276340103 0.19736091019211408
1518 -1.474115199408379 -3.3633143023777703 14.710331351396876
96 -15.936042610246202 -1.934670870139969 -2.532166603479006
1700 -7.602354807690401 16.816578817879094 2.3999036732782026
248 5.346383828098029 15.981402412789135 15.564207784440919
1272 -5.486039046261689 -1.8667882846928137 8.06954910787094
1329 -8.961916830082366 -8.789411698391929 17.60245939977319
1429 -3.7045472491073466 8.752913160377577 -3.592527163320154
1452 0.14766524315640847 -2.3521446044113192 -26.528243379951597
405 -0.5245902954235364 -8.65489639756398 1.2775820050132183
257 11.648657066585578 6.121649580167328 1.7204666236012183
1408 -0.5199358024434642 -3.8158654374623597 10.291849838068881
1740 0.21043288638876229 -4.588621579410786 -3.123997647661948
917 6.2341089769308535 -16.716174028037656 17.02442834347638
910 -2.854393328637161 2.189138706731454 7.560358257597354
868 -5.348634420925836 -9.868120193199148 2.633492208864103
392 -1.6071660434683301 5.474293565793527 12.535161291966313
1444 -1.1906220293009329 -7.087833333883754 -4.142462309189803
1306 -17.215972017501972 7.072571339487136 -1.9782424503528082
194 8.168257034003405 8.588807388743414 9.939971883811207
1427 -0.9768178401964758 10.635628963181231 -0.528175047551408
309 -6.273145433812942 -7.942459777377672 15.557729533278708
1878 16.35052275157568 -7.9855022557430315 4.453563182566903
818 3.8080600596574636 10.99491659301302 3.6344617990232773
1685 -6.883589798890829 19.58833399801749 16.18206710219408
2140 -2.1750227390378445 -0.2896807459902834 1.7265761347070205
1569 9.800367165647424 0.5520179683590701 -15.495957127759777
354 5.677548279814736 -11.96329896554563 15.115375592767291
299 -3.2500566605438523 -4.512267939875348 -33.80119496897497
216 4.806350843620832 -4.325982670194817 17.748730450862187
567 -4.104572192886967 10.66336939614726 -4.1980808161538645
1105 -12.063273070411315 -7.655676549039612 4.786609949482375
1553 5.999852507384873 7.554532751863982 -6.99711014435515
1381 5.349549955669737 -7.147589765284453 4.436308050562732
899 -10.917878254626554 13.644151039123278 -21.590393140554724
1420 0.08976414935202714 3.100505540916071 6.896820848552771
939 0.38303322130219264 -1.8922357126765663 -8.427950472913974
559 10.774435183736513 1.6126470359454659 -7.894282700992609
343 -3.7296355497962277 3.228022026788852 20.17451297777347
157 5.919217124698671 3.5990164357180228 15.840662668311285
812 -7.143882639798304 2.589847993738174 13.991387902443142
1166 22.639161869303727 5.278176471275689 -13.68092842626986
2094 -14.152271018324022 -13.913500579057807 1.6194978149637074
2151 -12.088201858228867 -4.291319703932491 2.564904806444062
342 0.3770620877704362 7.450348492624504 15.480288648348985
1114 1.8135518770076426 0.036657080557717804 -5.799825870824143
1758 12.602038017957115 5.032046068179042 11.350138760305338
1336 -0.20946318643107031 0.9175630259990286 8.15718905536321
2062 -2.9761048068077556 -0.6598614253334317 -15.254540140747261
1611 14.516616317976524 9.943840096052012 2.2467778793834445
1598 6.124872594394011 -10.693824336237649 1.640159497066738
1920 13.501018440386051 -0.8725545450159594 0.19379582208183369
1460 -7.760546812550059 -9.629222995443358 -3.982967520947492
1430 7.957731842971522 -5.128979377766371 7.003694452999903
594 7.831483570826458 -6.690665040434678 -4.075116191298598
2131 -7.539508958378125 8.220410279059822 -9.507170546632876
1422 -1.8555747326270708 6.988347006375706 -19.225977313294994
1626 0.398947831676131 1.694840437219257 5.758918675215376
1222 -2.9039668069057583 5.869486023999297 1.8403856656334272
437 17.08393126743881 8.518261846424352 -9.023203053817964
141 -7.598991276634228 2.2635984275279126 10.551916263012176
1521 4.821010829853826 11.056173938669527 14.769388514226128
1806 -4.772238612488698 -8.498468904454858 11.745270456658574
449 9.397925701405098 -12.848175276884914 1.9962692142419938
1526 -16.24588385184208 -4.362414077869657 1.4344374225319054
1566 12.014506303436823 18.862117807744912 2.882555653361056
417 -2.7327492600193626 -4.964896036059208 -7.257629108343784
667 3.72384998810445 5.860222752631224 9.986360749506744
1372 -8.789808314786416 16.4437677314836 -1.1975921134630954
2145 -8.894503661312589 12.393699192451136 -0.9332484828131997
985 5.890052341785661 2.3189387018101133 8.963767018395684
1115 4.05212370798036 -0.9032339836048648 9.967930372437253
414 -10.9222446691918 1.9742180346968783 11.43966183945001
407 -4.758057199696496 -4.50835864601799 -5.360763203864264
1214 -2.7705971074722884 -1.489253391421201 -1.9444476583179873
670 -8.833998414991546 15.455208264262497 6.76087514336444
1374 1.2690791528916159 11.379518254911655 -0.09880849051504952
866 -2.137745208674509 -0.8455848762223206 -1.3737591502472302
663 -3.786755168301162 4.0103142483205385 -1.5429329025508296
1089 -7.255637139113788 3.308515241020245 -7.083992967883872
1524 2.4370337727983484 -0.4247444936082594 0.3924864572029921
1681 -5.321889989556514 -16.12126789634322 2.1892688700631613
9 15.53252379093927 -10.016078817655305 -0.141006698878598
644 7.733241745273581 -4.184110126685252 -14.90560051450597
399 -3.4756046676029975 0.42656929321466414 -0.11988621063429893
524 -1.9368630206440203 13.530133456786382 4.2659962437011245
290 3.703654844551977 -13.573719761284817 1.2609863816113918
1337 -7.76121667647053 3.841583590105796 -14.963704788393517
660 4.997334894490274 10.724043909239557 -6.203245817201792
481 17.304956608291057 -5.330115471475199 9.705421982782651
144 11.241830913446229 -26.633891295072523 8.361637439221836
77 5.693640543402998 -3.490455807826874 0.9037876081115797
503 -1.8938484110512968 -11.281724898484462 -5.980427731869612
834 -6.072873906894094 7.029904870420785 6.043926967482249
184 -5.565018287974935 -6.891879386583567 -4.334865752605951
979 -9.854684946416597 -4.345482014820304 -3.9326546455013682
1097 -11.014046288480746 -12.230202462655821 -3.2587919859237764
1133 -8.510512512489964 3.1828022276259107 -7.51110244329614
1753 -2.8923582035536364 -3.302351043461962 -7.954635942484174
52 2.4378310031476147 5.446016953424401 3.5310274387399185
785 -1.1018947197205846 -0.6659308600154875 -12.091104473542973
1318 -6.448644939785921 4.492160730024404 -3.5801233145272984
195 -0.1520742628952161 -5.814629523058329 1.3907986347711208
1383 -5.905875188456101 -2.350933753018431 -3.139607820820945
150 6.07873378957706 6.424252418638634 1.4909136991607452
1952 5.424355169488576 -6.236616784603669 -8.32671036190079
2116 -1.3266143691804202 -0.09208069665580994 -14.901142795218702
1243 -19.024774499107256 6.01555196574608 1.7559225414730768
2002 5.1122923868854215 16.417823693229952 18.294812446285196
561 0.22664470898562086 -3.6310680816641345 15.066560409302985
2087 -0.21880482086835196 -10.881050011772404 13.835824666581942
147 11.079852539993727 5.934512754146031 -1.6935722217774152
912 1.5917952597051486 -19.889396425165447 7.284148190266527
136 -11.5619259041197 -9.71738438138607 5.624515129913517
1061 -8.71903648298395 -6.984699308290304 -29.95795831600508
807 1.0806920412897494 10.416064276904637 -2.7446722050683734
1649 -10.733887627093226 -1.3157742806788137 -18.089030580300957
1269 14.940320614809828 11.926293801325759 27.036332403888625
1248 8.989833475827343 -5.229145065820162 2.708541026622431
409 -4.251831254581792 0.008734449326522486 -4.417591637453067
945 0.7888365835141448 -5.438309695330885 -1.7157429931414565
1825 5.824979144470994 -4.8327571826322515 4.11862769038152
423 2.6266896792500356 -5.083321199125351 15.514721718954858
552 -9.590838128028105 3.6579561690734996 0.7127665060228334
1373 -6.097564331355064 -9.588139118118711 -12.83980587528492
1981 -3.7424768159380397 5.372094659960666 -4.168803942406569
2123 21.29589283019757 -7.946571535568479 -12.935503231135405
806 0.2511545411772958 6.606375139556734 3.6831525171096575
1757 -4.9253279652653115 -3.214663333578454 9.672228410973954
1730 -7.964942085837799 2.3498515648542595 3.9993020770052894
1545 9.993158309134284 4.386264458055918 -6.799343303874705
1362 -14.598953644611584 21.855812262658866 -23.63726107633268
56 -7.313865157814712 13.350727751566172 -3.762134664758501
1432 -2.0503399492568066 14.961951987570748 -20.68561870185851
1229 26.343660580328997 15.150651376571684 -2.5499627553142488
950 6.683269108043652 -9.128169094381601 -8.561793721779432
751 6.388458015726793 9.029887542311956 -2.191829135762755
341 -5.528034693311336 -5.607067881155577 2.3910996562085405
954 -2.9660542940481327 6.835896003934953 0.8787787575276843
1555 9.146288740184263 1.6492382219784678 0.9728208340624437
1861 -4.850400021615723 3.9985119670663707 0.5136430428291193
210 10.64313129539728 -13.866754848307451 1.495154575639501
791 -0.15788620530455902 -0.6908877837348549 17.6659977846741
849 -20.59029936777509 2.404155378957041 15.783156741212359
1343 -2.450530283062624 -8.625168351200598 -11.834065262490826
1009 -9.085323698721679 -9.584470265677776 0.5804168005038316
908 -8.855391756707302 -1.153687277064007 -0.9506341385532664
308 -20.555962193939266 0.38031437505133137 -1.3623548926638844
1171 -0.09651171885120689 -0.6022071229583481 13.550281467912443
466 -3.5126828027997505 0.9841688356018404 8.396930396981194
2046 5.425709620460181 -13.61361904305957 26.976190789659345
1254 20.145684931393824 2.525834791765737 18.325484920642214
2005 3.977811630159208 0.7478677500013873 1.5769419288347877
1244 12.645109099581825 3.7992289431756814 5.947029756602973
588 2.866213081222563 0.26557115808460885 -1.3359798319529435
752 -1.0716393929155301 15.713775261322404 1.743009501710965
1762 7.74063232834838 5.920365365962119 0.2374199351354872
759 -7.368740752988129 -3.2922921027825423 -6.598174707726088
1608 15.06825676618595 -13.638721234688978 9.892513317130577
876 0.24936484936051742 -1.6462176791037857 -6.710736058888379
1333 -14.9919643259572 7.166384924047819 5.2591235984395395
1715 -14.303124004223278 2.0826514732982044 -7.769895234160478
1877 0.10855653676999936 10.091885838773749 0.9666357909102884
231 5.851417381730643 7.7663069955924255 -0.5272240007901292
907 -29.11982520484742 -8.648447308957877 -7.285027056746526
693 -0.25155637126194685 14.193545130404631 0.9079375381973481
1853 7.929968856999551 18.594752291161495 -4.259300557432257
1502 -7.034755978040306 -7.431958663406079 -2.3467520875459087
238 -28.9181771151119 3.990522802677396 4.202154026196659
76 -6.20200136149172 17.569875348023466 -2.0304607329752375
1755 -0.056228793973472864 -9.9649004582639 -7.43072176546352
2147 -1.2223329283598234 -20.086881507288755 -23.378218919732205
1326 -6.480236161757563 -1.1207987145083838 -0.1354076192120371
1033 3.3047850540185273 1.5257994635217362 -11.664671834636088
852 11.929084151742513 0.9534471668135188 -3.4426515052718534
123 11.20500872142203 -16.45362909873738 -7.6324228258851345
927 12.186528461860775 -0.28346391973152435 -11.137525982157472
1339 5.350137129372561 6.518103073115042 7.165872716987727
952 -0.644477391122505 5.736199936457635 -0.6824717513930136
2155 -12.522267887528002 6.279446626593595 18.169132143380022
20 21.104428705680448 10.872416074900817 -4.840756675640396
734 6.87199421670224 4.259735479886555 -6.651946043717983
512 -5.8379437366687 1.5219610099992034 35.420421418378375
208 -0.22867346673348707 1.5566369305737717 -5.494403831703284
539 7.399518434177205 -14.260941500318866 12.20887128870682
187 -1.7539319003969631 0.11384266069321036 0.9652188980312156
1092 -12.604774112134022 -4.070851820147635 5.6432822414928125
122 6.1454075864795925 -3.840954873464551 -1.9374536366049686
174 -2.0088050120026475 9.681956178301894 10.152981092390874
1897 1.5466846316508442 -1.044189695112519 -0.6772195862385993
1894 5.166599549494504 23.322938456407908 18.376674279940037
1257 -4.206455057185419 -20.59277796048798 8.812210089596011
1360 -17.573758730660295 -1.2556186353789542 15.519699122618434
1461 11.453980545521633 -8.072140102695617 -7.448432783015465
1658 -7.364131253447232 -0.9909940806056113 1.3944677626665498
737 -5.078476515148035 5.560383490040413 -0.7171245725555958
2070 -5.619987826300404 5.041973971824004 19.12960536337589
1289 -11.50002668492883 8.989529611319641 -2.855965116169236
72 -4.09652025498495 14.327921740299889 12.44426674422226
724 -22.7322388550713 5.069711373071696 14.751965939824307
859 -18.728549690828252 -8.883835554770696 11.143217743558406
2076 10.992404511414794 6.105173546806661 -10.09095025982755
316 -11.342186227993151 -2.192782792143688 -6.9667877754589105
1724 -1.0231355774523592 -8.904885471257868 -8.587976532193235
226 14.108037305506977 -4.318966385673061 -8.927163714437295
138 13.97475892624613 1.3196441221696307 1.0064791605853052
1471 -12.508550178521764 -11.646108268320342 -8.998858660819456
2102 6.353941600611853 -13.230482912037681 -9.933330521695538
725 10.976916822292047 5.140997753641244 -7.712414256010401
886 -7.027514052542642 1.6783380748905976 3.086521559437712
267 -11.820954483650887 7.923202134547603 -2.1968450325240765
838 -13.666320944112712 -7.1558905540760325 -10.641916217825742
651 14.047130537431418 -2.4633256842240048 7.334385179123541
586 5.598338670962716 13.167809132274456 -4.467398891877074
903 1.5794038249697837 7.15194772837812 -11.239085373998346
413 6.434021802427392 -9.026809389166617 10.77465313029621
439 10.721679172258666 0.8272220505149149 6.75752774543463
1158 7.5926961621914995 16.140022139088853 9.373575606582332
1233 8.185745533917922 -2.0021041408791396 3.4315963185756764
967 1.9586827778149378 -28.468559479630922 -15.874164010068627
1957 -5.267894014822731 -2.609700498664144 10.874446450455324
677 -3.0781346343519123 1.9836347225714053 -13.232600730393287
1625 3.2252138568912034 -5.057551371885922 -2.896236139533666
638 -10.650199349102222 -7.948792060593058 5.43126952182625
502 10.902711574013425 -0.18674694342537645 -2.371741566984418
1919 -7.618780096518249 3.793969971872515 9.396510062797873
1407 6.489992948001127 4.811431153087149 -10.807449313336834
320 -6.534198291248117 -18.271625606367536 7.955777180560643
1445 -1.5918370315529997 -19.1389840323038 13.866096359065855
219 1.879104694916707 -7.7106525602098905 -6.4408949524331485
1787 -0.05795859617271908 -15.65148162612348 -0.14465399040506605
2160 6.9392111007715584 -8.0032975089638 6.086240274768014
1646 -4.78792565880196 7.600944503226575 5.4184973663166165
1256 -14.660634087112197 3.5254320112612265 1.3061560530805656
2086 -2.635085267244008 -15.161636532038202 -6.4585744530522105
1224 10.90610695061612 -2.792816075071085 -2.9775435541610333
1084 -0.24701705352686204 4.895320804780192 -3.538453773472752
1305 3.075410756501859 14.008202881891108 -13.582656330130547
233 8.433813783466155 0.5505104281146371 -13.185606528190672
1774 -0.14661689758638205 23.12387937857067 8.656384926183085
1455 9.504307291517437 -7.512852395443298 -1.7138712423793205
2061 7.86535934681069 -6.400954540778618 -5.30675786871108
1563 -6.989822307158359 6.61479951790585 -11.006850497872394
91 -2.2261093843034305 1.2619002050390342 11.922066729363898
1193 4.611037794055976 -2.973840141230674 2.8208203516935826
1705 4.995510310550882 7.475355906206757 -2.229568813145494
2113 6.627324940281734 -0.003939255047351651 -2.5114284659116133
382 3.8420963479228125 2.2784206402777283 11.728981748225438
153 -16.250130476768316 2.1701546776327283 -17.714284455955347
1490 0.7480761547095132 0.9440491624089753 16.57749400623521
720 9.58011116759528 12.271593738177922 -10.441382666879083
2047 8.099395971196559 -14.588179328285186 7.4393948272515305
1162 -8.501615624218777 2.8386472207463007 -4.588963018646116
188 1.9731210676429776 6.9164335886887045 26.038501532491466
507 -0.6267533659228547 -9.99372061466888 -6.562472986980845
635 -12.047324323734996 16.19712452935548 -14.670824279126677
1690 3.4764248772716493 -6.557381767612074 11.809060334300826
1899 8.401655978041177 -3.911166161257687 10.260143834769153
1567 9.610986218339598 -11.879127175496098 -3.766699348392168
271 15.08521692712632 16.8839594678225 15.178538341047075
139 -1.0545616761655425 -6.411447354050085 -8.250838035872079
4 -2.5777299841430077 3.2537672308836885 -16.454801277851097
1292 -3.8483058259045873 -8.902036089749156 12.257064204343527
1863 -2.1102257247020457 -8.887340034261575 -1.9811510767176332
599 -0.9891963909191771 6.895555598748785 -3.679904612047585
190 -9.223321052291292 -12.40390908068713 -8.646264386486594
1 -0.8425321353532593 -4.256870172334054 -2.924150517582692
767 9.111814088017892 2.962231223160585 -9.664632635586182
1263 5.482332687074663 -16.29871100612214 -8.380168081910984
533 -2.06205603612687 7.439430328017803 -5.255743434974657
1963 -4.633212214983824 6.63547852961001 8.536197871334211
327 2.791026151440732 -1.9172117534568436 -2.97948730705947
1352 -2.8932232196114325 13.119087542459122 -3.4100351617258537
121 -2.0292409661216553 7.262895075560601 26.01149699062496
1236 -1.1168163951399346 5.481330506514111 7.761660588029723
691 -15.270297453724009 13.680219477427508 -11.81496126939704
30 -12.736552439079013 4.35878551798616 -2.458549292179453
2033 7.364275977418486 5.700002575631285 -1.6416875700651508
817 3.900423768160328 0.6797838434977506 6.783020648160032
1100 -2.237843001274423 -4.288928726118882 8.527828067787627
723 -2.5890021903134666 1.3413968840500834 3.067572206258178
45 1.8552529775483453 -4.113592840939631 -2.7077327844928423
2021 -3.851327686559425 4.452120605701779 5.5176911033455625
247 0.20444249565907213 1.732943118386605 -7.202008899618523
1570 0.05248870667123288 -7.662091541249483 5.276512845060592
1887 4.176204700103597 1.6254365741953247 -2.4500002309507156
1519 -5.441467821362421 13.354897601131249 -17.754882214217403
845 12.824103153474208 -14.478339611173633 -0.6223965937211131
1773 16.08879250043951 15.907030345483047 0.7317174577669918
675 -8.356341596908154 1.7315117178201738 3.2392169077130153
828 1.977063713717575 14.991660520670944 -16.26519419581612
792 -3.026928163718848 4.127719142827935 -1.0018156592678356
395 -3.064691038745589 4.356671316025188 -15.31123807532948
1804 -9.285103268851685 -7.041335269482026 -7.457150280120849
1185 2.729524464677922 -7.502884003897249 -7.659669794116456
352 -10.182510637679183 -3.7327299646288035 3.6245249910197153
1331 -6.325371548007103 -8.51603284591988 2.901142324535589
639 1.3053111215443094 4.9278882271185624 -2.8018363031167945
632 4.0697204801684554 0.7440204066245415 -21.321736750086735
205 7.927676690179035 9.575384019677522 3.7048187444565217
1368 -3.853592149880878 15.350520006739742 -22.704523362218296
261 -0.9236655419093387 12.276996484864316 15.103831818052898
1933 -3.650184691911957 3.625006556478057 2.0571824388514592
592 8.748024690244758 -13.219799842042784 14.296193098736511
1042 13.647098967647086 0.02962558907278937 10.58172890367267
1807 -5.364981940862724 -5.788648498298196 -0.27517109855360805
892 4.712032875341772 3.0333223043017132 1.681732469984624
278 -0.14852316565352416 1.6302085225145604 14.540527890137074
728 15.10965819167222 5.900420748692355 -3.536018045324858
1241 15.849920022575823 -19.370468519063994 20.068072921333105
1830 -6.218357277400024 -1.4496860352896004 2.067922355755541
1575 12.544407574129309 1.0761465273972644 4.101923056402864
90 -8.438540101119003 8.093003855426874 -7.418527712624552
1183 14.742990740980666 -16.91587903254446 0.19425873976770291
462 15.898902077812172 -10.465771932704321 -15.273687435835166
434 2.492397962661346 -15.356222015874845 -5.947303049560558
564 1.4398518310836295 19.347299049324377 8.541067539682423
949 14.612511497754157 3.8501710801723057 2.5129117877538425
319 -5.275139798182037 8.090454143752511 -8.0165569238151
1076 10.089250579874738 15.145075738704334 -1.4849396690481174
551 -6.121238175492147 8.289133610135478 21.075322763812785
1226 17.956982269625538 -5.264308126874823 -5.929816249176041
1451 -3.0475013056034532 -4.925855394057477 1.0278464859597103
305 6.2121851102585 -1.1758660835420063 -15.254002412408138
1612 -3.345133980337006 1.607612932509706 6.334824274847317
1714 -19.61310167873179 2.008378912172264 8.974950782105191
1261 -4.800726447543017 4.3239465404285236 10.145385381774629
1279 -8.044611802307701 6.392594269600974 11.484847928516379
1978 9.258029793837373 -2.431017463771284 -4.167580787114543
1514 3.397149342179122 -9.363554922317997 -3.3831983829992036
943 13.790189466560374 8.722554132315494 13.304126928453366
884 -3.5968776561201263 10.631935226174758 6.593727614591847
2079 -8.31319820075077 12.862070469447582 -0.04863292271128496
259 -5.944910160209014 -17.052332696799983 2.735314487339217
1844 -12.19078854001065 0.329477635053607 14.595837949942
67 2.5235561234429458 11.027396250091662 11.19390945166716
1511 17.352758839597673 -19.145493367062564 -0.4609863092172948
1732 -15.558090082477772 17.06573435771706 7.315528164973726
1572 -5.178264049370913 -7.490684272180303 -17.88370878027009
1794 5.920037157465613 21.998524857519378 5.610725617824304
457 -12.535586093395404 -3.3422477340843235 6.022790997096733
1790 -1.0795828748840646 5.241134873319158 -5.477882279605292
761 -37.00964658786896 -13.787295746942034 -10.855169963564002
649 3.0584425594653424 -12.329092282833306 -7.858403917713898
887 7.748986863375991 -9.685550965650915 24.02967307826198
479 1.5093494387127433 3.633869447036433 -2.1893745204004063
815 -4.698198837980508 -9.13183143621967 6.693847112775643
986 -7.885048962866425 2.4788787050632664 4.0668117740915655
1749 0.5375335305256931 -3.4268636119573763 19.877069521475597
1095 -6.342956428655406 -18.084729389469892 3.6294687183559655
1997 3.451297668091973 -13.915429827251739 -6.9667470286623825
1144 7.464650670939302 10.270484369765873 16.587937347903658
415 9.726717547543354 -11.394241247706079 16.05282923526058
1686 10.710071600675088 5.410931772297041 3.6034424592398397
1039 15.78741334058216 7.939058515416013 9.609342489411699
1964 -22.374099206690747 -3.0487478639022783 13.915088658097645
2121 13.039590000723173 6.102287857019516 12.824601079170534
1172 -7.48978143122127 -13.38774370601278 -1.1261298217696563
1107 -7.891003244097624 15.997265283910332 11.242456544846291
729 -7.207072140685135 -7.218901542629391 -14.141216063681032
1027 11.447850373061108 6.5471295349044984 -8.205701456215621
578 7.064576094686943 9.369118523137754 7.852144494136362
500 8.082608804886826 -2.9849553695254505 0.9405336026777807
69 25.81123178128056 6.812486511921249 -8.475522643937051
517 5.548419357099214 7.377577412141057 5.922215926704468
1271 13.342207401399735 -1.705141487747922 -23.15549261536595
1995 4.210324420355079 5.1204409713356505 7.617358646242559
577 -10.861641280165859 -12.870979396693032 -4.702330052043471
348 8.133703177608327 10.680791674645592 2.5239262301231604
282 -5.09842383460608 17.750766113995347 -4.168975321277706
450 10.771953307263054 14.578018885577922 2.3741793519016086
116 6.149331909441058 11.52543843788206 22.525471283070853
2091 -8.529822679278345 -9.877685872069714 -0.09028342537239858
253 4.622434594928204 5.597216052440926 12.854670708440576
1925 -4.525346021353981 -6.318124114600019 17.415203117049323
1327 17.869234156414823 16.77314084015812 -6.202357292940775
306 1.1048439733465236 -6.736525496980696 -0.6499403345345062
2066 12.923215617941576 -3.117269836155074 -0.5988981689365843
65 -5.019597555922104 -16.342664021598573 4.0163053910108655
1433 8.396450616087652 4.079628183094942 27.013496072786413
1852 -12.464331053304283 -10.425798323865862 -7.419029868199544
1980 -3.192691128654309 -16.320374673847237 -5.218821610475893
88 -6.120046989478401 -1.7301139712612312 0.8769280369559947
403 -11.784739206302282 2.044349509569118 -10.401879911959535
1150 8.879098790449756 17.796004210883677 5.597284834808732
1131 -10.504240876420404 -9.989415188269144 -4.658680324989804
1258 20.171725706810562 5.330187704780801 -8.815847110291527
1035 -1.0748331799129096 16.56311281423853 5.891608398051119
283 -9.205773960010898 -6.052595542706576 18.617513106606708
895 -9.490314992218302 -6.31256076090969 -0.3330690911903157
518 3.692043478488651 -9.801938832823144 -8.709409015329234
1161 6.675003503574545 -26.238505989509516 -4.347781399771306
1178 -4.818173808720699 10.23956855576691 3.598260264908408
419 -4.65124306873212 9.127534176395553 -4.851400290408204
929 11.07153619143655 -7.515563997351894 -6.348727546655071
1663 5.001920541726993 -6.442104023739355 -1.5840349124210586
1426 3.67199432181242 1.8419183220557764 6.780453842773588
1478 12.819331760486419 -4.672322925192231 -1.9536526498168147
1783 -2.649621954444401 -7.444173455189082 -18.67690170346579
379 7.475327814403206 13.694304945840987 3.4322982491468257
1987 -4.797990868331007 11.392226109204694 22.646824873913246
605 1.4611110975358448 -2.0529291174710558 11.268919751470825
1370 -1.7828125967601027 9.558433458480625 -0.7454368501044292
1223 7.341931538900445 6.151826576359197 5.979187104835283
166 0.45489774076132494 -3.0256811850595193 6.684511440169614
386 4.506454640241904 -5.888240136031428 -17.02529168186604
498 -2.291148774810207 -4.923335235153477 -10.610636577943538
2119 -6.466521777036833 0.4870726831012103 22.546954788440065
2008 11.091256306433701 -1.8645642291253683 1.1529005417529985
773 -3.28958155268793 0.3539786071065735 3.721565934535267
880 5.59056653571459 3.4722500886179666 -4.136779431845505
476 10.969266928683314 -11.865804927401838 -10.211639576705707
22 9.31586532165895 -22.394252340288343 3.122952089524527
771 13.594665937795945 8.63991611995392 10.017655539626393
1119 11.999194108039427 -1.9021339547838736 1.510559140098128
310 2.167203097645636 -0.19077331749740573 -11.116998932110498
1536 -24.218382511771615 -4.3482315585036515 6.351866640420228
201 10.934913625837215 7.230204177329777 -2.1519365947166387
186 2.745743915181922 -9.367936149212579 -0.022506144518539765
1210 -5.029857761531879 -14.019100586567761 2.3241459826933166
1203 -6.932338642278725 4.570054861062684 5.063940473798901
1196 -10.122289811523302 0.5959902769443389 3.0156023638211855
947 -8.767897078302635 6.032061577838153 -5.289085005949296
170 -2.1990807126414524 9.58616526370268 14.16565082063574
381 -10.018904924954786 -12.396544954260033 -3.011282665474632
1345 18.630283978931914 -0.7402767667070113 -6.470293222025601
2084 2.040120798363639 11.7335474348515 -18.535294632807116
448 -0.8727058832911819 -7.686641734693116 -3.0768464569211824
486 -12.101883657446004 -3.554025312414787 5.403951997796429
555 2.7421884893572965 0.21688439736855042 -0.1822610826792093
143 10.573205758315105 -1.6376801878227667 -4.465428591409669
1893 -0.0687530290766358 5.5608194936496185 -2.4795878326303624
1996 16.73966587695861 0.07740430062396411 -12.540204334650126
930 -15.12786629280234 6.810508101784462 -12.484595631602312
418 4.623805325891824 4.304724433209186 -9.985253239862866
1363 -0.8611393749610848 -10.433339101236744 1.3753571645000173
769 -5.695813731302987 4.5600177370764685 -3.9196662630825387
1307 -1.6521321733585135 -8.144019932690227 -14.331533507835891
1875 -0.6977014519470549 2.3158823004958835 1.5546771002851094
631 -3.7303838465327597 -2.7824338056203843 -8.535668491266026
148 -13.71536959804052 11.967551364883866 -3.07143701116652
1014 -13.188694814191907 21.383979759147234 0.7639450469726184
334 -9.075951140943944 -15.284424012208781 10.647798736169314
1501 -20.849815178198853 17.152900178576864 4.563224891264966
946 0.23644129233543465 -13.481165075977119 13.945709953830868
760 -7.182684079744931 6.532862817793449 -15.514008096288638
1727 1.4005234949075451 -3.934951229406347 -12.171116459801373
1276 -3.9670648077837516 2.0262718674594415 -2.839924225140598
1821 4.555222372549353 -12.046750022524085 7.018013172788557
2117 -3.686976374685441 8.068275797523386 -8.531632598977051
398 11.310471132245567 0.44632086080755384 -4.087782908703441
1316 10.663936089230145 -7.254474340676701 2.7541816830384596
1351 3.503386797673804 19.661270529911953 1.5737256331933096
763 3.732316415501115 12.566316887291583 1.5045567223107377
579 -11.229292172578155 -5.012168974194169 -15.621803639270459
933 2.693145147269688 9.751730865250883 11.73491909050956
1437 -14.096888014207225 -2.1408636994558004 6.0236423977034725
556 -5.636798670280298 5.01506715055237 15.999158630224148
864 0.9678668415299424 -10.546597537301437 2.7703077475237823
1314 -10.405391398360777 11.605937411345021 13.385733933612407
1364 22.05438499525497 6.923663424611697 -0.2607176782486393
3 -6.680047526525175 4.29730723220733 -18.838708203746005
1941 0.8733025794351307 2.2439229104644354 11.02763743302734
1717 -6.842999369245575 9.95841815370912 -9.729161656482113
135 4.030402032820167 2.6945293255154477 1.4904384135940167
1532 -6.979682749083033 -2.220508685458545 5.3253222323649885
488 18.132203876755323 -1.721559895113322 6.624730295256353
2138 -13.148941427434668 1.1189780797671283 -3.170588704134619
33 2.5177323188195717 -1.4291968743634014 8.29759958887155
1624 -5.780583210573143 2.458370546725972 15.785543051874935
355 -13.418357552096099 2.2557774995613817 -10.821470090432186
1841 1.1612655973356487 -12.444554636261353 -5.189815849503107
591 7.53229774367995 -4.20906424704974 -2.443947050200669
1462 -2.8873880440918125 -1.2083332506687114 -14.196220528254123
1751 12.38036318044636 14.27915130830361 -10.496303344001655
780 -5.640785074566815 -7.03312193950115 13.252799688098827
2022 12.9110780961265 -2.328207056530006 16.994435671471518
1127 0.32330028247706066 -1.739433805389441 -1.6561346010412128
28 -6.042986229919932 -3.229651319220819 3.624352004909986
408 -1.3126472117159707 0.02145536826866657 3.6785770493163623
1164 6.756192745808614 16.473916284364076 13.145921507935675
376 1.1990132622150889 -5.319814624403812 -14.228296440198825
2144 2.617885865620856 5.117452315886014 12.550809862749968
19 4.210100714119541 4.318978099118364 1.283649795829743
277 -1.1678424606731008 -0.6506400669238667 -0.1878342905983414
717 13.846471429608535 -2.752487338123572 -7.740853756171116
2015 5.36515642840998 11.78116947207691 -2.350956145583842
1538 0.3139371230685785 -1.2961142277343105 -3.8204360611727486
1301 21.72797212378883 -0.8504694325658386 -6.497252561298193
2146 5.230096930643107 -12.247423188223772 11.317473800544917
816 -7.290865955050756 14.14027135993413 0.31045047360796363
808 -7.031906696834728 -0.0734610771193711 -0.65726372711488
1313 5.71061279196146 9.375448552753664 -3.8357978236351187
159 5.400732187319557 -0.3231280564560556 1.6598102810023299
1836 6.881650929565214 -13.77222501121347 -0.6937821539544956
71 20.44099678104036 14.774289727029712 -5.1217165429418845
1393 2.5388269490153816 -0.6747821633075078 -5.439334739839539
527 -35.907026677486435 15.03218004430493 8.385419467552621
1699 4.5282134960710065 1.2841061728225083 -13.855224587983399
2044 3.5095524295847698 -2.568533410490205 -3.85185571099166
1793 -9.957241750622824 -28.271382311593698 -6.129753293064841
196 -9.980969370878373 -11.260821092289165 -8.118622994286579
1835 6.517936689553167 2.793421478586077 15.50065506437538
62 -21.494877946222232 -8.539483141928345 8.27971236667287
550 -11.667828167516335 6.191337707574995 -7.7758062760543325
699 -15.02459949065002 11.672702815923458 -5.397653608629262
911 -12.30974816315628 -16.113305756405133 6.008888631392279
1442 -9.462410966115678 -9.35878770474124 -1.879615846694613
1412 -10.609969693971902 18.712258365278473 -9.50126926059749
851 -12.50926848862639 -8.496462897524301 -18.158289703468917
1167 -3.1157337726441225 -1.6886571551902703 12.108502084303323
1053 27.90145154774847 -3.358096720855609 2.424023628805297
2016 1.5685928363135189 -6.934731348840146 6.285906261063442
218 0.5018735942926347 1.1176799755041065 6.0096664727613875
1829 5.960304729608357 -16.150958836165042 -3.323062435825218
2158 -5.479507756690359 -17.203320560692394 13.014663835506152
1293 10.418450792083569 -14.619620695853143 1.1789285835662677
942 -8.67608491785015 -1.738863811638327 -6.2572853703503
1489 2.370592886597947 5.740752689874052 -14.603078449841092
460 -4.699504793526788 -10.733252180960152 5.789562619614355
1342 -2.9334108401525594 -28.920304392271067 -6.924769389095663
263 -1.794033062359436 12.332962717374315 7.074021815278644
535 6.813320528012509 10.680422817880807 6.68140693762445
1051 -21.610555379669634 6.539300148639944 29.479712099049884
865 -14.03826647753619 2.9895401286980765 2.634382545052525
1638 5.537773161487046 -8.14438153474578 -8.871721212761045
222 9.631848428633038 -11.844954890457606 19.721829355681212
915 -8.294539078267606 -2.7729994831826947 9.1728469092703
461 -9.12946820358451 0.6464981519210907 5.993279486572558
690 3.3283612782012404 -1.197389049942645 24.773278805155908
1481 -13.682294271396756 15.189403293304498 -1.2878360543837466
687 5.733402809488603 -3.6144507101837533 4.941277705897615
499 2.2183472610636428 10.764107615561175 -5.929189781522993
1346 0.7532898583916985 -2.8959745025906027 -4.5013110670674585
1523 11.353248787442304 -1.807262258231795 -12.068388467614328
321 -3.6117710745808718 4.443362802579265 14.009416218758505
829 -7.079337825868416 0.9195857032191567 3.78327054257375
2036 2.3268531256585594 -2.8208584650491813 -0.37751371138454565
1533 -5.886360034026588 -9.79965325506348 -25.16996652517857
1731 -1.092871487377885 -0.3716562008472352 -3.0001956206921743
978 -5.441194530250113 -7.344437002713429 7.493339165533665
565 -2.3205876582988645 -2.322969052211159 -0.9716899785232088
340 7.233058227793331 5.467706642022093 14.474918362844642
1124 -10.386318198896044 18.476267516650857 5.863224645315504
1691 -22.457521341738172 6.594175072780826 13.98560093452071
1589 -5.966623163795197 -5.137034740715774 -6.919158064393196
1413 4.730988400180326 8.605657401714032 25.796705528392653
1721 9.727986518459684 2.049207506617052 -21.701566140335743
710 2.8031807197636383 11.900329929092583 7.843291949289528
103 -2.516814280362009 13.84101125648961 1.5881894434517811
548 2.1498912012739635 -4.106840162087803 -2.8570603878363774
162 7.410043671729206 -1.8248074739943885 9.214065654779102
388 6.882601660261731 2.1841501575801168 -0.6149904295862509
489 14.64533267453227 -5.930611556125957 5.08625400927782
1895 -2.7330445897643387 2.2628143610222655 -20.342511083330905
1678 5.61267265947134 20.45097560317954 18.841798110431366
733 2.684482334238277 2.084780237439872 -6.157935316101929
883 3.743040146197269 14.853151338364208 13.621604535097939
1093 6.320726764313479 5.740998397332984 9.902192725467424
1664 0.45997121309569294 -2.84530202577608 8.20626135204546
107 -4.438359849023917 -1.1067294852846394 -20.379019378996745
969 4.091777389166708 3.4762026543581888 1.6355228407831732
595 -34.25150011669792 9.586012795664598 -11.986254723843773
1684 -11.123044589369178 9.056109548508234 7.451783602754015
608 -16.578442241739666 -19.33320457300064 2.9087657693728093
1932 -5.322499712551865 -18.738360871067336 -5.617992136538399
436 -3.2072062799318015 -20.057736580552533 3.00049442990907
1645 7.1433738681564 11.815954132123327 5.93211998280203
2141 -10.22986114662341 6.410020639523654 -5.730323180313343
433 -12.217175909533744 -18.710834672869396 -1.8934906064240418
272 0.9407223266528801 7.719666684714226 -0.8084401145565289
1483 -6.900043034880722 3.6886857239790327 5.318994595079365
1375 4.631467516963516 -7.205685663078764 -0.09930442413327525
1240 1.9248420454629411 -5.064931476472734 1.3168771877010197
1037 -5.417804576269641 9.959683164094207 7.993512720101345
1954 0.7082968686684631 -16.453655351806862 4.761474190415348
544 5.3514715398009995 2.574865707773744 5.26456658593988
169 5.5658479209587455 2.701367799380775 -20.56608241387524
1756 -2.027330284427959 -3.9512977750405827 6.9878669261505
298 -8.656951838698703 -11.516206559798743 1.5245389959979516
576 4.049962962282009 1.6005218738606621 -7.192236657386105
1761 6.145441330703613 -16.96396671496139 10.742683853357468
1067 4.859184316395961 18.658452410674595 -7.390182060482279
1216 0.23620747802952508 -0.1761809833758375 -3.002403280931653
1074 4.645356113310433 16.167630433589313 -2.632508538141252
1596 -10.884192040686171 -4.695101517380783 9.300422993652278
1031 13.865717873177935 6.832791020600837 3.393888904710234
2083 -6.556963747062206 1.933836811229662 1.182799594559108
435 -7.831804933369747 -16.324469017444855 -1.653295230573686
331 -2.400541843787006 -6.311853277070543 5.371153274402511
368 0.5909566934298349 4.59457274018501 10.955442087585213
607 11.235611272375138 -4.968572942771175 13.104463566765215
909 -7.199790786764655 -8.83226940991997 -9.415234824157013
158 -2.6501519301687186 5.191974704152885 -5.810250967366298
1881 -11.927304275984248 -3.5576711304278685 -13.704462044859346
1417 5.90165241431211 -9.401590442013793 -1.847823483947989
1163 -11.001509205663181 -3.4512223158684225 15.266008872781446
2118 9.82423039346111 -6.302932078466781 6.249399388612818
400 11.287102151119017 5.579324406120889 2.7866740472968634
1927 16.642889674357953 -1.2113031910212577 2.6081482013627624
2048 -10.08268372237434 -2.86306829442594 -10.555673130593313
2072 -1.1752891964633663 10.144876722095674 13.278393126111142
111 5.5499393522796305 9.355422492496439 -3.8135818279862845
234 -10.891629076932757 6.353536218448152 -9.39410683823027
1486 -1.742383502229876 6.720055285606939 -17.190890470795665
443 -4.106353395065751 0.5845581034352736 -12.91376595332604
1312 -5.293298375305273 -5.108254803644174 5.546807244082402
1332 -0.41487418253155356 -23.49720458493837 -12.446390760851813
904 5.943670871063323 -6.083387590306841 5.574775167752329
1689 1.3803106116850743 -0.7772839400082915 -3.8580613849569554
700 -9.147455643508271 2.337905256411789 -6.496138953084359
1221 6.2328271801020065 -28.595900066470367 5.911552382901913
173 7.336686717071031 -7.6440630986979325 24.489129797301317
655 9.738668493878539 14.39934180571011 -25.930259305269576
2089 -17.30354999106272 -3.568465364744182 -1.9489131037057312
1414 8.448284432682193 -6.69164941137694 7.525686983104861
300 2.42689041313189 18.154448023639194 15.699201845751618
1480 2.5842630576687005 -11.77934809773767 -1.8095464471338671
801 12.168818937457683 10.426386386807593 -10.845186847729156
2110 2.1657307888164685 -15.480016354801242 -13.246482105643958
1792 6.821832205884493 6.976543840402088 -2.565414513805763
2095 3.8597448651723036 0.9714808580877882 -24.064172780358152
1530 -10.15493843817368 -2.6389995694416752 -15.216010050177383
984 -4.936861941747531 -6.690902919966045 -3.8420225990728656
1780 -5.82812189231829 1.6837425201791438 5.521095909988215
1823 -7.436021576333149 -20.127630524503182 -8.620493316183637
784 9.68398546165136 11.438248972046772 -7.6437739229966075
585 -10.242331256056886 -11.655659122374297 9.42475796856826
1977 29.24211429283627 -14.839521816615976 7.928234614682294
901 5.145628736975541 -6.358896686919537 -8.681211656375607
671 14.547921462799179 -1.4182351410894527 0.6049732599856439
264 2.773075367229102 9.073715153326145 2.903734723718204
584 -18.54840126075683 1.8301394667885822 -4.521019336194572
940 -4.748617437727365 14.705995019611684 -10.161177398129048
1041 -11.497710190256859 10.818891062281057 -7.061642242125008
1347 -7.762872846711821 -9.681448635313801 5.413626760410474
330 2.6067207631347227 -12.161213063356755 -0.710228087621684
1290 -9.644901582816125 -4.268001858639155 -14.927792302928006
469 -7.468165066603639 5.714093326065598 2.465018947811805
511 22.391710103893285 -6.863988523152915 3.933959976004319
2114 7.114973997156054 8.558979387058814 3.0586322889456308
606 -3.696557078953482 2.904815546841866 -16.151923328736988
1423 0.03885098436193288 -5.606823033040849 -25.11321823361375
569 22.437320660407096 18.299173874764847 11.544557819483524
1635 -12.491360169584501 -0.2693569882414286 -0.5415034034353415
850 -16.57265752236668 1.327867182762424 -16.348917488812052
709 3.6855509752714735 0.05044159699582472 9.086345024162723
774 -4.433142876543087 10.188604162583031 14.51174903998984
1603 17.69675525582498 -4.824574133168719 2.5635621907623762
1669 6.565828889961584 3.3820197553341913 -0.8864116667752648
941 8.830471413761348 4.587268155318582 11.756197693919399
1000 -0.9672906297081868 1.8650523363696134 16.44290835675266
2130 -8.165824309663954 -2.0160300829743836 -0.07805286609602342
1508 -0.9302351029069479 -4.173648101881469 3.9833952042456784
6 -5.826913280445722 7.591201615409615 13.510292263832557
740 -10.338166898233377 4.005404859937442 3.692642048536279
167 1.5751261779624912 10.45861755867723 -2.815342033246954
130 7.5633327881386 -21.320856515809485 -1.9167886593679764
619 -5.876713109205595 -3.4064079200732493 9.333817887610419
490 -8.231815905271887 -3.1144989819418027 8.031490397055977
2103 12.637340280289349 5.0290104972403915 -6.721581379661827
1582 -13.845830260109894 5.8093211410532914 -4.527419698377199
2098 -8.945357052169479 4.519994526956304 -8.590620858680172
1071 3.2242682379503282 7.769365322086653 5.058535677676366
1474 8.964619832775796 -14.301110013747964 13.434803773727062
1003 11.235713133917333 -6.29414666975813 -2.6015556073970414
1099 -1.9419280932092489 -16.388938414210926 -7.511348514989485
447 1.5225841075635524 3.7055808764467515 1.5055999155942243
2017 -1.5150622499504287 4.18404166230363 10.933511091324265
2108 7.881403088310455 -20.827469434532464 -11.145158724015669
5 0.9502964775645396 5.754212172390281 7.822551699949894
224 -6.0960783925133795 5.221665970563684 -5.704878918166492
961 -4.271232678310121 -25.3732400449562 -5.801318992469797
1554 12.62925820553788 -2.0224730140872245 -5.723643319516239
236 2.240613002731945 9.81612083513471 6.736516560457978
281 9.02777732259077 20.674238116973132 -6.13776942594067
1515 -1.4566815085336544 17.819238179260637 -2.7886694103581204
1434 8.68786560042445 3.559156312820886 -9.050277908789456
938 12.072316211390325 -4.300986933207427 -8.10491439071361
429 -0.9642155041443456 -3.7091252361065274 -9.659835059117034
1441 -18.19001024599658 7.3274397057796365 -7.532876175346012
1341 -1.568599775632364 -31.36241689810998 4.708680842334287
70 13.35162756526701 -17.02515655386898 -11.845238679686073
1775 -4.820762276848087 -0.9210006223412729 -10.416754757950853
1128 14.634611723094208 -4.744379336897938 -16.736787217223032
1285 9.589778461237914 -9.450140920552016 -4.7867049680600875
1781 -1.9242648715720876 11.728046439861565 7.794686319431503
473 -0.736969281568254 -3.68004741689971 -0.6971803645804218
1716 -8.824671206882167 12.46656518526008 -15.577387588541766
1052 -2.3763595477225694 -17.12126788587952 -14.988549460350002
2059 1.747011193639228 -7.314485781420618 -11.221639220718265
51 2.179499508089088 4.63600926463162 -3.6444867492115947
1602 -10.447232259304192 -7.692607081173421 12.514184407269706
154 14.958523718964202 9.891661569510383 -14.71449460112216
916 -2.765302323485303 -0.31311594343727345 0.0840291206610665
1063 8.673797541359232 9.415852020220504 6.745092002413303
288 -1.4881573430650916 -7.410717988848805 0.2717094008260486
520 -1.4968210516027687 11.361195643520473 2.4887041464761523
350 1.2420408350482193 -1.0094805675718992 -11.264118411169694
1733 -6.909319009024123 -7.859834001916572 8.42349320944767
483 -9.625972167984532 3.668816002044734 -9.64553132011787
614 -11.306107416548791 3.401298632188246 -1.451086883901689
756 14.98355584422039 -22.071355318763874 -0.015082996392046556
1334 0.22749808835731888 0.37376813851342805 0.7110707298712103
1209 27.08000513928815 9.649063148816994 5.87063653457238
458 6.877625544337447 -3.0642446040160216 -10.975474794242176
1811 -2.2252297885924417 3.4844520280302027 9.225825006429073
648 2.0133439356929212 -17.269260520776143 12.641063188204328
1188 -1.7128907712518948 8.164121299052722 -17.723692059083767
1840 -0.2743336825012126 7.184742478222444 2.134667404794726
1529 -0.11685082090988266 2.1807833066733786 13.764179563892903
1670 -3.763669727717312 1.0438154245227793 9.938191971739286
1113 19.35253767393755 26.18898847840163 2.9478915243364883
1102 -10.928168208447415 1.3702417576259953 -19.619446827978038
2013 9.933984667566328 -8.570862416166104 11.092594706990305
521 -2.036649102519922 0.10730993970623082 14.570365517747419
571 -1.6690370881434489 13.035567886675395 23.664738276754154
1324 -6.4229713413804195 6.8129005028549185 1.5005236142284792
1470 18.228348992543967 12.900794108910283 -10.04885744307855
814 -2.5069976531095493 -7.744541345100038 -9.857720502202454
1217 -15.003605693128783 -10.845634999022382 -12.751967054503353
1548 -7.7233609010462665 15.419906179334886 -2.7193857658059026
472 9.983433068047074 -17.22125296504533 -1.534808660087992
1296 -8.839371115799672 12.26814608860049 -3.899924271545926
109 2.7415700425263827 2.827320368998048 -3.6790406833367926
1629 -10.660274917250359 9.544579413220928 0.2659487699156846
1286 5.224230100675361 12.10027157568896 2.960811966943675
654 -21.022203490280194 -20.155236990778757 5.9937466980825675
758 3.960679381668372 16.099101897938397 -1.7522674759296495
1080 -5.880714368246281 13.39272832417267 -6.096233086187752
888 -6.816133160083172 1.1584160689034664 -11.943608321167062
1876 9.012197470078608 -4.960283837228854 0.23036904079926845
252 -2.947583477986838 1.1273795124041832 -8.598213239005394
1242 0.8430575445172152 2.9773437820837527 -11.621789056599741
580 12.678105104240107 2.822250685941559 13.658069639817949
646 0.6396339114653146 -2.375399402845102 26.07124746156034
378 -20.019813672762062 -18.13766255630528 8.126741571482713
590 7.320307265713577 -7.284745832972025 -8.407361314661305
1278 3.177409377121173 6.588062112037606 -4.815766580920173
1642 18.35310423244446 -0.333806629472852 -0.3407011067765208
1994 13.276367197532984 1.36306187652469 0.41043927451735435
1148 -20.55288325846862 -1.9821896723850916 8.66904816738047
337 -2.9683636136032407 -1.5792405314484022 -7.333105653677886
1389 -5.269047886511667 18.09803661788409 2.4476557427778647
506 -8.593217383982882 -1.0178592130438846 13.463423551820133
1101 -10.96605714851412 1.3894752092239953 -3.31471761585219
824 -4.966572476344788 1.0691809186182293 4.492495908945094
665 12.436075929075614 19.689511525200572 1.9860603744582226
998 1.8808385154523541 -5.831605707420684 1.1820697674534906
1764 19.139732766694333 10.781602516881982 -6.782561802679219
2115 -5.860769717413686 11.209622735663057 4.72921640630755
24 -6.997872826602628 7.967082514234681 -23.388498079275365
1029 8.153222356168381 4.427983446743165 2.3732837406577136
906 -13.89750755540659 -7.757892230234862 2.105839202979445
1173 -11.559646142963125 -3.1068785135361825 -8.948683470704283
999 3.2828705455400695 -8.695233086151513 4.9371482426340165
1130 4.653605827856479 3.3463609222779565 2.8288432212283325
1662 -6.074571460371564 -5.007344363952303 -17.699548888594496
1366 2.9394356660482184 12.920716295952987 7.824266601621575
2010 0.994430827222641 -11.909523445825817 -6.167193674028074
402 -9.158467155746038 0.24695053270645312 3.380148049466476
156 -5.233139551329201 23.3134723548264 -4.89708699617104
1610 -4.762881896121133 -1.18382970933643 13.007133637628897
647 15.252954578402845 9.232602509086513 8.80013181429648
1299 -3.4908205605982596 5.643434434861411 -8.608630662898301
1675 -4.109943407819839 1.9689568231066172 -9.478806334375049
2065 5.4961286415820965 -6.201221308298398 14.789041020059761
1505 -21.106097211000918 5.821251777235126 7.216015619880089
1416 -20.886102270882066 -3.3183162542950098 -2.8789733638707493
1695 -2.0591914027255958 -4.580671789090608 -11.601503373880332
363 -6.42954806342541 1.4659495869066879 -4.233990687887289
918 -4.210184105487969 8.684805026066002 20.26409607537697
1542 -15.235102131733266 14.207248743664803 8.71260427059556
698 1.2723693655782162 11.924164433488173 7.776827953118133
1701 2.437486732402249 -8.937550822699647 -11.085721757648917
84 -16.071713500696866 -11.2639079246994 -6.945364115745421
102 19.293055251702686 3.5669855638426866 -2.4169577230048227
2020 8.176277433777672 6.62573406935926 -4.22235653697467
168 -0.2631471738856268 -2.799736929081474 3.6934860851885998
477 1.9864379074687928 1.6506727768193377 -11.336350497109771
64 -11.296095955551632 -11.409712814339699 6.504166907335071
960 -3.936217151821901 -7.38658965986858 13.020000636516743
531 9.906047009232573 8.464070213284533 9.048279246156161
1320 -2.4092716437044324 1.0808882112982687 9.360414659418412
1109 -12.274636481667724 12.652684523747256 19.83287843494698
988 7.214924863170918 -14.75420320275603 6.31261775355682
837 11.001136381548967 -9.787475979417959 -20.756414069293964
1340 -4.112881559372192 0.23318084003053094 10.340912864920465
1159 1.1746844195609742 11.2177812605206 0.6651315260137722
841 -1.9616772864429672 -0.7685312597844582 3.0654882290537326
2082 -7.00715742448637 6.3283749307251815 -2.2793493485176493
1796 26.121750330216262 6.526151106302749 -4.932097143830905
890 -1.064113498484953 1.4911341789400736 3.412816702180432
1820 -0.17860688434920913 0.5873525422382815 3.483383715285633
53 3.267489526549357 12.64849544623773 -5.688160529961721
1090 8.169510852159146 6.919509579465423 -4.578773278862504
1619 -7.621312595073024 -15.50243434386896 -3.3519896682811154
1179 7.92011001850733 -12.381585250860942 8.548857263806823
185 11.923627834345345 6.437733626082501 4.171276787606185
2039 -2.5969978086624006 8.68302898213218 -5.550806761900798
1001 -0.2164648770342087 6.918627030951165 -6.042342427161413
1868 8.243798926759288 -14.210532938404418 -9.464082551672659
686 10.90158491901575 2.077802422562742 -2.453880553197666
788 -1.143286220175097 13.108922976107749 0.5492855543290703
762 9.902124927090401 10.989546104292714 -15.548089475294653
293 25.209146014400847 -3.6673757082897236 4.630041726522964
119 5.190829075330274 10.287527835892943 -3.5902555556484055
566 13.718687031467539 -2.1608874815579022 -18.988408171333088
1019 13.37883920507996 11.393425480585135 -0.21670161689806658
176 3.160855084991975 -7.30772723547751 3.3727031548206368
1791 -10.462329774743948 7.2397676251826555 -12.143998686825672
1556 -8.521237435808315 -3.446442487527189 18.308062868361837
1030 9.186008037647875 -10.901021695639947 0.6968706583584656
1550 3.020328693583652 9.698867507815173 8.350857658243898
1472 -2.4600960798737916 2.3667883357255275 7.49909989400518
2019 0.7551980557289945 3.4258296737402905 2.890116301542687
1026 15.274890660734602 9.501260950150792 10.79094465964468
203 13.456530377033504 -1.5990996626537184 8.137159493633241
1142 -3.195089782812995 13.775179615984616 -2.7970414411585627
451 -11.497941925212773 4.479087827432862 11.434543937624131
1310 -8.096363674313375 -9.72456584754798 -0.3821537400200609
1013 -10.466247302874782 0.9511078989232352 -4.294989164071733
1175 3.5081618778473214 5.202602028878932 4.525609738772237
572 0.07993886021456646 -0.7783477080778816 -0.5121321046774784
467 4.434094140686256 -6.106480030006707 4.921130795298367
23 -14.037803633962262 -12.371647262492258 7.304665210406981
2037 6.126328027933116 6.482999601536351 6.178937524720846
858 -8.147602959752964 -3.172346086162764 -7.4982135857565115
1974 -6.584113725257629 -0.38500131036502644 -9.294929856208858
268 4.208390930277019 2.9079357687921674 10.911348179087272
669 -12.436327959160039 -2.0160471299061076 1.1453545173237814
836 6.771800805035739 22.524567887597016 3.539479585121668
1564 0.7262625438474477 -6.9921904615080415 -20.17691744417826
1004 12.186560494346429 -3.247173086365318 -6.471493417108106
1544 -5.51694917161457 9.994020394486776 -20.988829401260716
597 9.824330198174394 -22.109657450989797 -10.755128189079537
1149 -1.9169305686240148 4.624355955025836 21.124648044826472
2026 21.388302476562615 5.992201043811854 -4.004885106936509
529 4.417813532487793 -1.1610244729062305 6.6397909577260865
482 -3.2747797182962413 7.28038142975447 -5.507390274043283
1353 2.0852130686789683 -8.567633274343773 -6.537190749508167
1656 5.200435696157846 -2.6573458154052987 2.1715671373413894
1325 9.722588527764204 -27.551504539244675 -6.37289356808747
1707 2.1960435777978713 6.57321990854972 3.019332173008277
1600 1.658649288922561 9.24099202998638 12.390633878220921
1522 2.5272133289234096 2.471689048415351 10.014755156919087
747 -2.5864676496646664 -7.273866749796041 -2.238673222906571
2069 -2.20651574943354 1.7591542049531017 -10.78910609448455
1640 -11.540797484352625 -1.1475724604956592 -5.835272629947353
894 6.38208645548197 -3.5158481683152147 -10.196274912322071
944 10.959718124272221 11.970482706427031 10.67960812603571
601 6.1581852758556686 -5.913309983291425 3.6987235266880973
322 -4.584361636451296 -12.350474712667042 13.199526284147618
1198 20.12782632417162 14.347616450296238 -2.5152569043399526
1190 11.379986890691862 8.345650169215785 3.5933883003863043
1913 4.54501224747629 1.7979820573258298 -0.6120113229904978
1168 -6.957616466126603 -5.015954784594038 3.012058503964547
1207 6.757481199017173 -12.449323497348326 1.0776666040194767
1970 -0.20727470004413137 12.52396426336071 0.8034220711264246
1302 -0.8534574282130182 0.7536399473149288 4.875772104733007
1106 8.072825463421866 14.66555343127156 -0.5936273231888282
1398 9.133683955917126 0.7092791319996611 -19.800908293421216
86 9.6827578217177 1.423742782851677 4.93306004884902
1847 16.291055193297165 -5.400651918475347 13.922140078556707
1597 -1.5657658074095069 -2.321762244441428 0.35365786259082965
2058 13.252557430502481 -10.314244986179126 6.751980179704243
428 23.510687950344792 -10.676427637184613 7.689951682146123
715 7.437686730240375 -10.383222547253188 -4.565612334951754
604 6.820702688353866 -2.9336492543787327 8.467620027102543
1798 -0.6356403836727316 5.517634518475792 -15.24859896558113
1983 -1.0573596351438068 -11.41091658665815 0.06849334520191432
1322 -0.29103601978034166 -6.3970964091319855 7.348566448755913
1966 -1.0098939693850237 16.060901614752535 8.7129820330339
1463 1.6753930905022898 -14.32703000553623 14.989368320969511
1227 -3.784149251494062 8.406164480631414 4.229964629993039
371 -1.745979378942014 14.606439751155316 -3.3382371667636175
754 8.419442415015927 -6.077136063662656 -9.314503429438677
325 1.9977941363200709 15.802551287252623 -4.150716812702058
1951 25.064398698266974 10.806000410872297 -23.795086703090643
770 -15.282738164075727 8.19795070886352 4.034123575461608
935 4.156285831379249 8.82389450399561 10.908922369520871
1630 3.486063910118792 -3.283897005763931 1.0583817245736633
1012 6.836766097507031 -8.560406657438062 2.07800848309143
1401 4.865026566669441 10.000373112829898 6.967838420335264
1498 11.056467731576415 11.367239488883916 9.739453487513044
2 -5.000913667594219 6.6414356147616775 -4.469022404206909
127 2.8551211222455626 -12.674363761902926 16.07042498284613
993 5.662794999936389 7.796246545729286 2.584465186398982
1369 -23.2931599418436 2.0480590369311003 -10.79132522012732
2064 2.324249344756314 8.253114332785822 -8.836276497729191
713 6.839097233660271 16.417146839717546 6.364649105581986
1722 3.654353227666379 -7.56804234037802 -1.3525071335480843
1734 -7.907696053330364 -5.163609824230726 8.59358386222159
992 -8.77524149763889 -12.552820973781564 -5.917875503568204
2006 1.6174126956523647 -4.4004741068501785 -2.727429002076473
1979 -13.37211756252233 -16.78620546331646 -1.7517054272145611
1882 -10.80646379550755 -0.5938952216591477 -4.530322420435539
1206 12.373399691850741 -9.706540999158287 3.2655174317901827
1525 -2.3306980008528457 21.01731525949152 -4.524622356755924
1917 10.019277253175146 17.47696110425725 -2.8902328323473228
688 0.24765042365663384 0.02161193539020892 -11.441171222205474
452 -3.096399991633579 -2.215444909519724 2.062988574250656
1747 -14.48233950456318 15.641432868714134 -8.123787329180594
1191 -3.6431732604259923 -20.373048888737554 3.150532218157378
538 -3.2241799308601538 4.8124000002890535 10.390850018982649
1355 5.1688823784868685 13.958496729579352 0.6242236215024225
1694 7.554424037908491 -11.84710468817492 -8.656108400328996
805 5.1418412460317615 -4.422918160060565 7.323054552061433
1176 -11.357457908756544 -10.337170534433675 23.305529213622012
318 -18.299015725450364 8.100130040265071 21.184036425063987
1601 5.042728395179247 -8.877619841392784 1.8991991234386028
1789 -0.9885338261858836 -6.776101456578543 -2.0563402355761573
1245 -6.0851102463696005 -6.057497815116152 -2.192785213217595
2097 8.633066182105642 -12.653417109942072 -1.0382295683729834
966 6.486355887625732 -4.12046046044143 -4.252762705913383
1971 -8.759851758085237 -2.2407127062838295 -1.2522272166459116
1931 3.022150710527571 -2.9861261750151873 -8.941082494053703
1541 9.733435828803712 -3.646727457941627 -7.591806447037103
1477 -5.403854463907765 9.394559908990319 2.5945053534277194
1962 -21.813197062786085 3.8578582544523274 0.39774358259938025
1277 -3.4446897378616366 -3.6745467703828805 -0.345642088437766
721 3.9292008560990848 -7.54667989182771 12.954628369999556
896 -17.290270219130214 -16.258439393844995 -6.802022595224947
1152 -0.7251964813782296 8.313321761506794 14.498196189330592
928 14.341647398424836 -7.089199200131301 9.80054377191184
965 3.31951615787359 0.2906146934136331 6.728883186607413
1580 -9.01648986699415 -6.320006706957559 5.832510347042243
1064 9.630434632604747 -4.49856139395234 7.2671544753448485
628 15.928964886713668 3.7074265487814304 0.9526748114458783
1616 -1.0992356536056878 16.660195224283367 9.957880009016103
1077 -9.574364986658853 -4.232821993053718 -23.106090636891295
830 3.684442429139887 -9.679973437932391 -9.363741511477079
1126 11.65053765378857 -3.853176975966863 12.69830198144296
1467 -10.738050281414754 -3.32307370373228 5.182190212062293
846 8.544085897469456 -1.9938082766214222 -0.5518606696791278
640 8.021506450428161 4.193641071752669 -19.13692008057276
1247 -22.044804271777277 -3.0078870910025133 -1.0432176833650726
1246 -2.5982353811524748 12.241312141447498 -7.476088741463112
1273 0.8610927863134347 2.551840686647161 8.811585404764578
1907 4.52584818630276 -16.083464989181355 -14.466032788181503
1153 -21.766634990778314 -0.17453736486131896 -16.856130392498685
844 7.163246895956563 -14.194476535105666 0.14115749140525963
679 2.3920868970233062 7.370444663247522 -5.794273815256512
1676 -0.5276235252561028 0.5499520333267361 -21.191212832822597
1473 -3.7477907355846183 13.561346447776545 -0.9957803987099153
523 14.458192051997395 5.3765613357394 -11.582006225487206
270 18.030786162764773 -2.4220636547897523 -13.511719692431697
764 -9.934910566539621 6.348676686946677 -3.210840395140675
871 -2.81192878833716 -1.5429745540421083 2.130604741655359
704 -11.761960470314033 3.502601326534512 -4.505569662835866
329 -3.871455963040705 9.194017485938572 10.149873116126376
1622 4.771097412247563 10.513151882149632 -5.368255299616864
1049 -0.964836246793778 1.7555868322113592 -5.083376472051346
1459 0.6668415820674359 2.374577746453557 18.67972558013116
1315 1.7952142376858575 4.854211966276838 19.566106215666853
672 -8.872037433793299 -12.3590140343151 6.727375068075771
374 -14.337198960520633 8.478441136375457 -0.22740876309842606
1718 0.4577148097596559 -1.9142547149769091 8.03620564329526
1805 -31.090726042573376 -12.729383190663468 -14.120124299452728
357 3.052795634861404 -7.279641386812868 -8.506553975536153
1739 -14.72897385337621 9.443305837630744 3.688290544343244
554 1.957212299867956 -10.867404214662523 -6.186304202339844
164 9.21698470705431 6.945745525727959 -2.8714184884803386
389 -8.212158560723312 17.776923519925095 -22.119047289578237
1989 -7.193797018014046 9.061693688255003 7.4842511893585
1291 -12.43170679579337 -1.69890145600452 1.846750637386616
1239 5.530557378318023 -5.7809545662327695 1.3444675100869579
39 -5.267165466461086 2.768206936528862 14.652692269362433
1005 -2.1435069169508623 -4.691744343232453 -13.062986657917673
953 -1.1767366447214656 5.754222993954894 -9.415672207414097
1112 1.192832548692172 -7.310222427406284 9.123187418067527
1143 -3.8020194382770582 -4.594130000638939 -3.671341003760185
478 13.900185524451228 4.99341295201405 -13.190237437168571
491 10.536520300848961 12.151412434882998 -8.347719714289468
1396 -6.177459255349015 6.36703178772052 -2.5435535287898747
209 -2.4607736991853875 -1.9214184268655186 7.40761410137802
1371 -2.9293204397009593 -13.244341781983072 0.08704445047181433
1410 -4.991466620932558 0.7306059723430505 -8.518922330964713
532 -5.5334887757363305 2.270005833511444 5.608659899432944
47 -10.2742525797519 -4.977590175128995 -7.180821491903205
1025 -15.73707925224128 -0.003293796329129559 -6.841662016861361
1409 -0.5622824266885974 12.196183372518542 8.691006167497966
1499 8.904551061719884 -0.12450199791402132 8.388873621948385
1911 12.501623411835611 10.00570299902644 20.931048137632704
1184 1.5487898953818375 -6.500395464797925 -4.703593678209231
1777 -9.563458941765562 -19.44900432808526 -4.107230037835442
2154 -2.673161169021522 7.696486980806457 -5.820453812018368
2080 -6.498421181133194 -0.4029108258993511 3.2084157462843366
2096 -11.89948928862842 -4.1042821021722276 -3.935947664709165
1110 -0.5503432867058718 -9.720484550296314 -19.32432320341222
962 7.081529614268628 4.040077035685733 -8.832340438793427
1942 15.33240177502046 -13.503701052361981 -1.9287423971701132
1007 0.6852530572440401 -3.3656133954082113 10.687295055802354
57 -3.147178802824207 9.739000755116564 14.62920930585499
1022 -2.3281329598685567 -0.12756571409855144 6.728923322410909
361 0.6691989067274151 -0.5350899281229096 1.605626833866943
823 -10.135275198995789 2.85583092959881 9.556448582762307
913 -1.4355148022033402 8.994098574879375 -2.9388381852917353
1365 3.2873491695822246 -11.706383417749912 -1.010125225317446
914 -7.347243745655462 -4.09032903110121 7.687749217789197
32 6.206491227436816 -1.2694901020343228 2.5151533555999177
1213 0.5264088623556149 6.769615210995993 3.4259602334406045
581 0.5248109228885529 -6.536594951429562 3.8440184405967885
695 6.442483107586693 -7.64296866536853 9.665401259041134
496 -5.1054634485634205 5.9689678747098265 -1.8592682364512452
970 6.444925535221472 -7.530934535340348 0.06988129744860072
1587 4.744933363081883 7.348690990488072 -7.230980884413694
1349 -18.59110474243658 12.117969706766752 -6.2063337833012735
925 11.164067427703982 -11.713878939850636 -5.874233079248679
1655 -0.7699945457205317 -1.4506033277031705 3.995058880162364
863 17.37304833448333 24.018637446608434 5.0774717412297
2045 -6.894743686193399 5.433285134804098 -1.9142997550792162
637 -11.347776431865443 -9.380828862233203 4.103401653126006
657 -15.086532452292474 3.9895425434635587 -1.3867476418852767
1121 3.938949102414406 10.683176662471054 6.837004145369379
1915 -0.9366915683543071 18.680943646123946 0.19629334148282704
1788 9.225468725379407 -22.780273541045368 3.7268580347661286
620 12.562560093144624 -8.804026484622845 7.305878384132719
1659 -16.886399882989902 -0.4850157845087341 1.280155788085142
860 4.662882457898067 -1.4242612565301709 0.42979231195318535
2073 13.050961430269322 8.802609583786102 -1.7714934582127253
1822 6.629342164827726 14.855971732360665 4.869123881253289
973 -13.039206983233845 -2.6537937603422157 -4.573702987464204
1692 -11.795722654317444 -2.1290604770269406 -5.075811901904968
1769 3.1771547454703066 -7.038422302736304 -23.81448740757537
1910 0.31382606245122807 -2.9178151853089327 0.414949900593378
621 12.019949900053799 -11.560886523910646 -6.986422865604319
1637 12.869296630130412 14.898901696401841 -9.611483347945889
1066 -7.279984366410367 20.861777784600534 4.647273554839836
424 -1.1891083683099608 -20.592459408710717 3.157932843829775
285 -3.0922784013711264 6.544307865056697 -12.220813165238082
1765 14.155618658078923 5.452678838620276 -3.125736732228735
778 2.436409815202404 -3.987666684246774 -26.414680858963703
777 -4.605695101674806 6.348613407706764 -14.596387514750084
1082 0.2961325585615813 7.2492882060662165 -3.999004176217074
1535 32.60319262156316 6.99867356597182 -1.4929745475381635
454 -3.3296893439329067 2.9415123377912384 -5.76751499670577
1627 -10.78034720044572 -12.682323859009244 -13.071766141321154
1771 -14.88364507825026 10.207082013848986 7.6993699616319
1249 7.3745217732127815 -1.4635413788143128 -3.947955588657049
465 0.5558351509518764 -1.1923023335537606 1.5170080130407826
1929 3.2312623210170677 12.049615486414595 -10.711805461802525
1406 -5.74822945119543 14.504682835684536 -6.042081948424182
611 9.672023041381697 20.37110173175602 -9.242105205019815
843 -7.748902656276464 -2.8086109189459973 14.571391018796584
1986 25.19350170253601 -8.614305221305308 4.066281115526593
1973 -4.021458149839124 -2.209919062607254 1.7682917428274252
641 -6.389989654931729 3.277816790824379 -3.621680917245752
1934 -21.186477009288428 -1.911697725312265 -1.1101057477880643
926 -5.132904158740131 7.2905054008391685 8.694897853349927
885 -12.044291168924978 0.851437530583583 -14.33525475912416
1651 13.683058330083988 -0.9135442268690961 -8.812811463054759
1458 1.019498264524196 1.433254886045916 -7.346868364325348
1493 29.188202671495795 0.6165127911036473 3.0575479532762904
1378 12.54382075539484 -8.287505181709415 7.567393334885157
385 -0.6453205735962246 -11.52499878264816 -8.88918832870495
802 21.568709724485892 15.552228970297492 17.00973354724819
7 -6.60635258640792 9.138319752255118 9.468984899326143
367 1.4365285649360044 4.891768424070402 1.2978506441835425
124 1.049231073452137 11.763849133466303 -3.6285481243321223
2156 4.2538853304053745 -2.2452696757430384 -3.4135864819607487
1212 11.70542609270301 -2.873076142630424 21.0478750560768
736 7.797245861486048 -0.43263863207827274 0.29491722158517175
1294 -2.7903522716320377 19.36246321442999 0.9885105696010691
674 5.137689386689714 -0.378933736915518 -12.665301306273236
1494 -21.59776585532082 23.662287269103032 -15.004915957747865
202 2.522129859161171 16.375788815125944 -9.741525717879925
1594 -3.255715004955083 10.001465405403499 4.672759654770516
508 -5.851965842948639 -1.0188211843858128 12.691656346876064
1759 0.08988035536704915 -10.70261686091878 4.1453176492829895
732 -4.9220067259938185 2.562630945636271 -12.066040825561826
74 10.761342530414023 -8.658666991554028 3.860938362410983
2003 -6.295531805151261 -11.976002240430354 -8.1920709571766
937 7.4927187651879805 4.512785239972512 -10.194780402209993
1404 -11.588812096112003 13.152088954594618 -8.02952760814022
1443 -3.1227376759390557 12.228439857236546 2.7359169334487903
1736 -9.85117635132271 -0.20632999841050328 -1.3353845935637556
1060 -1.6097385477228978 -0.03585513925188149 -2.5568321455861374
360 5.280754296037739 14.51435515890127 1.7851002061188237
853 8.785669347539276 3.2025724627446626 2.0179000057341665
1854 -17.858965191921328 18.823977996851667 -3.3258280643440705
2133 -11.954738432545872 7.0741484602583835 1.159872832494695
2129 4.597329634364191 3.571856906231564 -16.600839169182965
1036 -0.689935697034508 -4.353622084375183 -2.179196547834552
1385 -24.587270020643025 1.6085069797842557 -2.09750395510536
1448 -0.4477209427683899 -9.728595169703485 -29.172811145452975
49 -10.684525493973583 -5.138317771505437 10.24525855043213
714 -3.5470915610910416 9.375860823211381 15.53396770918762
1205 14.525230739645355 -15.980481167572725 -16.12092678568896
976 1.345069042465185 -0.5138741249614727 9.703508233727645
1953 13.721264369252966 -15.012208830004557 3.988323016773651
878 6.876199741794229 -2.288405592354156 2.1066154771534094
1507 -4.049188429539379 -0.7144104399707489 9.898710525816591
1155 6.053105557450152 8.32803092767068 -9.042764076848194
617 5.935614430745124 7.993097212565106 13.388231491399614
2128 -6.040668353285225 -13.00191871266196 4.015320091994356
1356 -2.425267082416391 4.722222070140453 -5.1461964355445025
1614 2.248855365992798 -1.2718648313279128 -1.1538701431652405
1238 -7.939109102495388 -6.275619262250277 -0.18442252115039054
416 -7.637978814510306 9.799891212243631 6.21612701311785
589 -11.930889703331296 -10.176408413442358 -14.764839647921908
1520 -24.622289604256704 5.074537867316081 -0.9816576139535043
1283 11.12462760522742 8.869463423676695 15.456895452711567
1282 5.407309465635337 9.281195330405671 14.015222094921407
1617 10.025617441917454 16.139289470594743 -8.452627078453116
1180 -1.9955623047200575 3.1715546960365915 -7.554088821278883
54 -22.04806342573505 -5.044694915594811 -15.950244107870835
613 13.041866779091794 -6.678982961282253 0.37146701116063047
1800 28.61279202187774 -14.547655349887945 6.5527589438317015
142 -9.016228878080003 -8.234035032431619 -2.7030218752491124
359 -2.8765131304897116 3.4270467643152935 5.229272399299623
1335 -0.46779480457899775 -3.867716300412082 -2.1461311367049163
659 3.416491878396964 -10.87205529032586 1.5701968794514936
664 5.756872257314404 13.124185678705935 2.489306425787878
1869 11.822532616327106 -4.04390160248722 -10.634324220255298
214 15.0223505261381 -21.34289951766862 -1.6519225505730581
1697 -9.293475652070285 7.684141396666307 3.2573341958879976
1958 -7.862459910023612 -3.8895840621522475 2.1209542164159307
1044 -2.4222990223825454 10.666161300529607 2.303684742063151
509 -8.102631938982446 -5.726107815167339 8.983776299239029
101 17.774810557183336 15.369834041188671 -2.390285832155133
1146 0.3323562290602547 2.24889830796013 8.882758258999285
2122 11.343247405710617 1.121101193621697 18.105712108656743
1562 3.775702219872667 -0.7407618824748894 17.96051006658693
696 0.13720293384307708 2.1648454234724612 -16.104638107420424
541 -12.677826879823254 -10.237729015280522 -6.743304044418971
735 -7.429623905677137 1.5848642745347037 -4.007035415271706
1135 20.507749348017732 6.5122721591008395 -16.91436375762057
160 -6.08168001900968 -7.457830022935569 -1.2293339507327403
932 -8.926965040894991 9.243201759361591 14.850601353309527
312 5.103340456932523 10.384662234479215 15.760786438465525
1528 -9.009958357981393 -7.233778824313802 -5.8612610557390665
237 -7.561609140176926 20.454523308025262 -10.155570959456295
776 -5.553838922476101 -18.70764960481216 -10.239717643889815
118 -1.991563932584155 9.062043766246905 -17.169556792223215
825 14.47799998675036 -0.21949590141732914 -4.920350867655243
2152 -3.2458043508831307 -2.055535554376839 -5.717551588504654
1784 13.864623027590179 -2.3489813445566803 6.045968494972357
1838 -1.043446753150783 -1.0515707323103596 -4.5191325716860185
1017 3.491567602585372 -3.084659395369635 3.8053130797912527
1969 1.703413477492109 -11.41267050211509 -2.038441457614302
474 7.009533065978659 -14.137594488200852 0.9114344346652077
560 -0.35121936678512156 5.777295254127888 14.545171015504586
15 6.401355389174957 -3.3097543005687937 -2.316387847126582
1858 -6.592943519956933 3.0136818000234036 -9.883996077848396
1428 -8.191200545480935 3.978449850768014 -0.8618402848191492
232 12.55616776100454 0.5718109581500693 3.6744624891125897
1778 -1.883388789143376 -20.72312749194607 8.860445954890498
1999 -12.292603227976539 3.998884129900306 -15.426646902642082
344 7.624983811687238 0.5978532001944687 13.223048986076778
811 11.735355144049478 12.93211365039336 -20.093713779038158
304 3.4884465389753387 4.291904839795222 -3.183544339942623
1939 -8.292520279508642 -6.607647339310579 8.117055062520787
193 3.7908901431364947 4.614515503944382 5.977008485867378
1199 -8.941627162611294 -7.28709293323079 8.219224025427128
743 5.709153816056002 5.106743407086785 23.873964523270523
2134 -2.3879119858088074 -24.771574062102886 -1.793554723957541
1738 19.798539253756747 -0.5070555372329489 -11.697553384551949
519 -4.032296559355292 -0.585262688713377 -16.595576531741514
171 4.794195471234718 -4.737737349682537 -17.465101058621755
2120 -12.522063265306917 -6.14688012821438 -0.012431256036068351
1088 -4.844027024134347 3.6027075224732314 -0.23678858331070626
616 11.879524210347967 -4.653729805060002 -8.471167402627433
1959 5.191720182230552 6.5778076959902165 -4.591371153362761
2051 -2.7914754062612483 -7.212111644379754 1.2847373983890975
1073 7.12916511458936 -7.505226434195257 5.791272611141548
1492 -4.849795106093813 3.263491576555324 -0.9907605425997741
235 13.445853183765205 5.879893682589999 -3.0539233633227387
855 12.39305543089629 10.261302494127099 2.5611794869332662
1905 18.977214669362898 -5.332961090326974 3.7888535193851753
1834 2.0206191519714407 -6.708037905218702 22.412211173657404
459 4.229996392547224 -10.867445694585243 1.0491926456114984
668 0.044644800893698114 -5.483104472163089 -3.589858658032893
99 -2.9508322317526594 -0.16652192262538434 -3.634587818235415
1079 -7.464121844848095 -1.1253471713971968 -11.33369914345748
217 1.6654907728680486 -8.918044575190963 -2.868934974902879
251 -1.256836273139072 7.098144908563815 -11.498682059489521
1411 5.678312016601976 3.425188974593515 3.0888027124951387
151 10.369681553687196 -3.551177217552738 -27.105114009616358
1998 -2.8990645487652142 9.645434939532898 4.884243519480887
335 -8.204271591440335 3.2934492543378964 10.140854937751623
370 -9.782636681483385 7.960671976274253 -5.055210474987877
1139 -0.9935963481183266 -5.410769296374984 11.304016944901685
387 -8.499837458677842 -1.9314916052163995 -1.669692753442822
61 9.724312271271112 -5.258327866191179 16.554568826058404
1745 -3.8215095740063174 22.280624458954946 18.877088845000245
13 6.995210887917583 -5.366279358464197 -16.052686952914065
1908 18.384353696914157 -19.283196527973242 8.090504712823122
11 -4.058881256050093 2.379998887495363 19.258547785283778
1709 -3.6930690734848857 7.197081968687258 5.450110154676479
2032 4.573733423773949 -3.2581162637498173 9.09383521976508
2057 2.2621005831651853 -0.8857123866910095 17.516980071398912
1403 10.84282825624964 15.113117364187142 6.956928140346371
2126 -1.8329066303538089 -5.888984258726201 -9.053267611546142
653 -5.171102506038824 6.347682556361581 3.807255785948612
1839 -4.908564309695967 -1.0564716308965734 -8.656346240382035
1450 4.981876967751998 4.471642443122932 7.442414116406968
29 -10.784758545815887 -9.492808984419977 9.764062857455533
2027 -26.740771095540797 -7.9722518739840575 6.667916168636735
1141 7.609592588816083 15.53480390596472 4.3474636083001235
827 3.705942653613526 13.006482160967009 7.405710385948037
1208 9.614099604701105 -13.075430178403598 -0.9376597063638514
1308 -22.87724539436279 1.9625936064604321 -7.896906368352353
1816 6.694495161402701 3.5498322617235663 3.0315506938718646
1880 -0.791332945615186 4.59216332200319 8.237191022430446
1818 10.743289583506924 7.761324216522826 -5.330449923797447
786 -0.8405724087248861 2.1298067325327765 2.5411023008825255
1923 0.5871983736938159 6.762402467950753 2.5749572413276507
1665 -12.903982545430809 6.055334254072261 -14.386455074787161
1491 -5.996071801825551 -1.4191633997241817 -10.281026083840532
1960 -1.7733290678505313 1.824082966559292 1.8189379836337267
1181 2.3554221752689455 14.008739215438727 -16.080184650081854
189 -1.1196746954788204 5.624765651692666 0.6810211825047895
1540 0.17155414064381383 -2.9185214904924908 0.4551681611194719
1938 -1.5916536052668464 18.790017575432497 23.858634802038893
1350 6.883281237108187 -0.9556261486542299 27.012604439497295
2060 13.081313076075046 7.916648471545576 -9.565383374548217
623 -4.298262770406573 -5.637469087267268 -13.44992497752337
707 0.10088082304649978 -0.5177036637236356 19.109902319965457
1083 3.9693238673264872 -6.470542724059661 -16.232238252468928
1487 11.265929876777326 -14.684974600266695 -4.040314431199071
1265 8.194643894685404 -15.632306517790811 8.90216706974999
1768 -6.974629608479604 9.380765705278932 1.9149750004854693
1926 18.943841611276504 -17.119626323293183 13.431243776095085
1321 8.20370591608707 -3.4676122242127345 -7.8618472596531594
68 -7.91008255248847 -4.6988602369033075 16.36968115780217
55 -14.310407699061887 -16.433251228875505 -0.06846052264633477
1096 -6.526488723664645 -0.15582229459009755 -0.4215932957687874
951 5.153635778137863 4.457984582188041 -4.672929209437412
1819 0.21608327606653152 -13.166857468681263 5.110867348003509
314 4.3589631639354405 11.170717185392709 2.300025938646129
1623 -8.251258053594913 -0.8339976928588346 3.5759254750985208
1809 4.06350194489698 -6.048135521202919 -3.343060712544381
1808 -8.877534268348453 -6.984102756122825 -7.197844145025458
242 5.740127448861547 1.8762136686018165 -6.137069284879318
1103 7.826429373490227 3.2229498672971446 9.96218819438654
924 6.133534278082057 -13.988290977025462 8.481702933786412
902 8.782409983752927 4.184227561929965 -4.527751302055165
1712 -0.17682619123504126 -8.188116568252637 12.008523970019416
2034 1.572457765750434 4.943236421799336 15.013435496323746
1479 -0.3834393959213579 -8.916186831546671 0.6379486419222522
108 4.178459259711196 -1.6495896225274052 1.6522246930001456
612 10.447094562077485 -2.6670417298292337 -13.992996904244562
1648 -3.266699553264691 3.321389160651156 -15.048439099886167
1865 -6.913319517089952 5.031912217496258 2.4586070196676375
1903 -6.39723208941303 -5.239211641600516 0.3939097398440057
291 13.401309255183955 8.16548098930065 5.102446448927077
1581 -14.7558518322514 2.0397717101568924 -6.707560451482434
1400 -0.952540550217586 -5.427925556494235 -5.942681962097827
207 -1.5725314345343506 0.4290263915262957 -7.405757441531437
1485 3.0907656189680646 8.07333834757462 -3.551816286201326
1874 10.71455407580799 3.0093510976398825 10.325831644338905
893 -13.575674907913108 1.3016394107034068 -21.73033540334701
775 9.50226772035648 -12.614420181778067 -10.039038195620403
833 -8.824216549239058 -13.536059314320653 -11.227954911648977
1886 0.7936197232487404 -11.552837446906318 2.8111683598819917
643 1.4902161891631982 -8.705621808327821 4.357187098697314
676 -9.997938335993046 -6.433847560664747 1.7825163526752918
1038 -4.4366134843543135 -0.3886331192385849 8.196090790987938
609 14.862342610028069 4.900788747281719 7.374686286016425
2157 -6.512979956123529 13.516526917282107 -9.49316536164843
1418 -18.61655158245199 -9.23820654419183 7.598894478594653
821 7.227235924776988 -9.274754875205499 -14.713382223951701
1904 4.315272165224886 9.925584898164598 19.549470477076532
1680 -9.743006066274088 7.525844048234409 -14.511136805683375
627 8.494481980590608 -8.056202969771714 7.727076631886508
1956 7.751470185126886 -0.604245622518273 -15.162317350835952
757 1.1185288872113852 -10.333593428612335 1.8640386895457364
1468 -1.8960766418315285 6.169782860073548 8.657750531146101
1857 -6.727056557543365 6.523552441362215 -1.7334161923289462
1613 -5.864759453909681 -3.691181349244771 5.268477591927125
1866 7.175118448998018 3.0423431553250357 -0.8836599097111608
1873 -26.083994908217274 -9.771656900121394 7.434391095910778
273 8.998342354318764 -21.831511742462688 3.390940374933955
246 11.501504236480713 -0.1766667756594791 -3.366762041567655
401 -14.250014316701428 -8.685171862836322 -3.900996088962212
1309 9.399996856208773 7.196479234569015 1.4567094318145375
995 -4.671807361910261 9.488320944162558 8.95927369025399
934 18.004781863896365 -4.984448231642549 -5.676071179583322
1338 3.9820936188538 1.989850276875008 6.745025929523135
494 -17.6025226993039 11.647451341541478 9.935376446156942
2132 -11.910388115272577 2.179701521706071 -8.969221527889776
105 -0.5473996020395813 1.9486717835779812 7.485587773713703
636 -17.965280908145473 0.7364819931156155 -11.49245725559742
94 0.3554098935492628 -7.5214776080643775 -7.325395212781516
1513 -7.904702549454176 9.51982612998189 -4.343248671250861
840 -9.957524401728882 0.7958030829842642 0.5691186057874525
1735 -9.103615477934602 -5.722601197485069 3.244082420196416
1813 0.06049660363726177 3.6419764600189932 -4.061122566421726
296 -21.636434511274103 -22.197575910331143 11.946009030252808
81 -3.080823015786428 6.956173747357723 -0.6064257517676307
2054 5.4669428568926035 -11.798276639122172 -0.18534566214701143
971 -1.6785828067560697 -6.7534912170802945 3.3350314663187697
79 -4.214058510140573 -0.16128072694298454 15.226536454095035
375 -7.332529323766333 -0.13588098251793493 -5.685989102019289
810 -10.075752938476601 14.12580127183605 -12.711986122556347
575 1.1382357039258924 0.3568483821682295 14.170003291012655
14 -3.258628095054902 8.139710010747695 0.3298907759089041
1546 5.810907737285197 3.1229690347916716 -4.97933017950489
1850 3.3263718004363745 -11.210006114031472 5.795103766720431
835 -9.585217951330236 2.111568333183709 12.696071407161948
602 -5.5927326310438925 10.463657870564475 5.137370003761238
131 9.529012073710948 0.6016464321235243 1.015027129480265
431 -7.940079594126716 17.42224574737851 13.693597907644921
1976 -2.794783742386466 -6.189866527714721 9.878804136562085
662 -0.05683425473525845 -2.324620108410673 5.364976941459517
1253 -22.856571070939303 -11.508730145015331 23.026740854882032
274 0.400299536441729 -10.30125003549106 0.4255288336013197
1947 0.6881876133387969 -7.221506913100009 6.934256444062737
332 21.225032483054125 19.489952987590353 -9.279706637428614
1392 2.8318907214729996 -6.983539737462761 -1.5391547795070681
1641 -12.032119488410979 8.894696427833944 -6.4858123070483575
75 -2.083695737555945 -5.373978285103212 -0.8617092078172568
2088 0.24450507677932168 13.851326866744046 -2.1032079854391323
1046 11.258529505699327 0.6779164967954807 -7.046950904696211
2000 0.010387057078739286 -12.526366054074716 -7.860734705765368
1599 7.861381088164289 -4.990873910291415 4.030388403198548
2106 -14.486510775024026 -22.666787392938904 2.573562638290504
1737 -2.2918150771034265 -6.767253481604987 -17.55707564866114
1849 -0.13546426150582436 6.656880977024364 -2.5898139161294056
1571 14.103766845461143 -5.444527262740895 -4.209191322858344
1856 8.169719284348897 -6.492773103479799 -8.16821625193437
1300 -6.946271337843594 6.235359540829757 -5.998054352098573
1687 8.226948305736107 7.317760104331689 -4.7115953110382325
1832 16.54465370203469 -0.9843661385307745 1.1281877999329832
303 14.272969114977306 4.353851798976216 -1.2340187551035537
1421 -0.35684223806198595 -3.7338382350603188 -14.963140904740813
126 3.157919689300025 11.99030909705453 -16.79919936580903
882 -6.727772406268619 -6.433014184713626 2.182928502112545
179 -5.831570068994094 27.882787251794863 1.8412861680618504
870 -5.322362429163005 -21.189146517976738 4.593506503513954
1859 -0.3813461380080408 -6.968827686730026 1.9885075874055307
2068 -7.502625946581705 -7.705252833487952 -9.560056370774145
1888 -2.2334787085290757 -8.491119820668171 -16.94635560630081
922 3.3051386563405263 11.543714357924552 16.279470809040525
445 -14.126213802979894 10.35714076473706 -2.846537414596581
1268 2.4660665117105283 -13.314976814860477 -10.187994132059554
1503 7.956443303404525 -1.9259682791153485 10.880120813133418
1323 -5.759285095835898 -5.865521756712075 -1.3724236918528965
804 9.8611920084287 5.91482877325996 -8.952345344376281
1547 6.017112287574553 -10.322860876204835 7.40246499993774
1215 -0.7962279416367439 -2.0166274572671927 -3.915062846321066
1785 -12.322505771566124 -7.710506579710635 11.419132343090531
2135 1.043418553601084 -2.0853608644282864 -2.8580219025477205
213 8.945546653888085 -16.636588432738257 -14.196599140179075
349 -0.8809889131929413 12.495124934955877 7.517237471802966
873 -4.830925059670858 -1.8864475859360572 10.28039461118839
889 5.625964323817013 -5.459283428585915 2.294938244297664
546 -13.928817577087246 -21.683352194556743 -6.906977414150122
1729 2.7889259233802517 12.654940088301831 2.374895409241714
1230 -3.6121876070469545 -5.516106921655416 -2.2636141752481787
133 -9.465269335413563 12.165348402384481 -5.912040952666259
1639 6.3249247844385135 -0.7008876040451145 29.741144035810446
1195 7.968807022019785 14.703076097177725 -4.523387076367541
955 -15.721777608220044 2.5198209729836964 -13.954672791083674
256 -2.9942078221971102 7.199774381434905 3.435980533854634
990 -26.41446101652446 6.492219846446023 13.046587986866193
241 5.618199533654866 16.004355545442593 -9.808010843944752
545 10.163690860321722 1.8139447150556542 -11.323695586553077
1930 0.07221256571662066 11.63477781904851 6.085925761665573
727 17.732937327231745 3.1059451931309012 16.4721087101482
266 3.053278157242485 1.4734181641055901 9.900663800942795
680 2.3578214626250715 -11.538623165348161 6.044529702632276
1650 15.642700919874825 -10.816353226901636 -5.032556103175976
1311 -7.449449980726065 -3.1635456162817697 -5.556170607500741
1748 -1.4153662872674007 -2.2814193096544106 4.59277451013116
1517 5.58695188837078 -11.723531120870488 -3.9223875679336557
1287 -5.4977986577291675 -10.168139959847151 12.064767832143435
536 -18.709528201315717 -10.056355973002237 5.684360934059729
1943 7.17433267270556 -9.768072934478074 17.465977494095338
1814 8.950426605752014 2.3418396493717077 8.622621027791796
1719 -5.829697823258449 -15.003606620706552 0.9032221487272903
2067 -2.33511384463622 13.371594966359854 -0.41516258644987364
1763 10.28110519476212 4.458017799714634 16.00066967580195
492 -6.080050174096184 5.453654061181401 14.068869827486377
1810 -2.0494151378744627 -1.0349393491269223 13.028998227371929
875 3.7642222746023597 -11.058577559818374 3.6606719260581744
1358 16.590727642914555 9.547858855725009 -6.432663395916655
1068 -8.514625537212446 -3.2328036898178927 -5.897332283060083
146 -6.7898914824013366 -7.834478277768571 15.989745048746219
2023 9.007266054718293 5.02973836175695 23.29931258960732
1922 5.935944878501495 2.1797192294001735 -1.1118045086482178
1255 4.720728505421138 -0.38448096576051305 -27.9178332856313
525 -4.990620883869984 2.1423815770235373 -9.636337760474452
856 2.511218530039524 -7.151213791914942 -6.270077308379759
1618 1.566622834256494 1.7047164379885482 1.5399928834934569
1376 -8.903391301515846 18.14367800178271 5.530995903537294
897 0.18724438826055548 -19.415032528420305 -8.858480705609853
1720 -5.297606301851475 4.935389313610552 -5.395817662542689
1918 -6.393467025392746 1.6701395772911751 10.793518560416272
1059 -8.73926069988977 -1.5207033561639693 -11.297567700572202
480 1.2038157003933176 4.627084341255328 8.684285751063307
1766 14.834307234459292 -4.619643838495396 10.451604395356075
1028 -7.480192859001583 -0.2418488554075589 -17.21267425102172
1872 -7.295167184084167 -14.105100351736516 2.0874405058937877
959 -9.527146200387541 14.401284225163575 -10.047910725990281
1348 -11.920040745877383 11.559126253900859 -5.8866904485499765
1842 12.638079603210972 12.297251377217817 11.366857025050946
820 6.671770632580052 -16.737634300338016 -2.4113828301030726
501 16.544582108398206 4.731670294048191 0.85541774590626
1746 -0.30579924326560204 -5.101866915942457 -7.358566869132511
1395 -1.3507519477592738 0.7901412324833916 -15.660289449732328
294 -5.701277025043083 -12.916860369725889 6.682512739086189
1147 14.252613198254819 -0.6951470682582428 11.850356398643072
377 4.411857758079982 15.847456661741397 -1.7991458097812745
543 3.293479042896264 5.283083468042946 -0.5371090857913121
645 -0.11394578894340963 -1.0666866037290041 -16.05051598027535
1824 -6.972507924394668 7.506787869632391 0.21075015512036924
983 -11.540703937914953 3.354717138775391 -0.5746431553586672
1425 -6.963413968660448 4.871901474050838 15.80714876906277
1576 -5.581509905230926 -2.8271577246366446 5.6032291910327645
697 9.327463277387006 -0.6847771812072524 4.255586582296421
1955 3.7377390063677116 -8.548458767428263 2.6780328809450644
1440 -9.646490230661598 24.469721535183968 5.168416875747028
1961 2.4915996906083815 -12.762257137896148 9.487207132264125
1982 -13.77665498399285 -2.401812812439167 -11.71389828925643
1723 0.04301174917254981 -5.395733309904236 -2.031712862622296
390 -25.880324910060743 -16.71991408656637 2.987776449699552
1604 -15.505561404081002 -10.172607844797657 -5.484467307161894
475 8.433029674271493 -6.961641571041909 5.106320267947692
182 -3.743135081834409 0.7236267935951803 -10.83910687373755
1559 -20.930109850849597 18.309459334514543 4.670653633733146
968 -4.230876662287123 7.155486288465632 -14.674560828528596
438 -4.155056042290228 -4.367522325560166 -11.63251094227025
626 -5.4162792112858735 2.438616837184494 -15.535408341415287
718 3.9274277359356784 -4.310565308013692 -2.6103170639525413
1527 1.5064025608884206 10.328883599410998 4.594578630234217
1137 14.094107247192413 -0.8284437036278538 -1.8327956766532547
2035 -7.395132664308331 6.617795976552749 0.7776365862578386
2050 -2.408275857947561 -12.9818464151033 12.948551325210683
1280 12.600261529817091 -3.4080162101356266 14.101963838182723
1848 6.50250667829057 10.973263345237863 0.21070440923058575
181 -10.855502123355752 -11.05527295573728 1.1175775468807532
1032 11.604404869461256 12.146825387507247 -5.053802149257836
1465 -6.680216605165842 -3.888940796161239 1.4824398235873455
2011 -7.173527042854468 13.734173157506822 -5.873267440147571
165 13.950345975825755 5.725620974253505 7.875993256820218
748 -4.039342047225535 0.1427024049628803 13.378722075564939
862 10.329663973754522 0.35132207614426 -10.416019266876646
484 3.3004929487784813 7.170212773304943 5.326590870499636
537 3.34159988559477 -2.155522563165701 1.7226490746328145
848 2.8267745676720715 8.246409239631308 2.1689338602733055
1831 -12.309233970498266 15.657955905671955 -20.975242141979322
921 5.509480314531928 -5.140091737054103 -5.180155806133507
323 -2.563287122484759 -12.093220847763003 -14.611445334724039
1058 -11.765985173638825 -5.246549810868753 14.073300782414309
178 21.177930313301257 -2.7535350104662717 -10.98332376658177
1435 -8.026822339519475 11.224370452454774 1.7829300438423452
798 -5.248383561887309 -1.7136259910538674 19.562129654286984
172 -1.99843632921757 -12.557272404848085 -9.348534495783472
1595 -28.45191125068345 -0.23506456471309164 -23.144469561704994
1390 0.6137511502842986 -16.63082826098467 -0.6412497807569424
872 -6.316870756456935 -7.967622234888567 -12.014967896184576
1045 -0.7475815857741561 6.433677499281698 3.5171793545887122
765 0.5492608147214968 2.405352735989245 -17.29161502142605
369 2.802437243047377 3.0029888921062025 7.353432810062406
2042 -7.882099178470972 -2.308229884226704 11.88942119741745
1303 9.922999582220678 12.271825396512154 1.9770082519652432
25 10.36181385694785 -1.0587620463885288 3.525549772603332
1891 10.570779027918324 -9.209973631451346 8.973651404453573
1008 4.420245446086452 11.642440956945851 -17.36577207154652
1633 -1.2788629199506176 -8.384728482967173 13.06362724219012
790 -1.4419357125320102 0.12561633157026356 -13.638155968185863
738 -3.8260817193751557 -9.596441514446251 8.064275044329943
1679 -2.785467418722513 -11.971811082981299 -2.1819135658032907
1935 -4.101599426234167 15.945746429909981 -1.3482623231227286
1495 -1.513882152501162 -4.31777111534077 -11.880056220835273
347 8.712132617507647 1.10913861297319 13.49955148285
17 31.180472796036405 15.745039649811812 10.799513271292255
313 -10.321577058186337 -7.048518846123077 -0.07938414610293767
593 21.19412480778978 10.193934806510741 8.418483909796187
1584 -14.723167317083382 2.929262328747917 -4.598639591413883
279 -10.437717725528534 -7.525844963523959 -5.752386791706063
656 1.4401767869955577 -2.373695263718209 -12.876148033628866
563 1.5936041545422313 11.56831811886817 4.70820852141346
573 -2.7892816254460646 -4.619329430260828 7.1290990120459075
712 10.405767661831346 -8.549763432816961 -2.9388481180808745
1776 -1.252555650572063 6.763074105290098 14.914399276681111
2004 3.9979575875591964 8.811658347731239 -3.339706786836416
455 -13.921657311127 -2.9260329984453906 -3.6566427384013136
183 1.663503630768024 -0.8248898843774688 11.713193928854496
2153 2.712862106545393 5.235149885878509 -5.053766163770736
175 8.17504867589274 12.052321455290391 -5.271430700112037
2150 4.329894666802147 1.8984527454960463 0.8091957331710413
650 -15.979896521986364 -5.85021759306737 -10.222250388521658
1211 -1.2811070188465492 -21.046264113843666 19.527917478364913
1108 -6.942004416669244 0.8526557548850123 3.1712596745539243
1319 2.436641490319858 -10.78744593834548 -5.1062502106325836
1827 7.280114689297211 4.145224761823729 1.0109081371973856
113 7.402704055383356 20.29501982256068 4.111234127108217
59 14.346644711015202 8.195719338000517 -8.518983351587341
115 2.0958619635868305 8.998026196778433 4.722486244721728
1672 -4.152173413305509 6.6451332376958065 -6.477006133049217
610 21.239728734936953 9.443604209082876 -12.72414508821585
1634 9.913237568695186 11.975644312252973 -2.82087662347731
276 -3.457840466585814 -1.6920114140855829 4.934907759479178
2137 12.110087883902628 12.221180609166144 -5.151760403832824
42 -6.7829184594716025 -12.399790611613545 -12.123570023404463
78 -25.495140928486425 -3.2429264716549824 -2.157286172944749
980 1.8979438028603992 -10.648776785173146 1.868324580026483
31 0.8134444292508479 -1.2886174666713126 -1.2113414145370294
1357 10.055292905360764 9.933582489946856 1.320435169050753
905 -13.77228345426803 -9.831387411631 -2.1984560842920158
1192 -6.902633060271535 0.7607110836319223 -1.3649702529878804
582 -2.216543365663346 8.153995718271814 4.721801550492257
287 6.493741188750373 -4.1410042635597435 -0.8261760041722129
1968 7.176430344128312 -5.290743478376552 6.355138295680157
1708 -2.3637641406960905 -4.100775862764814 5.417528863492149
1949 2.64240347324816 9.894237813871882 -0.6481356879650216
177 2.0810471417866436 0.6485693811919917 -12.185475404582299
583 15.138423065835735 8.155540514703677 18.12550259534685
249 -2.744322515991634 -8.322481534669347 13.991247253732077
975 10.614455235696798 -6.9490336623292395 -7.0379378309398
441 -10.084398938878532 1.8197467169409856 -7.614696315885374
1509 -8.791190152438464 13.539748453281174 -1.6369796658260105
446 -1.22538960086181 -0.30881851895009155 7.1244954158846845
1688 7.106742098392947 4.426881207747864 7.679890585788527
328 4.068754063547547 6.9221533758070635 -4.5954931577127365
2099 4.668622373108859 26.074114489260776 -0.6521587261857886
1704 5.498425179863308 -11.814711385205745 -3.549194387132268
93 -10.30599429636388 17.960001314175106 -1.3605254847661299
1693 -10.802996224535775 6.4509297214831145 3.9387876393879178
1284 -0.8109939643689962 -13.376587719213987 -18.811453692266777
1500 6.083381096594793 -22.36907929018453 3.8644921072989664
510 5.198830004463687 -9.775370099030708 4.901861025269762
557 -16.021323134864055 8.921194971478764 14.848547033263356
1713 -13.571603874578164 5.5825358722297835 -12.760150985708792
440 -6.631459862968796 6.620492057983271 -5.083480750380686
2071 -7.410495231038687 9.475513053822448 31.35327195043642
1266 5.328464102921993 -7.681640585528232 -25.104015109778572
997 6.542383456882304 -0.10081259557949694 4.3634814576913685
1543 -7.936314710473673 10.487094707793815 3.0222437578903216
442 -15.580698435932161 -2.004296812066075 11.64766235129004
726 -11.18140082206456 2.7186414481955263 -10.751879112218994
110 -11.524147897385973 8.703606676123805 2.8452755983586857
46 -3.703395217153136 0.5617901960170404 10.508911176431546
781 5.0387807317800055 10.669581937241034 2.24375031853622
2159 0.3422746972537687 -11.683192665686406 0.3068728479916386
822 -0.17039189607085442 14.078946537921349 -7.591396056971634
819 3.5613280383288184 -4.374487618305497 -8.590298233763555
1054 7.121790189433479 -21.710726915885207 -13.740143296082431
464 2.0917539217460464 4.469169593905428 -6.926664285427816
1802 3.849363175316005 -0.31950977261412145 -12.783663040253472
1833 -14.149344584415095 -24.655250677781773 7.393276000664725
744 8.581041809127509 -11.581434679237987 -0.8924114764244444
1047 -4.770217090296901 3.703946518110423 -2.840219155640538
730 3.951929929829674 -12.858935841531162 -8.810544961224005
1132 12.96609033789103 7.658642364728023 2.0414677809051964
692 -10.788283341785146 -11.199319031342936 6.325577104451292
831 -12.132085491302403 -16.05319382327557 -9.051555410364642
324 -28.04441544510907 -13.632904064606132 3.925894019201642
1889 -0.8483637946926353 -4.141282237460364 0.25700217629002237
1288 2.2040035388192236 0.7583213398705408 -5.7925137850655615
629 -11.402643116759894 2.0481431678364674 -5.318261631630513
739 -2.0586990771639235 -1.295837440237364 1.7314079332209362
132 -6.6757801394198415 -2.4651019539207693 -5.903839287125888
1504 10.860862900401939 4.362269094401705 -3.4992534300084794
1125 1.6337287533398355 -15.969505648330685 -0.7259499894665962
1531 -5.873681965746116 1.4116217872897994 -16.00477837994351
244 0.5928967355444468 9.983213723560562 4.7508770863501875
1772 -4.232633319777294 0.09462821975736849 9.893751172610354
1078 -11.946027797179951 -9.777765500334638 8.256762687575947
1743 -3.781008496418479 -2.720524095445068 2.921577793056755
1673 -14.069248717340917 2.724810645549054 2.2479380780511096
797 -3.629491824016793 11.381444734092971 11.92190285444021
1779 -14.188738306382827 -9.097788492655708 -9.127208600839547
847 11.48897956555067 -6.577248881795429 3.2263269761872637
1466 -9.84548428178391 -4.268654710140603 11.509742306941789
1992 3.53388566386264 1.458258417534404 -4.673157766417173
2040 -11.75687483791456 5.010366488675228 -0.5403525824695847
1328 -0.37630288103948145 9.367549113978193 -15.04498555479162
87 -0.05263409994329727 -10.055296255235785 2.6724772740067997
2024 -5.979743307605756 -20.96426289489954 -10.889435099744519
1157 -12.205000868447623 0.8744749851455218 12.092434094958808
1682 -10.950915406619933 -6.9597330955508 10.029740971391274
1628 -0.7734073760422603 -3.9822064300796756 0.7066194853415141
1666 11.451713004387862 -9.0453041651354 -5.603631908874175
114 -5.735474846591013 11.509558601317021 13.215112328053097
1202 -3.389461673006297 7.010885252950171 -12.693544219230827
558 10.250336309181472 -11.25621849407983 -0.656950019101713
1795 -10.320690955948526 -4.781706781623638 8.686771365373948
1565 -5.063895776187852 -17.99670560280647 -11.04141398754042
362 -1.073565214108889 -3.059277320153461 7.18732272533829
1985 1.6573548220189882 -4.854296365974013 9.57734836045752
1379 0.3745735035367792 -13.895634413857183 -27.61513173786584
753 -11.424003310896655 6.582936104268225 -15.17057233372656
289 -3.1288412298272568 -3.670434300665872 7.634299184683455
1750 -6.684675869205313 11.806590174322418 17.56939214886841
100 6.052889521477626 -1.7316751389381766 14.215007806806808
497 4.477317285732414 -23.739754549657093 8.658301030711865
1916 -4.940322000594541 2.7836465062929014 9.907933362637007
1431 -14.702407526906661 -3.314545471171678 9.108332560542985
192 -19.029686852658923 1.7554961611397935 -0.7354840960818181
964 -5.566677378933597 6.6149659122631315 8.186195332238345
1232 10.009470468161904 4.242809378269272 8.767832931414997
1399 8.84057839285388 -0.8022113159635199 -1.9078677434765874
920 15.810223019754792 13.917188052904116 1.148218437696354
82 -13.481701314958904 9.577444352189469 -18.475042331121458
1259 -9.64695331879768 2.2347714944882107 7.693228811703299
1138 3.072472132519579 0.39460667872576805 11.327386838490202
1177 -5.6770847331075585 -6.950575814172274 10.806933058157545
2043 3.862101093463653 -2.714581805649326 3.0703301113483934
936 13.09167105446728 1.3804139264174513 9.822037857851804
1901 -10.224957205927986 25.35749934694904 -5.519088890532852
18 -15.835804866631163 1.5536086508841405 -14.301870574039196
1557 9.752645154189054 11.305070868208269 -6.951702506104081
1117 -13.866359105350133 -12.354213093677215 -0.17225016728647155
809 6.175764624257649 6.088211098966216 5.281972496628796
1367 -17.64129697734335 -0.21148413808585814 1.0683293662159594
1812 1.9427734222895712 -9.550568311985666 -11.36286014369135
1909 -7.528795685801282 6.207156895429922 -9.305326788118974
694 -4.3393060817006965 -3.05993266013651 -16.587000564001677
540 -4.100704338086173 -7.483052109860415 -2.5877966101850616
1643 2.1482901418391314 -1.4185897831130023 -12.626505790325805
199 9.557447123882447 4.072227792253193 -15.758626526472476
373 3.7550379855245923 4.6499862793357325 -9.991838239496113
1397 -11.222476996094384 5.702025289465472 -1.6251083796107215
1298 1.491932231321755 18.415505149317585 7.097116466649956
2052 7.802591458589911 6.046210034115685 4.737656440967558
1454 7.669413271893999 -13.003090871507466 1.2061238335198312
420 -8.396410973901451 -8.24178291248129 3.8435782540676064
258 2.717344255488521 14.787156250626287 -19.011970391624462
1946 1.403763520920747 -8.5625492952145 -3.946977186770369
1496 8.349636951382491 -1.8692797138641615 11.89797322779704
97 1.616184516410276 1.8242601586889249 -1.1196239938927248
534 15.509389970737251 2.934267991773732 -2.203768044007518
1741 18.981769510550116 17.428574939560047 15.664216947703025
204 0.3363245424164435 11.613583510104764 0.8993476836419343
1476 1.540597984378565 -1.2091968290837083 -9.893645894784967
742 -10.992115465482797 10.250226661980536 -6.216000753576079
456 5.286131014266919 2.4732553216093196 -9.415391667107983
832 -3.5946280377024844 11.564068832986042 2.317096053029092
1652 21.406267322634108 6.729710973701006 0.3424527228985589
1586 -3.6081422139454933 -3.0359881717440906 -1.3738675565791798
1419 -2.73363307751076 -2.121627806729513 1.7335692220091576
1075 13.299925044219147 8.2214363555899 -4.31136865008289
406 2.052598683370655 17.85083678875968 -2.1088296233916832
1021 2.02202213719104 2.910279475049337 15.87362941711098
861 2.1930560066571556 2.046290944540397 -10.442137439355085
1609 -7.419074594426452 3.277406824949055 -7.6981297900416745
1661 -12.883921411390443 2.2212078003019786 4.965493957951624
974 -8.26648039842639 2.205357428148756 12.265371713202612
1510 -10.072920344986288 12.831025873225395 10.824545480543456
2056 8.64577641803371 2.9740201458211444 6.765861325946301
1906 -14.80774905735234 -4.7478072664157 -5.718352634561704
793 -11.938708883592877 -0.45238411553771096 -10.530239166987839
211 3.4814045007030763 -17.717437611242335 -6.101072705317976
1237 0.8836492268693225 4.809585571019589 -10.028042363289869
1674 6.666385727914911 20.562306628140604 -7.442078536501421
1424 -8.377718982334272 -9.48028782412488 2.8867708006295985
345 -0.2660086164852937 7.296652789010737 -10.702090929586825
1359 -15.442112840802482 -10.449243654881183 6.445142316408894
570 -13.208383561613322 6.639743341761926 -11.304012386917982
269 2.7370014042330677 -13.296450365141398 -1.549354940153336
1174 -1.7167978448021084 -9.981299314126648 16.275782926694472
685 7.650870596138931 -12.369520855115924 3.0823250891466762
48 -0.6519807569467511 10.271918101910199 -20.357764130407368
716 -7.611031078531441 -1.3480973494976314 2.1039469594877502
250 4.4746048672023875 0.5858082919761008 3.732097728889145
311 5.155880438554862 17.104732930335686 -2.5767117959496724
351 1.756213784283679 2.6825740006614325 -2.7769270170825666
356 3.2238870814733738 5.608045590911168 -21.79480919851133
1402 -7.528984847750105 -15.099154754100333 -10.91204808427819
2107 -2.0595173526044768 3.312916127155375 18.316297986299453
994 8.064399096786978 7.616385499147411 -1.3509319497675543
422 17.21456361310699 0.9332339643303714 3.655074402452747
1170 11.024741139050292 -2.924962829580149 -7.06363155970058
813 11.247865593654947 -6.2187799260035 -4.430539966107554
1549 -0.40696597652611327 2.8420253092885432 -1.6006679832263726
1786 -10.291929635921262 16.348625409720032 5.921888484129059
900 18.54653283023938 7.301193320864322 -6.3893169276417
719 2.489270892893594 -2.1253673218496716 -12.976593959169332
397 -9.444902456363527 11.757130226875624 4.43699764921672
1568 4.326911399748783 -9.62289316354142 20.690606090496168
1950 -1.9415078491381603 2.4476015599627114 5.0352080973373345
427 6.308780876651238 -3.0605891549626123 -2.8901104466976566
1136 4.167270939989462 -9.913025108128263 -6.830251770206132
1204 1.7768017378757828 -1.2056324748214955 5.578365794770542
1631 5.409431976950342 5.423453310610482 18.24935015100229
1744 -0.2957319095510488 -1.5436407206587823 -8.18730125793378
317 0.18674695043544554 9.690897376040844 -2.551767136614643
689 -12.868054870296909 -13.936160139083434 4.6140197772155735
2049 8.072498782464615 13.703419308597333 6.720508473003411
339 -2.709548727437951 3.865486369233389 4.912480559798266
1275 6.004296302734324 -0.283865713265896 9.804754202075715
923 -2.6251560322022227 -3.7947575640496822 21.401461561063623
1574 1.243867287852164 7.446160079244938 -1.6160142366869565
1579 -1.7028261290559565 -1.406342329794754 -19.584179147667182
1862 -0.5374278197473781 1.2113029070349646 8.142499794130154
227 13.398342090903753 -7.020788764448459 -15.644260867183505
1742 13.732687260636709 -18.42837607046395 -5.6013436931355125
128 -12.364744988987889 -1.8923129521418454 -3.64520881058334
1725 -1.776988736715518 -1.0257119154448724 19.815457255005875
1591 10.996777245482825 -8.323453405223031 -0.9565380317002431
1767 15.968184543385682 -15.011393297624213 -16.82533826155715
1871 0.7864789395292612 -5.750708480581223 -8.496874455742944
526 14.611854204121723 -10.262334413424309 9.505466997639008
404 13.696041527683606 15.346821794439114 -3.8584516068742998
85 7.370702510291509 -18.18580573918035 -5.732814873769303
2053 12.744473168321914 -14.645970908753503 9.659410145925587
92 10.301074107627446 -3.9423268971253997 2.4848568508585314
957 -8.672223796622886 18.78984706969359 -2.5726547096131127
412 -1.7451066113578544 4.946497179171495 2.736682573087272
1991 -3.7136908214523063 -3.6485527149036776 -23.81170940498669
1870 0.324353346369166 10.345825610906754 7.251627809558581
26 19.549917036429477 -0.6121227681734617 -6.644163293638672
95 -2.2710487446815453 -1.5793404983156516 -8.298758884926238
505 0.22850564487158817 3.1708514128514143 6.836431254821409
796 -22.657232089391563 6.644120724551586 11.29431282411125
1770 -2.550464019175261 13.618906926687808 -1.95435186998942
1605 15.243695777251514 -0.2010309458579145 -2.1230493087056046
1667 1.1182156771284284 -0.142014944968268 -15.69575417147057
307 16.222892605144438 8.704674732973801 -11.04749171901326
1898 7.031884805229827 -7.65462141607146 3.611345229455064
36 -9.771021257745822 -23.211243666465155 -1.7247837560874988
1344 13.88525102945032 8.239783704006973 4.53802940857971
1539 -4.4550846869828895 0.8299522451305984 14.280196959620538
468 0.8518449005050351 3.3792732508876355 -0.3922607224995636
2041 4.364679997689045 -6.4277543483749975 -0.7598679089859643
683 -17.02710497832938 4.450229258295353 -8.146011162876935
1200 -12.462762304625029 -9.373088413943375 7.7562619858302595
1034 -6.338488665112744 6.252673371779046 0.48063594097859935
1098 -1.8580940983180354 12.778428934069654 3.6566949505561537
2124 -0.6627568387985735 8.198939868692461 -13.276709541276427
1552 -5.315550873670414 -8.889521757287214 -1.1600004533979105
996 -2.9427375484352596 -0.44603240322260435 -2.587346044887406
513 -10.29301922042343 1.373847038803175 -14.191019895463313
661 0.7508829888084017 6.1309475705860335 -3.5793699570044595
977 13.656403429034686 2.857178319349299 11.298537254114867
10 -4.89606347523046 4.384072458375677 -12.064578624228888
987 6.630227118234456 13.656319583893575 2.8864701482495434
1235 3.6807727320912287 18.853832043225935 -9.937270163873153
1123 2.0924677738826625 -14.454922709652166 -3.5808410004594906
603 5.1247090049156885 -4.716536120084917 -4.991215874729623
1879 12.171778476637844 12.397205469531665 0.7403789157986244
1593 17.96824210593042 11.468905197267933 6.403969684784654
625 3.427779093483548 -6.245264064800485 5.701824894273042
1615 6.510043130313504 0.38713010233051837 20.17731808837049
1469 -4.679735934668112 7.982275557645555 8.061247216003451
1225 0.5599324380516675 3.7136121550620365 12.034329155347393
394 3.8618661278507966 -1.1565226507332373 -3.0119269704714338
191 9.572086804977161 -6.074294478376157 -15.047134253584263
2139 -7.257766253434926 10.938225018554057 -6.569691446373281
260 4.057901342316317 -14.524945067500592 -10.222290962428419
80 -6.271862201017916 -6.508539235399079 23.59258101588329
1330 -5.600005042525467 0.01888597964289607 4.342325995790001
553 -3.0307245607450253 -0.2531331169747875 -2.501477180049159
40 -0.5347482964570063 2.71218415269642 -12.767204037644301
1260 6.962658389380948 8.783482832986381 -0.17910125744208547
58 8.75537941839814 -9.379640825054597 -1.3890665825772885
1057 -0.4404266199285615 3.08393017851321 13.547709731956529
2025 9.964290675291817 -5.227904621857714 -1.8548967901915892
495 -1.135772737322089 -10.260916451505276 9.699592068161094
1062 -17.375813094186324 -6.1918822056414795 1.4674023686291031
1512 -1.0881761841690571 12.430544764799222 10.16126873546648
515 -4.27466487899607 -6.244740832102565 7.818542779559992
225 6.84459809668191 6.131141016494965 -2.459288857716535
1843 15.286328711747029 -9.944174730621535 -6.049038643517662
487 -1.9251297815546708 -10.703272336382998 17.756490063868725
2148 10.798205119871815 -9.95260835901571 -0.34698894103202
44 12.811922871028369 -3.125028578377569 -11.075464975462037
430 9.39819518363936 -2.303363267465516 21.248754227639193
1588 7.260584132685208 4.7477230145210365 -2.030923552364347
463 5.820578907942564 18.08367329267578 24.81464933015728
1297 3.952284997087997 -17.13819494549483 -0.31147903140842326
681 2.2283916378746906 -5.9443299027013 -9.66400338206825
624 4.492311553916085 9.646967718101738 1.1697133972443952
1551 5.47530162962625 3.2563336500338838 5.9977633204051815
1011 -0.5078262228356584 1.5488687286981861 15.220763625951685
1018 -4.091695439481073 -0.3945532179548527 -2.676531098453428
1091 13.83885656255444 -13.410353005218644 6.094960915632797
1936 9.193674390736906 -27.550167926231484 -6.214470147976042
336 -3.8156044204339024 5.785086290415375 -17.129027928487478
1706 -6.202347321267148 -6.582680612287309 14.15223509060643
622 -9.966689322326214 8.388223536686287 5.056967274073828
333 -3.620305786322315 -5.6500232263597185 9.447370048452726
1377 6.444422620181512 -15.850118741625195 -4.189671634086686
206 0.6192134189271061 9.401698573239308 6.687421494373105
1087 17.479118760588516 3.1623224369998093 -4.760582112318666
1081 -1.5929781286163054 4.04820849438269 -6.585825545683845
881 -13.584853076256282 -4.71993650626745 -14.609936919837297
383 -7.244786002782682 22.300236182575155 -3.53650733766352
1154 9.33020417983192 5.032671047589833 -8.72759126298028
666 -0.7003051624527077 -4.131823779276194 -16.022389830603842
2143 3.9628126631565297 17.55644378298606 -9.346389915017498
1264 6.691490117684893 7.415240827934146 4.372286573898096
37 2.8587067070283103 -6.392540780828812 17.13232363230006
215 1.3820970896340437 -7.897938009959852 5.461292416291304
12 2.6566757610610874 -1.5833472798946449 -8.023986048694141
2031 2.616941903839625 13.044407949655863 -4.006647427359754
1573 4.127767244332742 7.932166621138443 2.8196440459715313
799 4.162008219274569 -25.858295453315066 0.5075789880292773
1815 12.262307459161747 -0.511959179657558 0.07429770723067665
787 0.7569152182722265 2.6151488986309444 -8.942658165270549
1050 14.901004614743943 8.703649609666826 -4.746873348377415
393 -6.140464943549949 21.809537577992522 -10.461860756054076
842 -0.04388501933323853 -7.293181637505834 3.6503494212903873
1578 9.64732682584123 -4.138618951581547 -2.704980993278552
1023 -0.7259450466549461 6.839956375600677 6.8122958918516865
2081 -16.059535216556647 -1.8517126131491106 4.324330082257803
772 4.598551275634556 5.331399620435985 2.931520051608684
1380 -0.9718824789380688 -10.690127522855635 -7.97191296912964
1965 11.338987012900441 9.274717900123168 -16.14088529735694
749 3.3135131929065316 11.807055944315657 -1.5247890533330315
1197 5.314299832055572 -9.634599914684822 1.7741844207462294
1160 -1.9492795980091069 -5.83306986520453 0.228730366079349
2007 6.594444783262438 -1.3734022349908688 1.76491063203979
1754 -7.682754485386695 1.9313283709974753 8.657892749755783
137 -2.5922301679939164 6.97720168429239 5.0835159287366
1436 6.290636711707456 10.238743728577562 0.2822443707563745
1116 9.298938854115324 -3.3408081215641228 -14.185766679682173
1945 -2.422105543237372 -8.139615381738523 0.6862989929998999
1069 11.683066385510369 8.508088772175398 4.227710260855073
1085 -8.77856194940252 -1.4979339457780434 6.6743738347840464
1902 -9.464841197330093 10.08803451048056 8.661866974920988
239 0.7199963395358209 -13.290336386909779 -5.937048861881875
230 15.23407123881966 1.0903441833753997 13.17120326280186
1016 -8.060680377743017 3.6472972352599853 0.8359682333745413
514 -0.702646779167093 -6.0168351401361635 2.6847405006523304
755 -1.7039761340064483 -1.2068858677466399 -19.664095568598473
547 0.1712775997907124 -4.406469263491666 7.92156173728094
634 1.6742561536831675 9.117488850511636 -8.368850446088885
1382 3.1805186506259675 17.22706105487373 6.404003419356131
1890 4.531749507008168 0.7925966997055688 10.932612894859602
1122 -18.986267704639985 -13.009916111925914 2.4914383531420206
1797 -1.77218511447148 -16.174718230200483 4.316532616872845
411 6.289887777946093 -0.40491386476365376 -2.989728951833995
1845 -5.888615628956438 -10.540853298213323 3.803721813271846
346 5.370095990662915 -6.993155372332949 -22.66770138376425
221 -6.1990735899768294 0.3180031332528137 -1.6939632009021728
711 2.0535115054382933 -7.617303390081981 15.100614566655432
1817 -12.429260594201953 -3.8172262300244246 -6.220717828495955
1252 -2.7179883082270493 -5.25226890134309 6.7561139276649875
1439 7.185431004315085 2.2628987762144175 3.8632593447478754
1993 10.708825584454482 5.436352764540497 -6.75104394686142
854 -1.21058241445646 0.7302367440938523 16.677930198514467
212 -10.14878266336298 -12.871901353899709 6.77242750326209
766 -10.179913804816907 1.9869488694186972 6.637931819708208
1194 -12.614146805486408 -5.476269849524633 -6.374514906131321
1020 -11.390853050218455 0.9815096440731865 12.346512587257044
1621 -1.0462956984691911 -3.292167808773365 -15.46054756469698
2149 7.34572646176931 -4.779829825574573 2.810971632022274
1387 -0.7011097643673877 -0.9001137440307073 -9.979534629018147
358 6.3094097340515924 -7.048216828724791 -4.914088156401029
125 -1.0447264903148434 15.045158461831583 -8.303913384774045
2078 3.7603259881456594 8.857519167197065 10.618427582804651
1654 7.587437588773471 -9.785600304983824 -21.245744066721738
504 -10.263085140776743 8.700618265993695 1.7724161355838755
1585 9.769922938630147 4.935309843318649 7.341640770061253
366 1.7897850249583755 -2.886835769747947 6.111869631225588
117 8.220786172872465 -8.915890084126433 2.726189966995002
220 0.8878484724179816 0.4460150884740844 -2.034040944027769
1447 -10.262442702759872 -1.941013175581081 -1.8599573153347113
265 0.7366446964332122 -5.938884411707676 -6.588940043831739
391 -7.14985802013267 5.467533613342422 -8.011934960880817
958 12.25165206755111 5.6451660541366735 0.44329246036181086
1855 -6.3973507235813525 4.692192940776967 -18.365227311676353
1632 3.220190447408214 -8.454881698450125 6.805127087598088
1801 11.776583722337566 8.718702405609509 -0.8191009451527378
826 4.924195362751476 -7.293000773373894 -6.355646265456683
782 10.521694989199847 -3.781735884011296 -15.282688166271388
919 -13.301777924467647 -2.5082704025776517 3.381101970765744
1975 0.5452344972427748 1.9549318014298906 -3.9098455100315075
149 -18.043894455988163 -0.4759704705464961 10.733544781681744
326 -11.032732978773474 3.0141059549546414 4.696492711625998
1267 -1.7656121067291781 8.868838193794648 10.769620334568673
1644 -4.311228910392765 -15.722992175455053 -6.848911705595774
1251 -5.60662304826609 1.633900161389755 -2.5194667866135854
1231 6.611255254043137 14.369192687204007 -7.95617198056347
1072 -11.63549728879655 17.80364982677436 14.693634870882075
1988 -10.310053693697228 -7.394344399999177 -16.587515387689646
1914 -2.290147125370236 14.00825186447567 15.109038433375934
1086 1.2404687872383817 8.481303954923739 4.5428354810249365
2077 8.928920827710911 1.099668553284091 2.466796706376844
2029 4.369052612013379 -0.34508622835706687 6.160676765783847
35 -2.8192485256174806 3.2950770686002495 0.11608953728051499
1937 17.514314865793803 17.530324757578008 -8.932389156947186
568 -2.0990218137998533 2.364629155025283 10.14054086009213
562 8.664430986184518 21.46908760456077 -17.340157626520337
2085 12.899342005989862 -2.6634396617953437 -0.9546837905722847
2127 -23.119339695376887 -7.714874630689421 -6.117154456480922
1488 10.1713330013151 5.9460319880800325 -7.482711839290085
705 7.214007258498991 -22.202284661356735 -0.2230842218258543
783 -1.8909257985032863 10.047733388672091 -0.3770348224885107
426 -5.960066686413172 -6.376444533807254 0.13746296948238818
