LAMMPS data file via write_data, version 2 Aug 2023, timestep = 5000, units = metal

2160 atoms
2 atom types

-0.13095198564362853 30.269865365641856 xlo xhi
-0.13140961780978877 30.375648137808874 ylo yhi
-0.15165527673719126 35.055480726733364 zlo zhi

Masses

1 15.9994
2 28.0855

Atoms # charge

684 1 -1.2 5.0343944997548595 1.3214620313065795 0.895393192156892 0 0 0
1864 2 2.4 4.980689109477619 2.4919006146258114 2.0745505878866943 1 0 1
2018 2 2.4 5.21413106258167 30.35945151528368 0.08390605455880971 0 -1 1
1921 2 2.4 12.570438108320822 1.2397807699736016 1.7736424111939617 1 0 1
425 1 -1.2 11.51591840747466 2.187209954043211 0.7371344068495919 1 1 0
658 1 -1.2 14.022945856120948 1.9342834179241248 1.8840694077662679 0 1 0
1140 1 -1.2 24.434635412846525 0.8187577053338316 1.4597781291248182 0 1 1
1657 2 2.4 24.979626325206315 2.228190982002365 0.8263297938705906 -1 1 1
1134 1 -1.2 29.108465240657345 2.55418283365381 2.141581290375359 0 0 0
678 1 -1.2 28.93316544459384 30.277509361292537 0.11570629328649576 0 0 0
485 1 -1.2 4.395493251177075 4.030637253125711 1.5791748706930604 1 0 0
134 2 2.4 4.816911726333541 5.553862725565427 1.3106742021469315 1 0 0
240 1 -1.2 10.847710718810198 3.93790158906031 2.4165965841863786 0 1 0
963 2 2.4 11.708672958153032 3.8476150079745937 1.055476683289284 0 0 1
2074 1 -1.2 13.064074295080273 4.4562781302889904 1.6529524135237403 0 1 1
1828 2 2.4 14.329020818743812 3.5490709651620045 1.7633049277499502 0 0 1
1677 1 -1.2 15.353725033007287 3.311483324813767 0.45371140722775455 0 1 0
380 1 -1.2 19.932357514322444 2.945102154206015 1.2472799947431426 -1 1 0
1972 2 2.4 19.51082841838404 3.992041966502371 0.0741606232768347 0 1 1
1156 2 2.4 18.987592336588158 3.271204435732327 2.6248272716782424 -1 0 0
1317 1 -1.2 23.6576751067785 3.4892232600883393 0.6798371062322947 0 0 1
1561 2 2.4 23.49100505734687 4.7281674742991315 1.7068862716496493 0 0 0
1867 1 -1.2 26.597513460912044 2.7025148389621285 1.3195567986703265 0 1 1
66 1 -1.2 27.925817803436992 4.956618300540016 2.507433129248641 0 0 0
1384 2 2.4 28.019840905514243 3.557150849550589 1.4715775248728589 -1 0 1
1879 1 -1.2 28.45284945097588 4.287827567595891 0.06802012955318197 -1 0 1
1671 2 2.4 2.658246230399623 7.6205395464486685 0.40295366145319966 0 0 1
1593 1 -1.2 1.1415180041950115 6.9731519776155215 0.19330675996228774 0 0 1
129 1 -1.2 3.568928810582418 6.5620397109147985 0.9729679551025296 1 -1 1
857 1 -1.2 5.508637031974389 6.174388662254417 2.7486608310384266 0 2 0
1281 1 -1.2 5.78629538241535 5.671750794439565 0.044749539543747406 1 0 1
1711 1 -1.2 7.680314636812086 7.822851548971028 2.876896700074381 0 1 0
260 1 -1.2 15.55992470010202 7.166755544138396 -0.11291418653944264 0 0 -1
161 1 -1.2 18.21304492494694 8.160755333641541 0.34934470764342546 -1 0 0
470 2 2.4 16.786281811461013 8.405397795712918 -0.06053181608088754 0 0 1
2028 1 -1.2 19.5598489180376 5.44227670756034 0.7809592512938952 0 1 0
145 2 2.4 19.576846704782113 6.998639689573619 1.4000391711614595 0 1 0
180 1 -1.2 20.943420565859483 7.935974989882863 1.1570651658196824 0 0 0
1270 1 -1.2 19.435097348411418 7.102409203100913 2.948309986057913 1 0 1
1984 2 2.4 22.569250263431954 7.483786052177017 0.8620991052953894 0 0 1
2093 1 -1.2 23.665733528418755 6.286222246388437 1.3299268789935643 0 1 1
1475 1 -1.2 26.5395721626314 7.1853153769904505 3.0227715167080285 -1 0 1
140 1 -1.2 27.188136826151116 6.574037872496492 0.5731597723815176 0 0 0
280 2 2.4 27.82825010550278 6.559555803436567 2.1931159899835544 0 0 1
1438 1 -1.2 2.2635229586317362 8.992239110914399 1.3996317002429404 1 0 1
432 1 -1.2 9.487846975510381 9.221175962565159 1.8514303983494396 0 0 0
615 2 2.4 10.08295955786942 9.86220195558191 0.5157517912806157 0 0 1
515 1 -1.2 9.340784079738597 11.217086669948607 0.29173570536331134 0 -1 -1
702 1 -1.2 11.765027286033298 10.474585032632723 0.7718471005500664 0 0 0
1456 2 2.4 15.434061905835554 11.201279641142836 0.44459053673954685 0 0 1
444 1 -1.2 16.281640892941752 9.867205409587637 0.5108400436712155 0 -1 1
1558 1 -1.2 23.43992922795086 8.783248787754145 0.9424952552437477 0 1 1
98 2 2.4 24.507295214315825 9.667356674276515 1.8007149290879756 0 0 0
120 1 -1.2 26.019875550528266 9.642415034318256 1.026681892911088 0 -1 0
1660 2 2.4 27.349830786420682 10.251072457078076 0.46065500091167255 -1 0 1
384 1 -1.2 24.429867924001393 8.915766504624159 3.2227913761676787 0 1 0
516 1 -1.2 28.441854516103508 9.967598362827037 1.7551127500496915 -1 0 0
879 2 2.4 1.6693552724371346 12.31178995798872 2.3091376554006287 0 0 0
1752 1 -1.2 0.28678482156857155 13.177592912322451 2.237824663579832 1 0 1
1015 1 -1.2 2.315626865920722 11.623703423702686 1.0788269080950947 -1 1 1
1010 2 2.4 6.413945854864948 12.52188173583847 1.3611490070849788 -1 0 1
839 1 -1.2 6.17665921136105 12.372933082505075 35.053718702810706 0 1 0
1129 2 2.4 12.688780956968145 11.901413170458314 1.2709189913676344 0 0 1
1577 1 -1.2 12.613135184654203 13.24798177770559 0.29331177448381174 0 0 1
1220 1 -1.2 12.047480766940295 12.115793199804282 2.6832827646991197 1 0 0
598 1 -1.2 14.281628231662747 11.376440968308573 1.5990398678344444 0 0 1
286 1 -1.2 16.329303446714018 12.681285266737223 0.31618524494539035 0 0 0
243 2 2.4 17.951513311073743 12.987106787384928 0.6034060166665813 0 0 0
1169 1 -1.2 17.697478361673145 13.76028335270479 1.9566697447030053 0 0 1
1234 1 -1.2 18.96199223540743 11.70362839772858 0.8152497184281823 0 0 0
618 1 -1.2 20.52875825969867 11.028189524919222 2.2791574722763266 1 0 0
2101 2 2.4 20.387775509843948 12.275890332117196 1.1784142352515012 -1 0 1
1928 1 -1.2 20.9769539400486 13.828405490154752 1.4507037123022901 0 0 1
1896 1 -1.2 24.312569397858045 11.361516367188173 1.8517229140298654 -1 0 1
302 2 2.4 24.769163604491116 12.989756606468154 2.205339547840774 -1 0 0
574 1 -1.2 25.432020137537116 13.735472873645387 0.9043664105200658 1 0 1
1702 1 -1.2 27.30850699499255 11.918056088775613 0.6726457789644805 -1 1 1
701 1 -1.2 2.258435082507411 16.201100740640552 0.6548022075926481 0 0 0
991 1 -1.2 4.935830648629672 12.702842072429789 2.146176670286337 1 0 0
1094 2 2.4 3.5844981885266383 16.540590960035622 1.3979272921602637 -1 0 0
152 1 -1.2 6.910988634294693 13.902402800498466 1.9476938280372298 0 0 0
877 2 2.4 8.196614756293153 14.984534426704109 2.2615476690259126 0 -1 0
1055 1 -1.2 9.062463281711997 15.02595566929595 0.9398067818729681 0 0 0
2038 1 -1.2 13.869391045086164 15.785360376977161 0.7117775215449209 0 0 1
1696 2 2.4 21.621332064147175 15.331263734947468 0.9907254502769386 0 1 1
1590 1 -1.2 20.14539267753685 15.92785217668791 0.4248551618982039 0 0 0
1760 1 -1.2 21.822200851919856 16.014013465874378 2.3881904266712275 0 0 1
1197 1 -1.2 25.39922592438643 16.946766207123243 0.1059320647131211 0 0 0
1457 1 -1.2 28.066003559969797 14.30656103866407 0.41693415070665957 -1 1 1
223 1 -1.2 24.44857375498817 16.675933743912953 2.686518313380444 -1 0 0
587 1 -1.2 27.06473270940907 16.4794717932507 2.037456160710198 -1 0 0
542 2 2.4 28.167650990536487 15.422089683253022 1.704731366507795 0 0 0
982 1 -1.2 29.810512953444825 15.65723682579583 2.0499250665441098 0 0 1
1700 1 -1.2 28.341942280093818 14.14561717837806 3.096607663180051 -1 0 1
1219 1 -1.2 3.2545174694148207 17.67539322783468 2.592034200257649 1 0 1
1295 1 -1.2 4.595163635526238 16.995648144435815 -0.06413016473114296 0 1 0
1444 2 2.4 3.139311378687132 19.183052603280192 2.8893427327728043 1 0 1
1006 1 -1.2 5.931908492127271 17.98131883930712 1.8376730221334445 0 0 1
1754 2 2.4 5.9486001439575755 17.957560512185644 0.14336708250176539 0 0 1
1118 2 2.4 7.500596148792849 17.993075624104634 2.696643046052923 1 0 0
514 1 -1.2 5.8280534607455605 19.461711755910127 34.69555547489988 1 0 0
453 1 -1.2 8.540219833500165 19.352543385172254 2.223134896624329 0 -1 0
396 1 -1.2 13.32515232146474 18.24525435266739 0.8711569769898821 0 0 0
530 2 2.4 14.566765359300451 17.251539323992322 0.6824727885814944 0 0 0
874 1 -1.2 15.912865744816722 17.51863046488198 1.7946559164302764 0 -1 1
673 2 2.4 16.104037382610258 19.192319907945578 1.8809502233554942 0 0 0
1683 2 2.4 25.60110766723707 17.309782078243163 1.6380032485078628 -1 0 1
200 1 -1.2 26.007665606884345 18.825185078525045 2.124539542689975 0 0 0
1024 2 2.4 2.3559860025368247 20.718404038823675 0.3383111140209386 0 0 1
106 1 -1.2 3.078219431437623 20.188399309955376 1.5466936767888093 1 0 0
353 1 -1.2 5.918918779860033 21.406664376575673 1.6295113513212813 0 0 0
1885 2 2.4 5.982549592506644 21.070363291960277 -0.0734404786985689 0 0 1
2104 2 2.4 10.135995369928017 20.02448977486139 2.749103817652979 0 0 1
1306 1 -1.2 9.771307337358438 21.505226230621076 2.760591203035899 1 0 1
1391 1 -1.2 11.00473820482039 19.162605774510936 1.5968261906073808 0 0 1
1070 2 2.4 12.363094605761372 19.515374727440904 0.5635025442013266 1 0 0
703 1 -1.2 12.656600823105865 21.13155544208988 0.7913655105135237 1 0 0
2090 2 2.4 13.936572134499952 21.488190318652567 1.761649510287281 0 0 1
1698 1 -1.2 15.071824852634625 20.291599420346394 1.4207808458426563 0 0 0
1607 1 -1.2 17.52772695170846 19.532951649293725 0.9064626263499204 0 0 1
1274 2 2.4 18.349567378319072 21.020268558704014 1.209148544044604 1 1 0
1846 1 -1.2 19.604972719271917 21.084527092737975 0.14969012371072107 0 -1 1
1560 1 -1.2 24.212026777592058 20.327505211677583 0.6741570166407583 0 0 1
1189 2 2.4 25.75328577779047 20.269863923473046 1.3850633126548924 0 -1 0
2001 1 -1.2 25.61015333290155 21.471109487895607 2.601921661231936 0 0 1
1583 1 -1.2 27.293109010160947 20.44890044625141 0.6480560867657653 0 0 1
338 2 2.4 1.8740900770524973 23.872894923419267 0.1942391911809268 1 0 0
245 1 -1.2 0.8984579446556022 24.442705745214937 1.4508344210702186 1 0 -1
1892 1 -1.2 2.677451867224421 22.3911973850352 0.47909215338695066 0 -1 1
1111 1 -1.2 5.536108137649325 23.949840535855913 2.7535500607557246 0 0 0
1250 2 2.4 6.438563414271553 22.89668121882988 1.8274446974809817 0 0 0
2112 1 -1.2 6.609856784170015 23.65783811206713 0.3358552305967355 -1 0 1
1860 1 -1.2 7.711229767427804 23.035203470894878 2.6592038384672287 1 0 1
682 1 -1.2 10.30928729767659 23.926258801059518 1.584707831625958 0 0 1
2030 2 2.4 10.23177406494794 24.085206114263013 -0.1015076149176738 0 0 0
1105 2 2.4 9.39482949162545 22.97626876951614 2.7699016833930337 0 0 1
1151 1 -1.2 14.477992271044387 22.962822277288332 1.3204556089327055 0 0 0
939 2 2.4 15.05903773929224 24.217103093711334 2.3426301985935987 -1 0 0
372 1 -1.2 17.485844604542386 22.354495800886927 1.2304826644566131 -1 0 0
1653 1 -1.2 16.569440459789508 24.61929708196649 2.2643789078776644 1 0 1
745 2 2.4 17.98838996194894 23.88046337504463 1.6610317530785668 0 0 0
2014 1 -1.2 18.05504848861928 24.639347481820142 0.2608436223321456 0 0 1
1883 1 -1.2 19.281461366184267 23.934719996764134 2.671020118531089 -1 0 1
1482 1 -1.2 21.806028724602655 23.15166687668254 0.2570788559688896 0 0 1
83 1 -1.2 24.5262080720804 23.696963743638864 1.2390512604682675 -1 -1 0
38 2 2.4 23.226834899285986 23.962270704452894 0.08273146453788535 0 -1 0
1228 2 2.4 24.62959674666881 22.89274170642683 2.638043361431344 -1 1 1
16 2 2.4 0.051934082892268474 25.24854671449802 2.5113375719501723 1 -1 0
1710 1 -1.2 5.169780138715253 26.48123978960644 0.7862574366864813 1 1 1
1361 1 -1.2 7.475611464966918 27.452897153633547 1.9420272726125147 1 -1 1
1592 1 -1.2 11.910195678850643 27.091495399095948 0.7949710487755817 0 0 1
1851 2 2.4 13.50302999237979 26.70833908100079 1.1113326510523955 0 -1 1
708 1 -1.2 14.05126465661491 25.423437424758838 1.8750744457315138 0 0 0
198 1 -1.2 14.225744585656283 26.72846355604979 34.772528393849086 0 0 -1
63 2 2.4 21.59338480418293 26.100618043697267 1.1539365304976048 0 -1 0
1422 1 -1.2 21.450624738210266 25.39396183027286 2.6378847747311824 1 0 0
2142 1 -1.2 21.14361854341554 27.632200278450885 1.298334644601917 0 0 1
1703 1 -1.2 20.470644270246694 25.304869331382573 0.1736921342163963 0 0 0
1145 1 -1.2 22.963678997812465 25.64290255923492 0.42517901879116127 1 0 0
365 1 -1.2 27.033378599161036 26.60361413814745 0.6529252485313654 -1 0 0
722 2 2.4 27.949312591967626 26.85860507479851 2.0711246687331153 -1 -1 0
295 1 -1.2 29.110637977840426 25.78981497887038 2.01410398048718 -1 -1 0
1884 1 -1.2 2.246928903173393 28.02624885442651 1.2185918078506568 0 -1 0
1048 2 2.4 6.432491518068933 27.610363280147915 0.6217811243290067 0 -1 1
633 1 -1.2 5.832853784505281 29.19376669569822 1.0591514482178916 1 -1 0
104 1 -1.2 9.924835172005174 28.299375848216087 0.11740275615744658 1 -1 0
262 1 -1.2 12.732579820648837 30.11241558114866 1.7044475846618958 0 -1 1
8 1 -1.2 13.630626135602839 27.63540786150445 2.40122060186695 0 -1 0
1354 1 -1.2 17.35184864920927 28.1872783115575 1.5890457343070326 0 -1 0
1803 2 2.4 17.565400616758826 28.34471917879204 3.2426437572169853 0 -1 1
414 1 -1.2 19.178273536854324 29.10457099431162 2.963651164027533 1 0 0
50 2 2.4 20.916579250967146 28.85131537013347 0.3821563765148307 0 -1 0
956 1 -1.2 23.85711798483204 28.96282679629414 2.03851557295845 0 -1 0
275 1 -1.2 21.836846451769077 30.243283481334355 0.32474115802742526 0 -1 0
2125 2 2.4 24.751380895267506 29.635525316639246 1.01662893898817 0 0 1
741 1 -1.2 26.32969611912906 29.480823808484043 1.4656256959482872 -2 -1 0
410 2 2.4 28.099912739014844 29.78149136719183 1.4506703535270133 0 0 0
1668 1 -1.2 28.633884224816814 28.366764102620834 2.0507206497287225 0 0 0
1782 1 -1.2 0.15589579741880677 0.9271235129354165 3.844026628386015 1 1 1
2092 2 2.4 0.9653438018057151 30.285304815897142 4.707767270246891 0 0 1
437 1 -1.2 2.4723536042242333 0.35920059857840325 4.672355371573006 0 0 0
1521 1 -1.2 0.264620061784084 30.146751043796545 6.145487762052427 0 0 0
1912 2 2.4 4.037922308513355 0.8614437170298034 4.624221155299907 1 0 1
898 1 -1.2 4.010203705575089 1.9312769301527677 3.2815032495106835 0 1 1
41 1 -1.2 5.0482805701133024 30.31507132180037 4.789822483580932 1 -1 0
2009 1 -1.2 6.436279200697312 2.584617841353437 2.682862154811236 1 1 1
1386 1 -1.2 11.65962177749557 1.639717804659775 3.191087901610537 0 1 1
1940 1 -1.2 15.071761605850712 1.1255963866721928 5.061251502927937 0 1 1
1002 1 -1.2 18.9043582604641 1.788226121245072 3.5196121174701087 1 1 1
229 2 2.4 19.988763317041936 1.5208368304219457 4.606883561058382 0 1 0
2012 1 -1.2 21.493913374337655 2.513667264731129 4.300795316547782 1 0 1
972 1 -1.2 20.319262971518786 0.05044774037460316 4.804493153823105 0 0 0
1262 2 2.4 24.126722254390238 1.2116085220938058 5.129946744071803 -1 1 0
1065 1 -1.2 23.82982584224778 30.184370395358947 4.471007788736343 0 -1 0
471 2 2.4 29.09726296509882 1.3956890757202596 3.1985855270912547 -1 0 1
1043 1 -1.2 28.53044382400024 2.025522882890337 4.725033427146509 -1 0 1
528 1 -1.2 28.298232833409198 0.18035063616563513 2.5773293643937123 -1 0 0
1464 1 -1.2 7.051335161168166 2.8932044041805747 5.018295331101791 0 0 1
803 1 -1.2 7.779647550110543 4.914689201905277 3.2071620538781787 -1 1 0
1647 2 2.4 7.65875870419733 3.2800540253998025 3.4306321846771306 1 0 1
1304 1 -1.2 9.093824119976281 2.5993192090199284 3.6452133696771423 0 0 1
1453 2 2.4 10.6432188257326 2.9045565256613464 3.617828597816271 0 0 0
60 1 -1.2 11.129138981800889 3.484477522098716 5.039714215634974 0 0 0
768 1 -1.2 14.90107698686684 3.710950944328702 3.2527035090833114 0 1 0
1537 2 2.4 16.32661002034418 4.135160906073086 3.985672922610501 0 0 0
1534 1 -1.2 16.33926205010118 3.2889742232810417 5.4032681814204295 0 0 1
549 1 -1.2 17.304390179087246 3.5199724842971696 2.775087226354023 0 1 0
2109 1 -1.2 19.815079804937934 4.315067523218637 3.570628988250718 0 1 1
795 2 2.4 21.35465850165448 4.090767825211008 4.093754066404691 -1 1 0
2063 1 -1.2 21.612271470207137 5.106636969142704 5.485904132919581 0 0 0
1606 1 -1.2 22.110674187862216 4.404002980786959 2.6464715390885707 -1 1 1
2075 1 -1.2 24.53190509649111 2.5453586997232502 4.29192554296 0 0 0
642 1 -1.2 24.27796566311758 4.935232799723534 5.404283135524073 -1 1 0
364 2 2.4 24.967928801448515 4.225153581874787 4.212079408259334 -1 1 0
869 1 -1.2 26.446171897810615 4.030658176689852 4.703577266204983 -1 0 0
1837 2 2.4 27.761424214645455 3.3796017884553624 5.544875350098934 0 0 1
89 1 -1.2 28.893821234915027 4.580459950980808 5.746859297200677 0 0 0
155 1 -1.2 1.406724488736093 8.44264583651497 4.1478721259143745 0 0 0
561 1 -1.2 4.301967166898302 8.218299783382566 5.668902822949461 1 0 0
1900 2 2.4 6.936330683771911 6.357379171022376 3.393711297592594 0 0 1
948 1 -1.2 6.267428464280057 6.2553330529086555 5.135669379048901 0 0 0
1506 1 -1.2 9.928403463647884 8.401998263679063 4.324538902408237 0 0 1
1056 1 -1.2 16.65725595306229 5.752646773963729 4.206861044623849 0 0 0
596 1 -1.2 16.08956169014109 8.486696793268907 4.93247228627421 0 0 0
1636 2 2.4 16.868961483516948 6.88120036322406 5.393387276296436 1 1 0
989 1 -1.2 18.44125376026381 7.250272339686643 5.311855770748346 0 0 0
706 1 -1.2 21.134059656072512 7.869382970588724 5.06935841551844 0 0 0
1948 2 2.4 19.59485485196691 7.969975480150299 4.416829786239285 0 1 1
34 1 -1.2 24.89501410661155 4.646253286766405 2.6505459850854645 0 0 0
1040 1 -1.2 25.21124397388747 7.754366940808251 5.383090468017098 -1 0 1
931 1 -1.2 29.162316455774253 7.329329142203109 2.579558438792923 0 0 1
981 1 -1.2 29.70404859227199 6.754372362251755 5.033471804433254 -1 0 0
867 2 2.4 29.995902232315125 7.9611292694973015 4.043627571265548 -1 -1 0
163 1 -1.2 1.4579196059474075 10.98195632962409 3.5180913577597286 1 1 0
292 2 2.4 2.095710530288344 9.329966203392743 3.0607952006481765 0 1 0
1990 1 -1.2 3.492861802708653 9.6017295682076 3.8501228897617623 0 0 1
27 2 2.4 4.317691224359908 9.64838492653683 5.105725783346861 0 0 0
297 1 -1.2 5.7638992156934545 10.131878825693153 4.541032983010854 0 0 0
1620 1 -1.2 8.284253050603064 10.07928172591841 4.227886795201738 -1 0 1
891 2 2.4 6.988362234416751 11.14950060175233 4.010296104131283 0 0 0
1120 2 2.4 8.74110213019918 8.929776930258189 3.3155207726500517 0 1 1
341 1 -1.2 13.866317158405971 9.423787976287484 5.805535013563081 0 1 0
112 2 2.4 15.491631172256383 9.490224382998065 6.005041274582999 1 0 0
522 1 -1.2 16.261812625417196 10.933810977268585 5.4599727647117975 1 1 0
2111 1 -1.2 19.005848579265155 9.398464248043373 3.893256414282386 -1 1 1
1516 2 2.4 19.685107202490027 10.868256475884543 3.7129351072611576 0 0 0
493 2 2.4 25.87920272346004 8.344122729586228 4.000261546612171 0 0 1
228 1 -1.2 26.840992295493447 9.70027364431061 4.167221622590272 -1 0 0
1165 2 2.4 28.050463119615614 10.138668531575167 3.333464475853194 -1 0 0
1218 1 -1.2 29.304994716983416 9.346403087179517 4.175154125526316 0 0 0
1944 1 -1.2 2.638568360309502 13.573539491251882 2.658688280521855 1 0 1
284 1 -1.2 6.957425097581821 11.291865727193056 2.202844283448748 1 0 0
1182 1 -1.2 7.137939867085266 12.601405118896377 4.68540355622687 0 0 0
315 2 2.4 8.143053005020144 13.913831695224086 4.858549216887056 0 0 0
750 1 -1.2 11.81757584144356 10.865676387564458 5.077793984388117 0 1 0
1826 2 2.4 12.36536295041037 12.16303222609365 4.322566597962381 0 0 1
789 1 -1.2 11.601416695799834 13.626443598192333 4.377270010904706 0 1 1
1497 1 -1.2 14.122942171249555 12.339155561784516 4.1979317027459615 1 0 1
73 2 2.4 15.544532274401881 12.313730008839583 5.2458755605603224 0 0 0
1415 1 -1.2 16.43452837466159 13.138432623312045 4.216871483724781 0 0 0
2055 2 2.4 17.81164693090115 13.18891822560347 3.432691452155887 0 0 1
1799 1 -1.2 18.407857091310515 11.772113812746227 4.042278242742905 0 0 0
1728 1 -1.2 20.91083399973879 11.558070839534663 4.52067955730984 0 1 1
21 1 -1.2 25.96033480738888 13.286039207533985 3.3129235457591517 -1 0 1
1924 2 2.4 27.48439358838528 12.999755500095368 4.047531860087901 0 0 0
731 1 -1.2 28.325545137547454 11.644083999732015 3.773493456871426 -1 0 0
1967 1 -1.2 27.977120886838257 13.32812720219147 5.4980817130009205 -1 0 1
1186 1 -1.2 4.459950903367929 15.43376968723442 2.076332933153446 1 1 0
254 2 2.4 4.28136300376093 14.002979329172279 2.7747134433973746 1 0 0
1446 1 -1.2 4.728804372208484 14.094659677945714 4.373916261520723 0 -1 1
1726 1 -1.2 6.997817485066303 15.015928527466738 4.959156795910385 1 1 1
800 1 -1.2 8.955863393692322 14.156459052437315 3.478823919066691 0 1 0
1388 1 -1.2 10.195835546816909 15.791449590656821 5.4147046275277635 0 0 0
2100 1 -1.2 8.133554739673675 16.62880452770009 2.777806568477268 0 0 1
794 2 2.4 18.264752000750235 15.548382759714427 5.062710663971293 -1 1 0
600 1 -1.2 17.834370440627982 16.80983444739611 4.067588086765373 0 0 0
2105 1 -1.2 18.687616806251036 14.410825948835555 4.069577867250962 -1 1 0
197 1 -1.2 23.56497558860754 14.045785558042963 2.790029989971892 0 -1 0
301 2 2.4 23.199849222484783 15.440063630079779 3.188475246536116 0 0 0
1518 1 -1.2 22.505980645419292 15.62338522500304 4.703998550427824 0 0 0
96 1 -1.2 30.26326387771139 14.760691974259394 4.662458574524783 -1 0 0
421 2 2.4 30.142744124145253 14.367835811944175 3.112505920953975 0 0 0
1272 1 -1.2 4.621198027821536 19.299550820711744 3.866847743655667 1 1 1
1329 1 -1.2 4.893684010936922 16.593450431117716 4.935288216186527 1 0 1
1429 2 2.4 5.367232256225459 18.183779789736167 4.762525602707682 1 0 0
1452 1 -1.2 6.886100783962635 18.23136288075589 4.251087364704914 0 -1 1
257 1 -1.2 16.318395888030523 19.34045647990653 3.597481526560706 0 1 0
1408 2 2.4 17.409162312131038 18.45195688362876 4.480571149272115 0 0 0
1740 1 -1.2 18.8775356770355 18.88378158514505 3.878220681159107 -1 0 1
1897 2 2.4 28.729322233903375 19.110409908605018 6.668893627651709 0 0 0
868 2 2.4 0.8680569353497467 20.180195295509517 5.005806779127801 0 0 1
392 1 -1.2 1.73103223480987 19.383215803181038 3.9164103012797606 0 1 0
1427 1 -1.2 10.663047274812316 19.19558523086249 3.987958039987427 0 0 0
194 2 2.4 11.01940314240723 19.412296202484878 5.671139926871128 0 0 0
309 1 -1.2 13.378495012059293 21.591490564697814 3.311382310824873 0 0 0
20 1 -1.2 14.394870967439106 19.90553760055534 6.348645134823639 -1 0 0
1878 1 -1.2 18.794350010926305 20.984888336683298 2.8286774597693918 0 0 1
226 1 -1.2 16.790298264834348 21.396265487600946 5.709016649662024 0 0 0
818 2 2.4 19.557302225279457 20.30945415429504 3.936188995708622 0 0 0
1685 1 -1.2 21.169932559426943 20.54469857532222 3.487059529343548 0 1 1
886 1 -1.2 19.78808606668107 20.871347888736416 5.440377164626078 0 -1 1
2140 2 2.4 22.07726244125293 21.69429227615039 4.227240074901995 0 1 1
1569 1 -1.2 23.274187253335683 22.410421587848877 3.3691565547868345 0 0 1
910 1 -1.2 27.722673438229616 19.286423900412775 5.30321690424075 -1 0 0
354 1 -1.2 26.119196158232796 21.541150678636686 5.395433026352171 0 0 0
248 1 -1.2 30.110887717690698 19.445809937310226 5.832253630970862 -1 0 0
299 1 -1.2 -0.10309215548475927 21.401034783795463 4.1053290197716 0 -1 0
2094 1 -1.2 30.11738579466309 24.00754283120002 3.4465381945486495 -1 0 1
216 1 -1.2 6.660802049315545 24.024045710407243 5.195224969022694 0 0 0
1553 1 -1.2 9.767259581369995 23.71158721355127 4.1471540997807885 0 0 1
1381 2 2.4 10.916752359484377 24.578675710179652 4.94914113122323 1 -1 0
899 1 -1.2 12.05509112456269 23.566517916707248 4.499355624664044 0 -1 0
1420 2 2.4 13.636462783548941 22.890081207814323 4.406238322406234 0 0 1
559 1 -1.2 14.954679815555743 23.75016222202122 3.899392219067487 0 -1 1
343 1 -1.2 21.17760602184354 23.069668847651688 4.028801812112867 0 -1 0
157 2 2.4 20.58676253894525 24.483906614483473 3.589868311919579 0 -1 0
812 1 -1.2 25.529259900649837 23.596219670457167 3.883239427250693 -1 -1 0
1166 2 2.4 26.69671183229948 22.98110310006006 4.875171072566367 -1 0 0
1787 1 -1.2 27.280791499326053 23.947616362303652 6.101970176036734 -1 -1 1
2151 2 2.4 29.579448527050836 22.8281685260107 4.378235014521814 0 1 1
342 1 -1.2 28.100977771867626 22.808093446965565 3.8802780736175313 1 0 0
1114 1 -1.2 0.8799311119407012 26.50991977250565 3.2389932096153253 0 0 1
1758 1 -1.2 4.408703053028197 25.441830481576787 4.720818122054569 1 -1 1
1336 2 2.4 3.764939345755091 26.77007635019479 5.042538631288244 1 -1 1
567 2 2.4 5.709785502707087 24.69116509418411 4.0769130060040935 1 0 0
2062 1 -1.2 6.725168426319419 25.98535995299138 3.916915472628092 0 0 1
1611 2 2.4 7.472506160298177 27.401730860217146 3.6241775738755857 0 0 0
1460 1 -1.2 11.246100642750072 26.10187177310999 4.722004840846512 0 0 1
1430 2 2.4 18.854359849125217 26.508982031206255 5.0965094081309035 0 -1 0
594 1 -1.2 17.717982688145298 26.886927520327554 3.9034782925534492 0 0 0
1626 1 -1.2 19.834908786140975 25.253623718594106 4.812395391470891 0 0 0
1222 1 -1.2 27.128277741890365 26.857942939076317 3.6483012189758464 1 -1 0
663 2 2.4 27.567213609716717 27.302647866900976 5.048858490458559 0 -1 0
746 2 2.4 1.8556066562873363 27.776079536064316 2.804522454973284 1 0 0
141 1 -1.2 1.1119165293581728 29.007759419918017 3.6037664983729263 1 0 0
1806 1 -1.2 3.0854918018967954 27.148379742555402 3.5621835136624793 0 0 1
449 1 -1.2 4.952678887730446 27.941617549012 5.069050205336951 1 -1 0
1566 1 -1.2 7.324276718068868 28.819134875429274 4.419817670957842 1 0 1
1526 2 2.4 5.93982156209828 29.118119262904457 5.300689265656741 0 -1 1
1598 2 2.4 10.516513730020652 27.66499174438378 4.593773296162056 0 0 1
1920 1 -1.2 9.160218883579864 27.40690642838106 3.874961434438982 0 -1 1
1372 2 2.4 12.974310213057771 29.028950289203337 2.883326616258336 0 -1 1
667 1 -1.2 11.53352418101771 28.722573279007147 3.583656732612594 0 0 0
2145 1 -1.2 13.882628079440764 29.791608036504158 3.9164169479231603 0 0 1
985 2 2.4 15.088569557780344 29.962109444695912 4.858820970401505 1 -1 1
1115 1 -1.2 16.310137539175102 29.059512198848566 3.977382967063984 0 -1 1
407 1 -1.2 19.764332824507324 27.873987542293218 5.429514956908181 0 0 0
1214 2 2.4 20.13318675163571 28.99314733526132 4.312067591872792 0 0 1
670 1 -1.2 21.679871613675807 28.62074189231701 3.9303163444304485 0 0 0
1374 1 -1.2 23.958164521924697 27.507191114961444 4.334269368165079 0 -1 0
866 2 2.4 23.41829455892521 28.890839182921482 3.6074010369407894 0 -1 0
1089 1 -1.2 28.516819959508826 28.584208615717362 5.373259755754154 -1 -1 1
1524 1 -1.2 1.5165988938734598 2.1451018807432245 7.718383290491183 0 0 1
9 1 -1.2 3.60345456368528 2.0459632719893754 5.8474681448224874 0 0 0
1681 2 2.4 3.081322699909262 2.679040482035907 7.221576404517446 0 1 1
1963 1 -1.2 4.433437888145798 2.724003731176692 8.291669048290144 0 1 1
644 1 -1.2 8.098876758472636 1.7079286432675655 7.36898504664706 1 0 0
399 2 2.4 8.8549227718183 1.0298690785187241 8.689067105414525 0 1 0
290 2 2.4 15.604514382428343 1.982758718848406 6.350450151622544 0 1 0
1337 1 -1.2 14.711207510894564 2.9403819293028275 7.545459399287318 0 0 1
139 1 -1.2 14.481467351585623 0.43154190076088844 8.017329493123235 1 -1 0
660 1 -1.2 16.93279399224095 1.3815111616959355 6.901693425166532 -1 1 0
144 1 -1.2 19.109978430874367 -0.06380913096722449 7.143791017560347 0 0 0
481 2 2.4 18.514455145962792 1.383553833313501 7.176416155064575 0 0 0
77 1 -1.2 19.6148427823986 2.081635368797742 6.182318011428424 0 1 -1
503 1 -1.2 23.304251366553355 1.300366108874734 6.449819622912521 0 0 0
834 1 -1.2 25.83411942945414 1.0305658935352553 5.782100765309369 0 1 0
184 2 2.4 26.337461772723294 1.6685942982851902 7.202420496286349 0 0 0
979 1 -1.2 25.263708074068656 1.8972589177019312 8.430279836861061 0 1 1
1097 1 -1.2 27.41253240140277 0.5190361496364969 7.762728578167612 -1 1 0
1887 2 2.4 28.657977758190697 -0.04026834558864742 8.660862095260523 -1 1 1
1133 1 -1.2 2.6018054593170516 4.173560424503535 7.445872459248996 1 1 0
1753 2 2.4 3.727098191031957 5.342281476423926 8.19630937597116 0 0 1
785 1 -1.2 6.702982187627691 3.734127434716345 7.390236687212514 1 0 0
52 2 2.4 7.803357670176851 3.0592113787089885 6.474927482060603 1 0 0
1318 1 -1.2 9.066233506003808 4.218116255170777 6.341237488398392 0 0 0
195 2 2.4 10.716899266727875 4.519955346270785 6.286238099103475 0 0 0
150 1 -1.2 11.600855345241396 4.062336925166155 7.459302998497154 0 0 0
1383 2 2.4 11.460160153004098 3.1885786947627763 8.751189411875847 0 0 0
2116 2 2.4 23.687844545226802 2.245953963829623 7.878333646920981 0 1 1
1243 1 -1.2 23.39395864045732 3.9439956493092554 7.805744782689027 -1 1 0
2002 1 -1.2 27.340471834540388 3.020534551322761 7.23509967263662 0 1 0
2087 1 -1.2 4.006828606040759 6.196009232056683 6.890010323913772 1 0 0
147 2 2.4 5.24323205494973 6.986233105427397 6.2066014552821445 0 1 0
255 2 2.4 10.300563677800692 7.824847984607104 5.717764664537448 0 1 0
1061 1 -1.2 8.843844056990829 8.00253717266924 6.55546926851418 1 0 0
630 1 -1.2 10.590522426356374 6.200315987370912 5.763529456499688 1 0 0
1248 1 -1.2 16.195153725146696 6.364957441510418 6.687033610689855 0 0 0
1649 1 -1.2 13.86424521016728 7.319102325977603 7.78221163016608 0 1 0
807 2 2.4 15.47158335531735 7.468562570017981 7.885443793693393 -1 1 0
409 2 2.4 21.5686627708993 6.649267891376289 6.3204964983354355 0 1 0
945 1 -1.2 20.665035814235654 6.761568489704893 7.612620786984913 -1 -1 0
423 2 2.4 24.0012504686239 5.291132243111595 6.95745330486607 0 1 0
552 1 -1.2 23.051087391557314 6.48192297654259 6.774287824390239 0 0 0
1373 1 -1.2 25.39309749623468 5.909346666550249 7.6434438060308345 -1 0 1
1981 2 2.4 26.042298014911477 7.20202339546626 6.833416763985241 0 0 1
1757 1 -1.2 29.52595668168324 6.15570512421271 7.799879035246777 -1 0 0
2123 1 -1.2 27.46536256646491 6.911531905432673 6.209756903120115 -1 0 1
806 2 2.4 28.853195685459845 6.134192882208405 6.2209686592034865 -1 0 0
1104 1 -1.2 3.9446137074537977 10.729796280102502 6.538433096229716 0 0 0
56 1 -1.2 5.4685092485445495 11.13143048922269 8.765511098714168 0 0 0
912 1 -1.2 6.100892809924203 7.851604098142815 7.3384225195263335 1 0 0
1362 1 -1.2 7.4703094905198535 10.207502213632035 7.318471834388607 1 0 1
136 2 2.4 7.645381169114634 8.52154829107245 7.530556485988713 1 -1 -1
1229 1 -1.2 11.466626279176538 8.647733414166783 6.55683329277941 0 0 0
950 2 2.4 12.299023378248766 10.020531662930852 6.18896750605296 0 0 0
751 1 -1.2 12.528690717736707 10.87528068017528 7.609333459613077 0 0 0
954 1 -1.2 15.769225098849597 9.127590453187272 7.486010838816776 0 0 0
1555 1 -1.2 20.41850614696629 9.122602430959914 7.938466634912433 0 0 0
1861 2 2.4 21.68585937746318 10.10749216824843 8.346021036260717 0 0 0
210 1 -1.2 22.222029288715245 10.404978372993503 6.6113112598026085 0 0 0
791 1 -1.2 26.348504735458786 8.616747182741515 7.641122995160591 0 1 0
1343 1 -1.2 0.8389408378417715 12.569384650201648 9.039550545591593 0 0 1
1730 2 2.4 4.044052307158842 11.314433765165537 8.064308877147052 0 0 1
908 1 -1.2 3.343351893252641 12.774983508668262 8.436920036436886 1 0 1
308 1 -1.2 7.401539215239384 12.686278698176878 8.1940489980331 -1 0 0
2046 1 -1.2 15.086128732032133 13.421762489226946 6.440503566635299 0 0 1
466 1 -1.2 16.881523162160043 13.047863696198876 8.227527208900884 0 0 0
1254 1 -1.2 20.104717600317827 11.843000818431022 7.053303875174243 -1 0 0
2005 2 2.4 21.40217390741804 11.739945539570163 6.036027138576436 1 0 1
1244 1 -1.2 22.218284523424238 13.08222016291076 6.265613250669519 -1 1 0
588 1 -1.2 23.646792218234083 12.93391771828698 8.50470185708801 0 0 0
752 1 -1.2 30.0544282523621 12.506596589723292 6.336922885503152 -1 1 1
1201 2 2.4 5.414629510529461 14.979971848202828 5.512031183916139 1 0 1
1762 1 -1.2 5.52100476209181 14.516952476879037 7.041478176213349 0 0 1
759 2 2.4 6.518017062837199 13.980119341630552 8.417210079243619 1 1 0
1333 2 2.4 10.61926320411097 14.144886248597677 5.6787646380669115 0 0 1
1171 1 -1.2 9.014095625901462 13.514272142683689 6.130579018924657 0 1 0
876 1 -1.2 10.744434905533895 16.051292677320685 8.03803628002591 0 -1 0
1715 1 -1.2 11.561449603677646 13.688165333141907 6.957665536091835 0 1 0
578 2 2.4 11.71449544801828 14.64025345136382 8.25023912290469 0 0 0
1877 1 -1.2 16.00967242412273 15.697308992030102 8.308851514950561 -1 0 1
231 2 2.4 16.37650190060132 14.257033456549614 7.280484512496833 0 0 -1
907 1 -1.2 17.605497135935465 14.600579358213945 6.1437897495030205 0 0 0
917 1 -1.2 19.68540533858645 16.198081967292726 5.531563107627118 0 -1 0
693 1 -1.2 19.419980769836258 16.556465553175368 8.20185621371077 0 0 0
1502 2 2.4 22.908194538670323 13.973825656187826 7.462681583058907 0 0 1
238 1 -1.2 23.840693953593746 15.130560771115473 7.034798809091886 -1 0 0
76 2 2.4 23.05053242102487 16.441917511068173 6.041124118776183 -1 -1 -1
1755 2 2.4 29.425996154274923 14.226785114786926 6.024123701822313 -1 0 1
2147 1 -1.2 28.66917994963304 15.707415536739452 6.030535923006559 0 0 1
1326 1 -1.2 27.22126626411504 15.651908358753449 7.9830165760454115 -1 0 1
405 1 -1.2 5.441850443523665 19.14007661818999 6.124297062826533 1 0 0
852 1 -1.2 6.519880307518104 17.75137594752452 8.35327882092722 1 0 0
927 2 2.4 6.236302343161162 18.997253791267596 7.478278244693016 1 0 0
123 2 2.4 7.915219032377128 16.971202452492292 8.514567075636487 0 0 0
1339 1 -1.2 8.933608867868601 17.59777739884467 7.407799838337735 0 0 0
952 2 2.4 10.111060427367201 16.711425354037413 6.748633620690528 0 0 0
2155 1 -1.2 11.156825742760999 17.899541560374217 6.133022996609491 1 1 0
512 1 -1.2 16.97489515878321 18.60646068875399 6.066275956974621 0 0 0
208 2 2.4 20.199730521925996 17.04855769023845 6.894454504793066 0 0 0
539 1 -1.2 19.597855507774742 18.537209494288224 6.6070283410984025 0 0 0
1853 1 -1.2 21.782923151954787 16.820255177019227 6.891283082344808 0 -1 1
1092 1 -1.2 24.514717005860003 17.641658428656946 8.465453251154155 -1 0 0
187 1 -1.2 23.897397633873954 17.743580622867317 5.876584337987857 0 0 0
174 1 -1.2 26.339922469441532 17.337280172869125 6.6164818369843 0 0 0
122 2 2.4 25.061899729599737 18.158460951928394 7.005403151295912 0 0 0
1033 2 2.4 27.814567466872752 16.70189082371465 7.052119568097416 -1 0 0
1894 1 -1.2 28.887230505660185 17.82123780281806 7.688474482577958 0 0 1
1257 1 -1.2 2.086216985086638 20.68104159392757 6.277135443314725 0 0 0
1360 2 2.4 1.8816215619264867 21.157659990932277 7.883686324694063 1 -1 1
439 1 -1.2 1.29637618820535 19.98631609389248 8.780491924454434 0 -1 0
1658 2 2.4 4.777325169807508 21.540156109831525 8.165412132733646 0 0 1
737 1 -1.2 5.155504296421434 22.258277656318256 6.682247120770817 0 0 0
1461 1 -1.2 3.2093166324236644 22.02350898366857 8.327910658229046 0 0 0
2070 1 -1.2 5.020120999763364 20.019179948052823 8.271990381564812 1 0 1
1289 1 -1.2 7.723896591269196 19.661009761518773 7.821634169782007 1 0 0
677 1 -1.2 7.666293228017177 21.953628898321313 6.470717566428907 0 0 0
72 1 -1.2 9.729972094061203 20.07541610799111 6.358826932601372 1 0 0
724 2 2.4 8.648314014817643 20.938599806264154 7.248465703279276 0 0 1
859 1 -1.2 9.101910454244207 21.971005016182556 8.438818112172612 0 0 0
2076 1 -1.2 12.062811972470074 20.564248272200384 5.815353023836893 0 0 0
1724 1 -1.2 13.43497271178368 21.05562134996256 8.275006091088871 1 0 1
316 2 2.4 13.387771764661942 21.001880747869066 6.643234489893855 0 0 0
734 2 2.4 16.04538806554553 19.97812365615492 6.429501926024298 0 0 0
138 1 -1.2 16.441505599744996 20.475908352152082 7.894307615439482 0 0 0
725 1 -1.2 18.953370795638445 21.282642879111172 7.869856150879654 0 0 0
2102 2 2.4 17.564829866780695 21.69868123336517 7.114413775870519 0 0 1
267 2 2.4 19.79326504915932 20.02619091231169 6.974492229379412 0 0 0
838 1 -1.2 21.18577558246911 20.304535426308913 7.733215770780494 0 0 1
1426 1 -1.2 23.271040419551845 20.91986852031837 8.58742668999569 0 0 0
586 1 -1.2 22.707664494241627 21.456228874869172 5.834334485703952 -1 0 0
651 2 2.4 22.2701653258622 21.469915813841258 7.454911257046144 -1 0 0
903 2 2.4 26.68103501807143 20.25815310382661 6.302655613025188 0 -1 0
413 1 -1.2 25.143326364600696 19.863270130085862 7.073923951075925 0 1 0
1158 1 -1.2 28.019601383854862 20.296921023169812 7.416814402000415 -1 0 0
1233 1 -1.2 0.5873744490035987 22.20164225950131 7.6813940705193735 0 0 0
1646 2 2.4 0.350458800486003 23.675723917185138 7.283672269211133 1 -1 1
967 1 -1.2 6.667805677952897 24.079829052839816 7.7040586451432915 0 -1 0
1957 2 2.4 6.600918068695893 23.045535669960024 6.402255374900279 0 0 1
638 2 2.4 11.219337306960876 24.48917276383661 8.236440120880854 1 -1 0
1625 1 -1.2 10.511543456730495 24.376536333340137 6.687968763034153 0 0 1
502 1 -1.2 12.472034503502856 23.29685855643881 8.389292911006859 0 -1 0
1471 1 -1.2 13.749854719993644 22.438263383407463 6.038169034179284 0 0 1
1919 1 -1.2 17.155111741520763 23.190128156029306 7.645588571086726 0 -1 1
1407 2 2.4 18.154696968163446 24.251611067765175 8.63450826582582 0 0 1
1445 1 -1.2 21.763930624045155 22.94611127974531 8.081739783601511 -1 0 1
320 1 -1.2 19.707022024072508 24.480977261803364 8.094186439696248 0 0 0
219 2 2.4 21.334967876906266 24.523761727700656 8.168359402421737 -1 0 0
2160 1 -1.2 26.116900272840933 24.675058741074725 8.275384273229642 1 0 1
1256 1 -1.2 29.801043788906018 23.558943487285315 5.948406058885035 0 0 0
1224 1 -1.2 1.226530304348627 25.032365274869935 6.607649140710318 1 0 0
1084 2 2.4 1.4720952854445033 26.52387934617806 7.044391397449624 0 -1 1
1305 1 -1.2 2.7975410267621 27.278519241944547 6.3062107040907245 -1 -1 0
476 1 -1.2 1.1663312085633282 27.04708121950807 8.538009048055905 1 -1 0
233 1 -1.2 5.66414441851387 27.395699552855604 8.157505897170122 0 0 0
1774 1 -1.2 12.025545321222399 25.879621682792408 8.23293563902085 1 -2 1
2131 1 -1.2 18.0020627097386 26.094126854011797 6.296616096306972 0 1 0
1563 2 2.4 17.60716003023801 27.028497807435496 7.497386758459134 0 0 1
91 1 -1.2 17.422561097407346 25.685025704274754 8.862466462344536 0 -1 0
1193 1 -1.2 22.140269012906522 25.75740230442618 7.414445925785293 0 0 0
1705 2 2.4 22.59370909852485 27.417648100048748 7.919045175195846 0 0 0
1490 2 2.4 26.53735309583028 25.276397956974677 6.724809959398608 0 0 0
153 1 -1.2 24.99896684909549 25.58124438640766 5.908680508344784 -1 0 0
720 1 -1.2 27.77513045382017 26.284604799554803 6.229866133342395 1 0 0
2047 1 -1.2 0.18717753472980683 27.43931104271699 6.299566381097955 1 0 1
188 1 -1.2 6.462600459483851 29.415958084605336 6.686145825145037 1 -1 0
507 2 2.4 6.787966846000622 28.57716119143238 8.019326192838728 0 0 0
1162 1 -1.2 8.188588086715118 27.568959448127085 7.927680721707227 1 0 0
417 1 -1.2 10.268488043457038 28.14038808972263 6.147617795472459 0 0 0
1690 1 -1.2 9.455622324825363 30.08974136512555 8.080029873649092 1 0 0
1899 2 2.4 9.637177727400656 28.410322965705735 7.686216799124157 1 -1 1
635 1 -1.2 10.957317376313718 28.11035917343894 8.737670653530465 0 0 0
1567 1 -1.2 13.944724117123604 27.88076648628606 8.437397690318573 0 0 1
2061 1 -1.2 16.042945928236136 27.519947733278798 7.721112932814888 0 -1 0
271 1 -1.2 14.834781273144412 29.191716797380234 6.219560523106194 1 0 0
1292 1 -1.2 18.7769731190484 28.119740593667316 7.807243907350635 0 0 0
1863 2 2.4 19.909424601069233 29.23444818088032 7.859681431681453 0 -1 1
599 1 -1.2 21.424785143777182 28.5946240750218 7.4278816925232904 0 -1 0
2113 2 2.4 24.75317939362782 27.113838666629842 5.686595673808803 -1 0 1
382 1 -1.2 24.18874803766318 27.660191533042504 7.158022522709992 -1 0 0
190 1 -1.2 26.154969659401978 27.910281069807013 5.508354138482603 0 0 0
1 2 2.4 29.75116502119917 28.858117551958212 6.316864056192259 0 -1 0
767 1 -1.2 28.918396217313823 29.217272319077086 7.708060926537163 -1 1 0
1263 2 2.4 0.8335999355950178 1.681122841178236 9.28613010890249 1 0 0
533 1 -1.2 1.9323611473878581 0.7161641464424772 10.289690893364295 1 0 0
1352 1 -1.2 4.295657590546343 0.2614668836481651 11.033090481522214 0 0 0
121 2 2.4 7.37223178410602 2.075312132065204 11.034179532434797 1 0 0
691 1 -1.2 6.422712158810532 2.69063526948344 9.806000598939434 0 0 0
524 1 -1.2 10.412072578608994 1.878898886741904 8.569407440119308 0 0 0
30 1 -1.2 8.493700285006266 1.1329285732190437 10.257529612562353 1 -1 0
2033 1 -1.2 12.843768805851605 2.2652307978258786 9.303631848150948 0 1 1
817 2 2.4 14.282538087123045 1.7525530184773117 8.749658150567184 0 1 0
1100 1 -1.2 15.286838701006701 2.2545346750427244 10.036608121007939 0 0 1
45 1 -1.2 18.854679009458337 2.159668406785974 8.475603479139073 1 0 0
2021 1 -1.2 21.068863469443606 1.9967331265029402 10.958688574261593 0 1 1
1570 1 -1.2 30.02144276407248 0.798257149473962 8.941199922467149 0 1 1
763 1 -1.2 27.979160109010326 2.510080590423817 11.3278161156156 0 0 0
1519 1 -1.2 0.5011589685454483 2.708263523567608 10.47732171179998 1 0 0
845 1 -1.2 5.221592295250941 5.159785109872237 8.803820678999847 1 1 0
327 2 2.4 5.7086925745513435 3.566099151628722 8.762380097056965 1 1 0
1773 1 -1.2 11.049327565782226 4.141168416895573 10.09293772988881 0 1 1
792 1 -1.2 16.092450647920952 4.33094575283535 11.38465763068145 0 0 0
1952 1 -1.2 17.98146593005211 4.624445251597213 8.624121514200889 0 1 1
395 1 -1.2 18.938366709226486 3.320540772111256 10.955409297063335 0 2 0
1804 2 2.4 18.95927844789349 3.445185582534832 9.322329970855977 0 0 1
1185 1 -1.2 20.693646173258198 3.8619539987189015 9.19811152521415 0 0 0
352 2 2.4 21.957767474368527 3.034306200115261 10.044002183387251 0 1 0
247 1 -1.2 22.66247042908212 1.9619017296337915 8.955331384255286 -1 1 0
1331 1 -1.2 23.25582735688717 4.035930678690128 10.604450932080251 -1 0 0
551 1 -1.2 25.17118343668312 5.6854572402469925 10.524367316393516 -1 0 0
205 2 2.4 29.503557120749406 3.5743896889840485 10.902556421760988 0 0 0
632 1 -1.2 28.84737219489133 4.48985529488474 9.711329630027462 0 0 0
1368 1 -1.2 2.085188668126038 7.924184259951101 11.137666037800093 1 0 1
1933 2 2.4 0.25182646261004143 7.902930413314103 11.31609570926082 1 0 0
261 1 -1.2 2.8041574514923293 5.79129241689961 9.592523990451234 1 2 0
592 2 2.4 2.9084447628056815 6.561566717683568 10.97962806293201 0 1 0
1042 1 -1.2 4.549844457840838 6.797335318514411 11.323958475869786 0 1 0
1807 1 -1.2 7.255221904900875 6.629841998884755 11.668658566326046 0 0 1
278 2 2.4 8.041496334729674 7.569114605923654 10.700113483153677 1 0 0
1241 1 -1.2 7.867262408960093 8.06497767476989 9.080892750958428 0 1 1
675 2 2.4 10.600438798837274 5.753965994523091 9.898522654277288 0 0 0
728 1 -1.2 9.187431581535082 6.338466996933985 10.071050723153462 0 0 0
1830 1 -1.2 11.57176103834569 6.360714520356363 8.603697892126652 1 0 0
1575 2 2.4 12.80989839714569 7.259280432104452 9.080218793262313 0 0 1
90 1 -1.2 13.694336062426181 6.710426162538439 10.293589040475169 0 0 0
828 1 -1.2 11.301410507792957 6.1189854107967925 11.329447966454834 -1 1 0
1269 1 -1.2 16.098709917501157 6.84369727345886 9.284477616531765 0 1 0
462 1 -1.2 18.237203062506502 5.896781821186952 10.792067198144466 0 0 0
434 2 2.4 17.693066905346814 6.206472825399919 9.399890641342703 0 0 0
1183 1 -1.2 18.41751397378338 7.550963710111215 8.59806762263422 0 0 0
1825 2 2.4 20.00437218876233 7.8159401201304615 8.720143340911385 0 0 1
564 1 -1.2 20.72258777000408 7.231740429763988 10.061762293681577 0 0 0
319 1 -1.2 22.998623598547034 7.095205946137256 11.224916336318495 0 1 0
949 2 2.4 22.02148131078336 8.006553693671341 10.536926402688263 0 0 0
639 2 2.4 23.825511688215265 5.43757886418712 11.332001702202495 0 0 0
1226 2 2.4 26.215105382519972 6.963169139756687 10.631514684034425 -1 2 0
1451 1 -1.2 27.426725550229193 6.928151238721341 9.24422489197562 -1 0 0
1511 1 -1.2 25.27370178765637 8.294946632602091 10.239252230685588 0 1 0
305 1 -1.2 29.89399752290781 6.784250073482467 10.485027537779441 -1 0 -1
1612 2 2.4 28.882174843773434 6.150504629670237 9.29947152069562 0 1 1
1572 1 -1.2 30.24361766125206 9.231506678786454 10.624511853325423 -1 0 1
1545 1 -1.2 2.6718970264758686 10.631268836673602 9.156296866455751 1 1 0
1261 2 2.4 7.941995622569521 10.496425052954674 11.560174424447187 0 1 0
1279 1 -1.2 8.600751501142309 8.887650233255432 11.378868558168863 1 1 0
1514 2 2.4 12.265905592893564 10.259819214840002 9.311520968070475 -1 1 0
943 1 -1.2 10.970787264094524 10.856891826297963 9.926316479580946 -1 0 0
1978 1 -1.2 12.146335418731237 8.637698734238528 9.285403222873748 0 0 1
2079 2 2.4 14.968611735611447 10.797448856809709 10.774984094966754 0 0 0
259 1 -1.2 16.03500358657626 10.789983426161077 9.574095053460201 1 0 0
1844 1 -1.2 21.077961789744183 11.355080439413864 9.326788461536461 0 0 0
1076 1 -1.2 22.74261894445494 8.797512357961276 9.128026798977473 0 0 0
1732 2 2.4 26.40917340648513 9.167232849745941 9.199207471497315 -1 -1 1
849 1 -1.2 25.68747590536274 10.79589437294369 8.966528253131953 0 1 0
1794 1 -1.2 27.999308246686166 9.292381997833981 9.761171298054558 0 -1 1
457 2 2.4 29.442882027149874 10.219865065764887 9.704237006513992 0 0 0
1790 2 2.4 2.1974029367403984 12.16426204969157 9.544263891369457 1 0 0
761 1 -1.2 2.4717214368865594 12.501562954679263 11.068220724002929 0 0 0
1432 2 2.4 7.117594207544413 11.153050645604088 8.728965146279652 1 0 1
1714 1 -1.2 7.516967465796831 11.321054162899031 10.253842325479289 1 1 1
1027 1 -1.2 11.253346351579893 13.833853590979597 9.441037311189948 0 0 0
884 1 -1.2 13.559706120763783 10.237540450808897 10.381211772368676 0 0 0
815 1 -1.2 18.54800597943506 11.357910363415508 9.164013812859762 -1 0 0
986 2 2.4 17.103948050516028 11.971754666562287 9.412513394213939 0 0 0
1749 1 -1.2 17.323879333527035 12.998797926968532 10.70460011159 -1 0 1
1095 2 2.4 19.79417463728092 12.104102743783848 8.65249090201056 -1 0 0
1997 1 -1.2 19.56792752369875 13.674511129114842 9.030624087197937 0 0 1
1144 2 2.4 25.258505872922555 12.310741394447785 9.018875852065872 0 0 0
415 1 -1.2 25.625264379298933 12.81432457991815 10.538210713388796 0 0 0
1039 1 -1.2 26.40971601332879 13.183807659648526 8.140505739918481 -1 0 0
1009 2 2.4 30.041565902576334 12.27058300135445 8.028960958134778 -1 0 0
1964 1 -1.2 29.186340723495245 11.727519007356747 10.348706252934523 -1 1 1
1686 1 -1.2 29.617807611325663 10.645662526227722 8.179972915176124 0 1 1
2121 1 -1.2 4.819049596744509 15.84818114446448 11.196594496030267 0 1 0
1172 1 -1.2 5.703873507708225 13.51861088556356 9.841040439336908 -1 1 0
1608 1 -1.2 7.689235917339659 15.380346138022661 8.513457152774246 0 0 0
1107 2 2.4 5.577647380820911 14.308424978490565 11.210854772897564 0 0 0
1051 1 -1.2 9.457567796443284 14.115266752074294 10.94079543192293 0 0 0
649 2 2.4 11.111666468066618 13.971163545222728 11.084366458732239 0 0 0
500 1 -1.2 13.365647259590506 15.246665971161834 8.139782298469958 0 0 0
69 1 -1.2 14.714153717736218 14.237973077031937 10.292143254138084 0 0 0
517 2 2.4 14.517442888887508 15.424619892021319 9.196811841786502 -1 -1 0
577 2 2.4 20.798004431917736 14.624656814348647 9.804949407327417 -1 0 0
348 1 -1.2 20.48364267497962 16.231357424058054 10.336555755816393 0 0 0
282 1 -1.2 21.875673162519853 14.62020811879223 8.60149174540037 1 0 0
116 1 -1.2 27.763778076871574 14.424310981004355 10.366270883033467 0 -1 0
1925 1 -1.2 29.041463572237944 13.640079678040063 8.341857061231439 0 0 1
253 2 2.4 27.520725419544654 14.233702767783194 8.734581871469734 0 0 0
1327 1 -1.2 0.6912944606745948 18.039307064534984 10.770762081001667 0 -1 0
2066 2 2.4 8.02570465373265 17.766629278764984 11.481750733050877 1 0 1
306 1 -1.2 6.570602008213821 17.53781396613432 11.431721851744799 0 0 0
65 1 -1.2 8.672073176019252 17.777438844703568 9.936818886078711 1 -1 -1
1433 1 -1.2 14.472033493207192 17.066188513619895 9.825625490776615 0 0 1
1852 2 2.4 14.840128537087445 18.108023089713054 11.24873934002682 0 0 1
1271 1 -1.2 17.882717958186202 16.52760940914726 10.391492411468432 0 1 0
88 2 2.4 19.26266967545226 16.94784405105212 9.83210303815476 0 0 0
403 1 -1.2 19.535023470701482 18.558766600188804 10.132870533810044 0 0 -1
1150 1 -1.2 24.627391845494156 16.822109811275233 10.781409787458271 0 0 0
1131 2 2.4 24.994637573123356 18.140655639200403 9.954492088881482 0 0 0
1258 1 -1.2 26.61191288826439 18.396615226107688 9.779930118324666 0 0 0
1035 2 2.4 28.03533449792077 18.65419746298016 10.804229592309813 -1 0 0
518 2 2.4 0.4421296797657807 19.474568313178455 10.107352591395554 1 -1 0
895 1 -1.2 0.8605118923734141 21.090812337185483 10.977807995793963 0 -1 1
1161 1 -1.2 11.206750002691404 21.725920255651037 9.915179767494019 0 0 0
1178 2 2.4 12.705172630333028 22.021345010199116 9.346966073216908 0 0 0
1684 2 2.4 14.891889646450409 21.61318244102278 11.262632444563103 0 0 0
1980 1 -1.2 15.036288751229284 19.69296626120553 11.023465835512917 0 0 1
419 1 -1.2 13.593008420333389 22.274349661432158 10.684105167407267 0 0 -1
1645 2 2.4 20.270589128756757 19.29624925958272 11.464513899746885 0 0 1
929 1 -1.2 21.760586940622247 19.697883109161175 10.776279081445601 -1 -1 0
1663 1 -1.2 24.1984390092388 19.439842474224257 10.683014161371629 -1 0 0
1478 2 2.4 23.099129267743415 20.558206959222755 10.249919620534216 0 0 1
379 1 -1.2 29.106203624057795 19.278711918094565 9.818745516156424 -1 0 0
2086 1 -1.2 30.191209968768504 24.760113903770534 8.395804967288019 0 0 0
605 1 -1.2 5.724124860632616 22.340483784938844 9.108358918977451 0 1 0
1370 2 2.4 6.172405344609701 23.813376469086556 9.310063531097837 -1 0 0
1223 1 -1.2 7.307897305561674 24.150664688858928 10.38359057032792 1 0 0
169 2 2.4 8.189797589962781 23.661082968164173 11.69529348453453 0 0 0
166 1 -1.2 9.980155857719323 24.366255083690373 9.478421552750987 0 -1 0
386 2 2.4 9.761034730591719 22.649575949120745 9.742133658368843 -1 1 0
498 1 -1.2 9.291580552077546 22.541866254632858 11.241297855943056 1 0 0
1074 1 -1.2 15.918581455801846 22.798834728168835 10.873161404494375 0 0 0
2119 1 -1.2 18.38139515499217 23.312034148186896 10.018012931712448 0 0 1
2008 2 2.4 17.431817195504333 23.458327055812866 11.292042624125825 0 0 1
1783 1 -1.2 23.326032307219222 21.906726154897942 11.147151379812655 0 -1 0
773 1 -1.2 25.825818311129332 23.468770120954712 11.14863635356659 -1 1 0
880 2 2.4 25.71045527204664 24.776751169776844 9.957597805107191 0 -1 0
22 1 -1.2 1.4612480133371128 25.32012428868297 10.565353969613756 0 0 0
170 2 2.4 0.2843017468160113 25.96648020468818 9.44869052513554 0 0 0
1987 1 -1.2 5.022573520716505 24.99260585302312 9.47509716996294 0 1 0
310 1 -1.2 3.8067047820272335 27.10009958672509 10.022991140326951 0 0 0
1119 2 2.4 5.308805816480904 26.650965839852233 9.540708996528181 0 0 0
1536 1 -1.2 6.472662104455637 26.901383118664345 10.580124003431447 0 0 0
201 1 -1.2 12.811377713773945 27.43452392396823 10.485713869499076 0 0 -1
1455 2 2.4 12.468133116907383 27.472388915652722 8.92798633300189 0 0 1
2048 1 -1.2 16.22164196771841 27.411606054097163 11.638758206607747 0 0 1
186 1 -1.2 21.43294663291477 24.863049641481567 9.818591323513086 0 -1 0
1210 1 -1.2 24.180921163935796 25.01534665213158 9.752659313405287 1 0 0
1203 2 2.4 22.67422377459455 25.653768181960974 10.427389240137543 0 0 0
1196 1 -1.2 22.68738979470674 27.27153769194385 9.483008427654536 0 0 0
947 1 -1.2 26.832196251004316 25.763565360506835 10.558217138160012 -1 -1 1
381 1 -1.2 29.404791438416286 26.714405000502097 10.245781458734918 0 0 0
1345 2 2.4 28.202875355995893 26.568346831078696 11.360712363507034 0 -1 0
368 1 -1.2 1.7844757527182273 27.521468446381924 11.922354778364365 -1 0 0
2084 1 -1.2 6.592758730514046 29.362988140250692 9.453308487359422 0 0 1
448 2 2.4 7.066169621925272 28.472639165725088 10.674009916678356 0 -2 0
486 1 -1.2 8.555897662145673 28.557061916231646 10.953086344276832 0 -1 0
4 2 2.4 15.124821333112573 28.817335157765818 7.939793122302799 0 -1 0
143 1 -1.2 15.66415019778584 29.192179908882533 9.576407829862148 0 1 0
930 1 -1.2 19.955468469928046 29.523276549582924 9.422644816337236 1 -1 0
1996 2 2.4 19.12975663478099 29.073026163268807 10.839076372880985 0 0 1
1363 1 -1.2 25.365774794644803 29.58821147875216 11.058903523304663 0 -1 0
769 2 2.4 27.027903553523092 29.45830736930781 11.209980840577835 0 0 0
1307 1 -1.2 27.86361821213371 29.767520128759827 9.91388812627422 -1 -1 1
1875 2 2.4 1.8875442320639697 1.7808584667795526 14.2787622370497 0 0 0
1977 1 -1.2 0.8601782016980822 0.5205647515219526 14.592001963469537 1 0 0
148 2 2.4 2.7956305952930336 0.5708438370068555 11.602370752654677 1 1 0
631 1 -1.2 3.122868703072044 1.601429207874318 12.873104355057523 0 0 0
2089 2 2.4 5.431932722927466 0.04672987552098019 12.063419714169346 0 1 1
1236 1 -1.2 6.338212940163734 1.6079504814460903 12.038084379359274 0 1 0
334 1 -1.2 8.402974122097701 1.8626335332273076 13.878196005562613 1 1 0
760 2 2.4 15.827914210797735 0.6415876152315753 13.653699001611047 0 0 0
1727 1 -1.2 15.692233960945645 2.0142539529369596 12.779795420529107 0 1 0
1276 2 2.4 21.377425040987628 0.7297624458048434 12.01953689726759 1 1 0
1821 1 -1.2 20.943231659141162 1.3348290629146984 13.399900990321306 -1 0 1
984 1 -1.2 23.014923818379604 0.5018907874655518 11.761224743408194 1 0 0
1316 1 -1.2 26.692131146374095 2.283423137219012 13.378075141458828 -1 0 0
2117 1 -1.2 24.863518632666402 0.45627427913944046 13.598989829011929 0 1 0
1635 2 2.4 30.03222328573929 0.032557848979991304 13.6350855246324 0 1 0
579 2 2.4 27.78504327142009 1.5373106715201812 12.594286133822559 -1 0 0
933 1 -1.2 29.29426084475227 1.3918357771370662 13.220851719598985 0 0 0
864 1 -1.2 0.988386599340069 2.753757641171458 13.447231897096712 1 1 0
556 2 2.4 0.005283971946806731 3.9984581142014743 13.778892161963634 1 0 0
1314 1 -1.2 1.0689545230382989 5.057054878330689 14.506776101242625 0 0 0
1437 1 -1.2 2.3122832036300918 5.457310948615032 12.129078884948159 1 0 0
1364 1 -1.2 3.748759258286898 4.126437431236589 14.19446984596149 1 0 1
1014 1 -1.2 8.450937344228326 3.217591562259024 11.601211539105616 0 0 0
1717 2 2.4 5.357661143988398 4.742376265473206 14.410745852793951 1 1 0
1941 1 -1.2 6.511541934072915 3.9375073848490207 13.710291999905783 1 0 1
135 2 2.4 8.069323951467721 3.492692311650022 13.275379001917335 1 0 0
1532 1 -1.2 8.955744612698625 4.520095956515817 14.09309806711572 0 2 0
488 1 -1.2 11.661851019615963 4.557362115729996 13.58131653924836 1 0 1
2138 2 2.4 13.281667053389633 4.498697775147943 13.226010979728581 0 1 1
723 2 2.4 15.080523516393157 2.927353031400511 11.496009973790253 -1 1 0
946 1 -1.2 13.700077896253502 3.5338482695920628 12.143378150086168 0 1 0
1624 2 2.4 17.701066004681383 4.493834635987296 11.439600466916238 0 0 1
355 1 -1.2 18.18355795638446 4.662678339758572 13.008908867021164 0 1 -1
591 2 2.4 19.165839930738915 4.985226464923792 14.243663635158775 0 1 0
1841 1 -1.2 20.67032131875629 4.10664834123423 14.077530518923991 0 0 0
1462 1 -1.2 24.04890806762066 5.055753935072766 12.977958055895382 0 1 0
1751 1 -1.2 29.81788538060695 4.519354898348783 12.237360703651603 -1 0 0
780 1 -1.2 3.0295105087128658 6.765995388755161 14.26909390826571 2 1 0
3 2 2.4 2.5156247382594916 5.385654082397875 13.71136318853164 0 0 0
892 2 2.4 5.829136210147448 6.979560328639906 12.475803117646729 0 1 0
2022 1 -1.2 6.035344284191468 6.077977539826897 13.820703870083243 0 0 1
28 2 2.4 12.853882596825095 6.455058155606179 11.526040665083613 0 0 0
33 1 -1.2 13.833815750288597 5.859037156777133 12.582826130578745 0 0 0
1164 1 -1.2 19.75488799857808 6.5278162241546385 13.967180547884967 -1 0 -1
19 1 -1.2 26.77203222167892 7.22119433675209 12.187128242301503 0 0 -1
717 1 -1.2 25.05411098987419 6.948581142881528 14.595490534625974 0 1 0
550 1 -1.2 0.14077785086666464 7.902364815965759 12.819111956228502 1 0 0
699 2 2.4 29.647149840261907 7.618052772810052 14.195286862699069 -1 1 0
1301 1 -1.2 5.748364175687831 8.704493375643896 12.592363053740243 0 -1 1
1538 2 2.4 5.484790034409654 10.26942667949916 13.009734166246849 0 0 0
2146 1 -1.2 6.856450213942957 10.929827097714497 12.705125466208996 1 0 0
159 2 2.4 10.720892318964195 11.223745657258778 11.675401185426148 0 0 0
1127 1 -1.2 12.87996659048748 8.051323845617489 12.242042560189265 0 0 0
808 2 2.4 12.306455398089527 9.046618574100192 13.322819421452337 0 0 0
1313 1 -1.2 11.529100805285898 10.492120032549956 12.942580719437242 0 -1 0
1836 1 -1.2 13.393483074049573 9.69003120935454 14.432255188157546 0 0 0
71 1 -1.2 15.732901625080677 9.494873299035742 11.650159963514094 0 0 -1
1393 2 2.4 16.370985837268933 9.191271803510778 13.111936194465578 0 0 1
527 1 -1.2 17.852055526270505 8.573788103989358 13.018070121469856 0 0 -1
1699 1 -1.2 20.66217509975824 8.72702332124603 13.315894706350646 0 1 0
376 2 2.4 19.16278319596294 8.138824035843257 13.851196890708694 0 1 0
67 1 -1.2 21.90998286456109 9.519465824507344 11.245004572907218 0 0 0
2044 2 2.4 21.916766320388042 9.551014549037905 12.78925237555736 0 1 1
1793 1 -1.2 23.488553529375945 8.801209260625383 13.378556164126095 1 0 0
1835 1 -1.2 26.16726732354557 9.312966912966893 13.815713472831 0 0 0
62 2 2.4 27.623048980507964 10.000477873052203 14.146028280583492 0 -1 -1
911 1 -1.2 28.89487494044191 8.98485070617247 14.59775793495468 -1 0 0
1442 2 2.4 0.8348961770085261 12.852895725018467 13.634120984697468 0 0 0
1293 1 -1.2 30.25224602650393 12.148593139584689 12.50960543477026 0 0 0
1412 1 -1.2 2.3805901521350177 12.035105253831274 13.656626915202079 1 0 0
1167 2 2.4 3.5868044304849827 12.103826725535741 12.25151879506799 0 1 0
851 1 -1.2 4.39358536126377 10.719401098238523 11.91284666632995 0 1 0
816 1 -1.2 9.209712942522211 11.119970035345704 12.229360441451533 0 0 0
887 1 -1.2 11.553139641012086 12.723507414542425 12.03272136146714 -1 -1 0
1995 2 2.4 15.866699933455655 13.65522562745208 11.403500996977101 0 0 0
479 1 -1.2 15.123480920701676 12.126520285055323 11.715576679466725 0 0 0
1829 1 -1.2 22.03269661888957 11.089894294223031 13.213758493994625 0 -1 0
2016 1 -1.2 19.747569839170314 12.154547628566622 14.300747644719577 0 0 0
1523 1 -1.2 22.285928473190722 13.41841420741892 13.643662343851998 0 0 0
942 1 -1.2 28.157205224691676 10.372221282179256 12.659703661939181 -1 0 1
1489 2 2.4 28.80655434591665 11.754789223318886 11.904477269867296 0 0 0
460 2 2.4 1.4484989762079246 15.8866782675971 14.09948876158288 0 -1 0
1342 1 -1.2 0.8709158024348058 14.472562802578134 13.70317598133392 1 0 0
1053 1 -1.2 4.72620063938777 13.24891911511808 12.277636692594626 0 0 0
263 1 -1.2 2.9837740883173995 15.715625001875274 14.320411190365204 0 0 0
729 1 -1.2 6.930039986979284 14.416785556167412 12.162948245385456 0 1 1
865 2 2.4 8.55009744863559 14.75168339393919 12.150214846432505 0 -1 0
1638 1 -1.2 9.059926715169198 14.851619971698215 13.679715300927237 0 0 1
222 1 -1.2 11.937730456896633 15.297700402841338 11.318340092390098 0 0 0
461 1 -1.2 13.918289184967616 15.6399374145452 13.276008933040096 -1 -1 0
1481 1 -1.2 16.645487626819616 14.832812094279705 12.487176966145848 0 0 1
687 2 2.4 17.222080938469233 16.322910563099484 11.937024074176083 0 0 0
499 1 -1.2 20.961647687840117 15.489737873529046 13.124159783376973 -1 -1 0
450 1 -1.2 21.29435971357895 13.57664825754004 11.116533855119759 -1 -1 0
1346 2 2.4 22.050702036932726 14.366946928548261 12.433671001615691 0 0 0
321 1 -1.2 23.293833418995696 15.026513633732327 11.765909607404076 0 0 0
829 2 2.4 24.65831313492055 15.862218638757595 12.13202821246001 -1 0 0
2091 2 2.4 26.688669532462203 13.666547926154916 11.277262546892084 -1 1 0
2036 1 -1.2 25.87389233342441 14.956104702742493 11.900812753993936 -1 0 1
2158 1 -1.2 27.616903057604954 12.80971482339886 12.342564314188975 -1 1 0
1533 1 -1.2 0.7984442223663597 17.02082222747957 13.276139477686362 0 0 0
1731 2 2.4 30.20987688130641 17.996266134839424 12.412680793209843 -1 0 0
978 1 -1.2 4.3390065064624 18.505975856568842 12.29878996338042 0 -1 0
565 2 2.4 5.235577036213968 17.135393015877927 12.163735472769373 1 0 0
535 1 -1.2 5.371841221213271 16.163440146764373 13.521103219017068 1 0 0
1124 1 -1.2 8.733099970178612 16.36174795610993 12.092509859254395 0 1 0
340 2 2.4 9.482411200595754 16.412752598984596 14.065266109808116 1 1 0
1691 1 -1.2 8.560864448438238 17.80041460920014 14.219288666546502 0 1 0
1664 1 -1.2 8.535353999504105 19.098111438209916 12.208039289899018 -1 0 0
915 2 2.4 12.517647475691847 16.31754577823894 12.508739714082987 0 0 0
690 1 -1.2 11.045009976225852 16.663802382828074 13.359096170245925 0 0 0
1589 1 -1.2 13.340424951698711 17.62665894846179 12.120664704993427 -1 0 0
1413 1 -1.2 16.05797279265283 17.428742187138656 12.277004568872563 0 0 0
1721 1 -1.2 18.45078196819837 16.67855584738933 13.102288599373352 1 1 0
710 2 2.4 19.976189799857654 16.879935016759188 13.42751916704442 0 0 -1
103 1 -1.2 20.474643152339556 18.415461508253973 12.864842691464995 0 0 -1
548 1 -1.2 24.772658203287286 16.49292113842997 13.686410054211299 0 0 0
283 1 -1.2 28.74063836151681 17.486421541885594 11.972847857781225 0 0 -1
489 1 -1.2 0.06021366812238182 19.49550774351034 12.962024655331643 1 0 0
388 2 2.4 1.0064158029752848 20.867776082475423 12.51818303296406 0 1 0
1678 1 -1.2 2.6442147133923224 20.675807825196614 13.076300572784753 0 0 0
733 2 2.4 4.069471364735603 19.902075197660412 13.134058679893307 0 0 0
883 1 -1.2 5.19148958415734 21.04506543476901 12.898821593500024 0 -1 0
107 1 -1.2 8.34683557246257 20.60199376814896 14.381927182038936 -1 0 -1
1093 2 2.4 8.978865771367179 19.319478317986995 13.738738270908733 0 1 0
969 1 -1.2 10.481385698767992 19.829758974100525 13.830461196823524 0 -1 0
595 1 -1.2 12.511389333373929 21.406590030469868 13.622243670476735 0 -1 0
608 1 -1.2 14.855330043307735 21.247629163922266 12.833788939704066 -1 0 1
1932 1 -1.2 17.871306353124833 20.419187787065457 13.992833854945957 1 -1 1
436 2 2.4 19.075544031492043 21.304209154952986 13.034899001905124 -1 -1 0
2141 1 -1.2 19.417645147338003 20.61677714901512 11.613123955083799 -1 0 0
433 2 2.4 26.276564286193558 20.224452420132348 13.113651008723325 0 -1 0
162 1 -1.2 27.16455798474222 19.548752225884005 11.946858156271322 -1 -1 0
1483 1 -1.2 25.17409261690722 21.51401825969776 12.936102992724862 -1 0 0
272 1 -1.2 25.746223997939428 18.82966726082723 13.972248110244418 -1 0 -1
1375 1 -1.2 27.59182338064253 20.62864556951516 14.157507242544805 -1 -1 0
1895 1 -1.2 0.5016668795505375 22.14577505178471 13.216189656603586 0 1 1
1240 2 2.4 0.9430760432790486 23.3756295662912 14.345510067962822 0 0 0
1954 1 -1.2 4.515201421426499 23.466824106846648 12.959534932060764 0 -1 1
544 2 2.4 3.812467071876206 24.82775639477342 13.737650281863194 1 -1 0
1756 2 2.4 5.87035691601232 22.41110785092474 13.376263966336875 0 0 1
298 1 -1.2 7.155301009782819 22.860714449463394 12.62794095775165 0 0 0
1761 1 -1.2 8.796023936262769 24.921947008827264 12.55587523637065 0 -1 1
1216 2 2.4 13.901502073553868 22.18252948641921 13.796751913127245 0 -1 0
1067 1 -1.2 13.885883364099692 23.763842870825666 13.321953984783917 0 -1 0
2072 1 -1.2 17.42446413989122 25.022283059740474 11.545190635219578 0 0 1
1596 1 -1.2 17.92180201279195 22.687976588540277 12.6873409340832 -1 0 0
1031 1 -1.2 20.12668909266315 22.12032315194824 13.847730589013281 0 0 0
1486 1 -1.2 21.864363058839587 24.476612144069513 14.188983651360694 0 0 0
2083 1 -1.2 23.98752104661362 24.004401778064064 12.813057664409465 0 0 1
435 2 2.4 24.574377208437113 22.731446232233502 12.019702083004542 -1 0 0
331 1 -1.2 30.008664159743393 24.49028670368791 14.471803400869689 0 1 0
904 2 2.4 28.44254962140878 24.574999702995157 13.902672726739318 0 0 0
771 2 2.4 2.8400234467729066 26.358127408898266 11.174890857895384 1 0 0
607 1 -1.2 3.6638130722045985 25.81188270579466 12.407995673347324 0 -1 0
1881 1 -1.2 6.648615452631441 25.612343188150984 14.55285072802436 0 0 1
1417 2 2.4 8.134738207584808 25.740690162882892 13.926850906093478 1 -1 0
1163 1 -1.2 8.480869835435595 27.343711911398294 13.5970033773237 -1 -1 0
400 2 2.4 12.919553060010504 25.000158600440397 13.711054005633663 0 0 0
1927 1 -1.2 12.341250893493577 25.68726347189088 12.339803070107862 0 -1 0
555 2 2.4 12.339349827534905 27.31042327309791 12.07374944693746 0 0 0
1675 1 -1.2 13.850198513562129 25.96173296856838 14.6647262571729 0 0 1
1530 1 -1.2 18.8976564551702 27.31509175639027 11.209610590790566 -1 0 0
111 2 2.4 17.675672392420747 26.61574457736761 11.822862760468636 0 0 0
234 1 -1.2 18.172623734004006 26.891027522908917 13.367817383077947 -1 0 0
443 1 -1.2 22.247020237815452 25.966816376262035 11.995243374726906 -1 -1 0
1312 2 2.4 22.922407928515252 25.200522470040347 13.21473029055878 0 -1 0
1332 1 -1.2 23.196141933775667 26.59767298620918 14.014046836665104 -1 -1 0
1689 1 -1.2 28.234712789495337 25.61715027658949 12.577024949536755 -1 1 0
102 1 -1.2 27.83389369769469 25.059112306914017 15.298198774634487 0 -1 0
700 2 2.4 1.5949842263084228 28.73112786968476 13.044612276814052 1 0 0
2010 1 -1.2 0.9688903087758511 27.930106576906923 14.35998408076721 1 0 0
909 1 -1.2 2.7114539449643034 29.6947171947135 12.495898050706755 0 -1 0
1221 1 -1.2 5.214787044339953 0.19946305097412012 13.751123508920422 1 0 0
655 1 -1.2 6.043302294796563 29.20466597365551 11.649770074369597 0 -1 0
300 1 -1.2 9.61374289957305 29.902143834476757 13.02150545567335 0 -1 0
1480 2 2.4 9.411342627010693 28.366701571612364 12.47235589604889 1 -1 1
801 1 -1.2 10.664791572516325 27.50907905303375 12.186281096829326 0 0 0
2110 1 -1.2 13.188889389845402 28.099951439234317 13.215915884779026 0 1 1
2065 2 2.4 13.85854281600972 27.765309017073204 14.706169409837509 0 0 1
2095 1 -1.2 15.583655701212304 30.04456494172492 12.34378811155138 0 0 0
1792 2 2.4 16.076551565067614 28.985474565491725 11.134510247886318 0 -1 1
1893 1 -1.2 17.531774105629143 29.681612642451043 10.902442854446146 0 -1 1
418 1 -1.2 20.343023096759804 29.930158449463303 11.809095940205994 0 0 0
1340 1 -1.2 20.22081166169477 27.97222049257068 14.708322739833724 0 -1 1
1780 2 2.4 24.474190859644267 30.146534305234233 12.264795365070842 0 -1 0
1823 1 -1.2 23.75537493025526 28.820737247712888 13.021364129843473 0 -1 0
1351 1 -1.2 27.30485111610955 0.052155536023542524 12.319763709314206 -1 0 0
173 1 -1.2 0.2156645541311947 29.50133217196123 12.392230173517591 0 1 0
585 1 -1.2 27.86053047803214 28.21278656291626 11.474652785856922 -1 -1 0
1619 1 -1.2 1.8440348987406618 0.7373733427076227 17.19500616346627 0 1 0
901 2 2.4 2.39687768736099 2.3287458787770428 17.034435105933856 1 0 0
671 1 -1.2 2.4579369948880028 2.7031210292395107 15.42899018238046 0 0 -1
1501 2 2.4 9.011456470088405 0.42254374210314893 14.152014085329101 1 0 0
584 1 -1.2 10.231373080446216 0.4280433008524901 15.239944931353067 0 0 0
940 2 2.4 10.95613160509892 1.626792243110193 16.152457534961645 0 0 0
1041 1 -1.2 12.444072154992968 1.3452086798007543 15.777449548423206 0 0 0
1347 2 2.4 14.085707200780178 1.3125527074870054 16.326321472312813 0 0 0
330 1 -1.2 14.648172058376476 0.6033502124006292 14.926993366677236 0 0 0
1290 1 -1.2 17.348096189938314 0.29851406794285934 14.217104081503491 0 0 0
511 1 -1.2 17.673979051397673 0.9126993344051502 16.684297312359554 0 0 0
469 2 2.4 18.687138696069407 0.6324221228653537 15.348425325957479 0 0 0
606 1 -1.2 19.249985328374017 2.3113587649053398 15.142717961952867 0 0 0
569 1 -1.2 24.608363262344604 2.358786273832392 15.481761395256731 0 0 0
398 2 2.4 25.744047895723803 1.4141418314349816 14.472504162957314 -1 2 0
850 1 -1.2 26.612422985745784 0.6046923528785267 15.50970328471789 0 1 0
1550 2 2.4 27.640680471310088 0.6945526060119659 16.989847375915474 0 0 0
1007 1 -1.2 29.246499316924826 0.7677318586558137 16.98065474633392 1 1 0
740 1 -1.2 5.884288214029502 4.5000887079925915 15.923330258354271 0 0 -1
709 2 2.4 10.403244365884456 4.5149123578756125 14.861514563117677 1 0 0
774 1 -1.2 10.602702159450537 3.08482785228 15.91952307919719 1 0 0
467 1 -1.2 13.782416246880386 5.056296310488247 17.13945973974374 0 0 -1
1603 1 -1.2 14.940752619161419 2.6131251693811355 16.5461235759028 0 1 0
490 1 -1.2 14.084128668125405 4.63135265511095 14.579375073008897 0 0 0
1669 2 2.4 14.759998175045574 4.216944089869685 16.09098552091592 0 0 0
1582 1 -1.2 16.27286318445959 5.336721661137289 16.151782430081628 0 1 0
941 1 -1.2 18.963317868897697 4.936652574238152 15.8945023737194 0 0 0
2114 2 2.4 20.89016289232769 2.579199056918602 14.592859373320296 0 1 0
1423 1 -1.2 22.08935957536516 2.766375944468205 15.704537859150971 0 0 0
1000 2 2.4 23.557169095085907 3.3697564415261456 16.244467447789376 0 0 0
2130 1 -1.2 24.042479495801494 4.783533080885437 15.603247203327477 0 1 1
2144 1 -1.2 26.416285522800365 5.031907102586168 15.139687623283082 0 1 0
1508 1 -1.2 29.1826590580584 4.078897956923045 14.954086605344225 -1 0 1
2017 2 2.4 2.1708601804302314 7.93012290070865 15.320460584308773 0 1 0
6 1 -1.2 2.539227252784527 7.403339991021576 16.864528925245754 -1 0 -1
2108 1 -1.2 0.6409266192554096 7.891468892026479 15.074588846696395 0 1 1
482 2 2.4 5.9331823725005 5.417804328373028 17.232141984279043 0 0 0
1353 1 -1.2 6.825250694560808 6.695312081123978 16.74634025010102 0 0 0
130 1 -1.2 10.786255409399843 8.468611350779653 16.72528718451355 0 0 0
619 1 -1.2 11.302589653774756 8.010452280411164 14.186718750845865 1 0 0
167 1 -1.2 10.524820175653218 5.810699157976663 15.783707030168369 -1 0 0
2103 2 2.4 11.418831633248733 7.245157722948825 15.694448026820119 0 0 0
2098 1 -1.2 13.004032816248248 7.06127119960931 16.23429471476045 -1 1 0
1071 2 2.4 17.581620765843088 5.601954119855146 16.791202166674186 0 0 0
1474 1 -1.2 17.82613107237162 7.354951212060184 16.733531006618815 -1 0 0
1441 2 2.4 19.377313084015313 8.165490968869863 16.87737292588998 0 0 0
277 2 2.4 24.953370475196724 5.232785154699553 14.337875104365395 0 1 0
1003 1 -1.2 28.583978411906738 6.313730267547322 14.239864616792447 1 0 0
447 2 2.4 27.971692909875124 5.124311988858625 15.379175621789487 -1 0 0
1099 1 -1.2 28.004493306830263 5.5559052549735375 17.081901174216117 -1 0 0
2015 1 -1.2 5.383378842968249 10.609320218170359 14.600469386122699 1 1 0
224 1 -1.2 3.011416720317715 9.18826668750488 14.61894103396606 -1 0 -1
961 2 2.4 4.366108533694234 9.647301285301 15.503899637048542 0 -1 0
473 1 -1.2 4.247391141580789 10.224174297058443 17.02693233222366 1 0 0
1106 2 2.4 6.553649391147598 8.26304595310712 16.576918156199497 0 0 -1
1554 1 -1.2 5.39302933457217 8.461318732079246 15.566413413673319 1 0 0
236 1 -1.2 7.937376169998224 9.092635607074003 16.619656354446242 0 0 0
86 2 2.4 9.46556073280468 9.328227733509012 17.295707166926103 0 0 0
408 1 -1.2 15.716623283876 8.272098024724961 14.44074695509375 0 1 0
281 1 -1.2 16.01471509472927 10.520540639514474 13.939839802377591 1 0 0
1515 2 2.4 14.954366225121149 9.794106230726415 14.888788354165776 -1 0 0
1434 1 -1.2 15.0433212155965 10.022936146539283 16.493566109254747 0 0 1
1341 1 -1.2 19.201833573265763 8.64299036647692 15.230857314550143 0 0 0
196 2 2.4 24.62959475138061 8.483729091834974 14.4009562156754 0 0 -1
1775 1 -1.2 24.321210441917838 9.259751020117257 15.815174780352333 0 0 0
288 1 -1.2 27.36468073360224 11.192062375134094 15.585524173359234 0 0 0
520 2 2.4 28.35171713771969 11.235995241397745 16.926272640684143 -1 0 0
1285 2 2.4 0.5634484463966226 12.043940588423947 16.61363378989938 1 0 0
1781 1 -1.2 0.12338281851593708 12.753389329585012 15.23870502498979 1 0 0
1716 1 -1.2 2.072178164767932 11.744255402704294 16.288561230968163 1 1 0
5 1 -1.2 30.05501735025502 10.803356861131167 17.20848924569009 -1 -1 -1
1052 1 -1.2 4.228294837740223 12.80857174108157 17.202752559092698 1 0 0
770 2 2.4 3.282118964796527 11.518696344974487 17.499977213688 0 0 0
2059 1 -1.2 15.605019813897682 12.620937584103595 16.449879359294158 0 0 0
218 2 2.4 21.499577064461768 12.102143087535225 14.363286895725762 -1 0 0
1602 1 -1.2 19.027246763176326 12.26756804443385 17.147229995889386 0 0 1
51 2 2.4 18.978662977109952 13.052802475754195 15.527134552538012 0 0 0
154 1 -1.2 22.05859603931014 11.977853010814627 15.804318733504802 -1 0 -1
1102 1 -1.2 2.4728107692134333 16.32844952981486 17.867272503330945 0 -1 0
1733 1 -1.2 4.80493335928899 14.764329614339841 15.944566792201025 0 0 0
483 2 2.4 5.201816355158368 14.068906948717874 17.336244691100614 0 0 0
1917 1 -1.2 8.686626228233614 14.442626970180374 17.289362166911477 0 0 0
614 2 2.4 9.488728241367594 15.941602880052853 17.071572474271417 0 0 0
756 1 -1.2 12.82275909831358 15.459550777350673 15.545999035753539 0 1 0
1334 2 2.4 16.408029060946106 13.9762032849517 16.01152921641697 0 0 0
1209 1 -1.2 15.380856306427923 14.754210506089718 14.99031504756972 0 1 0
458 2 2.4 14.202689955780853 15.800928525069668 14.837005289835771 0 -1 0
648 1 -1.2 17.46531998012246 13.445270072901412 14.96493948542818 0 -1 0
1188 1 -1.2 19.990126557179025 14.289804447437948 16.085810166400282 0 0 0
1840 2 2.4 20.275173364618198 15.81155133558509 16.353425884215433 0 -1 0
1217 1 -1.2 22.303437389829 15.841818213201456 16.323469979257627 0 0 0
1529 1 -1.2 1.172134612220095 16.235254078357336 15.745360460910405 0 0 1
1670 2 2.4 1.5801110446985775 17.260927387939688 16.919906124221246 0 0 0
2013 1 -1.2 2.4969349308130186 18.510345143450962 16.427262538235354 1 0 1
350 2 2.4 4.462545247338892 15.862763790717818 14.869481338935183 1 0 0
521 1 -1.2 4.621531815791911 17.118098186293274 15.784786473002807 0 -1 0
758 2 2.4 4.146562325829745 18.657025145063905 16.07590761194173 1 0 0
571 1 -1.2 9.741232435320997 16.31106144188529 15.634975203227949 1 0 0
1962 1 -1.2 12.362881505414396 17.719529187918873 16.791742801758343 0 0 0
1324 2 2.4 13.81544538480888 18.491342870824912 16.087469491649202 0 -1 0
1470 1 -1.2 14.543802138848715 17.460083552364825 15.144838698632269 0 0 1
378 1 -1.2 17.353871250357304 19.22767413176919 16.29228112767034 0 0 -2
814 1 -1.2 20.17086050849562 16.762507887437536 15.063234014604511 0 0 0
1296 1 -1.2 21.960461127994748 18.528320602396935 17.024846057312494 0 0 0
1548 1 -1.2 24.272017246825826 17.66052777646365 16.002392933990848 0 -1 0
472 2 2.4 22.980816921701464 17.187369503422733 16.948365312924544 0 -1 -1
1629 1 -1.2 26.471447042363224 16.479542282748046 15.74342769394431 0 0 1
109 2 2.4 25.350714006308596 17.428985959328145 14.89229113720633 0 0 0
1286 2 2.4 27.332150124252653 16.692692545206107 17.128778607539015 0 0 0
1064 1 -1.2 28.42352982663618 17.877125380129538 16.74317236059046 0 0 0
654 1 -1.2 4.133214653569524 19.638141195329947 14.80295180845238 0 0 0
1080 1 -1.2 4.581042527864823 19.577160091555918 17.339827711538085 1 -1 0
888 1 -1.2 7.106718838301722 20.71961498009917 16.948198920787622 -1 -1 0
1876 2 2.4 7.541727350903456 21.47903098719918 15.502498955532637 0 0 1
1467 2 2.4 10.489030411422338 20.740559675034234 17.337290235783666 0 -1 0
252 1 -1.2 10.813250253071496 21.399596075359536 15.780390516626538 1 0 0
1242 1 -1.2 13.157514435167231 19.772662289121268 15.200660380468204 0 0 0
580 2 2.4 11.80139775708728 20.593583723018504 14.717390026821917 0 0 0
646 1 -1.2 14.810351105780581 18.894790670761612 17.31740222913041 0 1 -1
590 2 2.4 17.70904583864102 20.728434803080457 15.522513322112081 -1 0 0
1764 1 -1.2 16.47854650390215 21.685227001369835 16.04419107658398 0 0 0
1278 1 -1.2 19.004474761147137 21.393897998440302 16.16582593518986 0 0 0
1642 1 -1.2 21.46941604107456 20.845136018266846 15.64116588014111 0 0 0
1994 2 2.4 20.286201618670354 21.98212299455645 15.598182749494192 0 0 1
337 2 2.4 22.169406373691594 20.15498197671007 16.906519315864603 0 0 0
1148 1 -1.2 23.661122872022997 20.88093515555733 16.705247342152465 0 0 0
1389 1 -1.2 26.087150137261403 22.06862074122962 16.116970369584454 0 1 0
523 1 -1.2 30.26348967321953 20.323857548404686 16.7812026957904 -1 0 0
506 2 2.4 30.100893172998667 21.952580687840182 16.739991049276878 -1 -1 0
1037 1 -1.2 2.4037049184340815 24.063027398363076 14.17354510286441 0 0 1
1101 1 -1.2 0.899808620630221 22.833645825423652 15.981908592756794 0 0 0
576 1 -1.2 6.2093536810963 22.155914369135285 14.860121590076773 1 -1 -1
824 1 -1.2 8.46388886201006 22.76698092486247 15.962916179882143 0 1 0
665 1 -1.2 10.3081313183791 24.164824100891273 17.05431324750333 0 -2 0
156 1 -1.2 9.05095689485299 25.33948198603734 15.287183330149007 0 -1 0
1610 2 2.4 10.591162926552453 25.141848131259167 15.790049849166321 0 -1 0
998 2 2.4 8.987519284428672 23.203168825669874 17.42908446608347 1 -1 0
2118 1 -1.2 11.473487170170007 24.666619486971314 14.577822373646041 0 0 0
24 1 -1.2 14.052445843844675 22.119826734140183 15.456099831642357 0 0 -1
2115 2 2.4 15.167744132349485 22.348984930008523 16.607630383929816 0 0 0
906 1 -1.2 20.30796609506086 23.421125889644877 16.099822438395908 0 -1 -1
1695 2 2.4 20.900219530720555 24.9384503597893 15.45544260658312 0 0 0
999 2 2.4 24.720908350556105 22.05891562241446 17.02667616806855 0 0 0
1173 1 -1.2 24.068340046499458 23.541316859102526 16.794107050610915 0 -1 0
1366 1 -1.2 27.38699707357947 23.081048106198917 13.815309962940544 0 -1 0
1130 2 2.4 27.393192112950416 21.903567478990652 15.082011281234372 -1 0 0
1662 1 -1.2 28.64013776171938 21.920760860632626 16.106633225847027 -1 0 0
402 1 -1.2 4.4341686523997135 25.516991041922473 15.091724194699001 1 0 0
158 2 2.4 5.621398437805408 26.630791359870244 15.352728822996122 0 0 0
357 1 -1.2 6.1783914544167144 26.832399854554545 16.827595649510737 1 0 0
647 1 -1.2 11.201987649722973 26.663155827560324 16.42306760577072 1 0 0
1299 2 2.4 12.505142749346755 27.245485272892818 17.092180825621128 0 0 0
1989 1 -1.2 13.398791579473862 25.846094763691994 17.06487568091505 0 0 1
1505 1 -1.2 15.938993670979189 26.477663845912204 16.819067342717336 0 -1 0
363 2 2.4 18.84490214471658 26.98257482537021 14.820099404361196 0 0 0
918 1 -1.2 19.449013922011524 25.57737904294045 15.308862217540351 1 0 0
1542 1 -1.2 22.00556065849578 25.087499290195755 16.631670972914993 -1 0 1
1701 1 -1.2 24.492757282543668 26.21348288708441 16.442710974879677 0 0 0
84 1 -1.2 26.852032165993663 27.17197426341474 16.577248943177278 -1 -1 0
890 2 2.4 25.317835852456586 27.629030169262638 16.714246407098283 0 -1 0
2020 2 2.4 28.144752789346796 26.288455741000938 16.303531243281824 -1 0 1
168 1 -1.2 29.40731299678022 26.98534547691328 15.482359652065485 -1 -1 -1
477 1 -1.2 0.42148376364062945 29.092339015233478 16.618978806058642 1 -1 0
264 1 -1.2 5.19125075370536 30.26250435276335 16.463781586360295 0 0 -1
960 1 -1.2 5.389066995395008 28.17027705493115 14.653086915948691 0 -1 0
531 2 2.4 5.901236421262307 29.64349420916532 14.97916779475231 1 -1 0
1414 1 -1.2 7.590992308109837 29.85763377101298 14.67904351549369 1 -1 0
1320 1 -1.2 13.200217935268904 28.231450382726223 15.967809895734415 0 -1 0
988 2 2.4 16.47344967336436 27.92249580868481 16.23030699119367 1 -1 0
1109 1 -1.2 15.406348852853586 28.257614950365568 14.763279493792982 0 0 0
837 1 -1.2 16.53455144402507 28.991506503037325 17.490442069756167 0 0 0
1416 1 -1.2 18.09450419564174 27.585842934953494 16.100851061055927 0 -1 0
1159 1 -1.2 20.028373591403962 30.158521788009704 15.684203372815574 -1 -1 0
841 2 2.4 20.9811647182692 28.752127179599263 15.915301537711695 0 0 0
2082 1 -1.2 20.83165572159582 28.11476696497411 17.440138132296166 1 0 1
784 2 2.4 23.56012954929788 28.095240404081185 14.560195384420448 0 0 0
1796 1 -1.2 22.41795611377351 29.015285229172278 15.40394269015241 0 -1 1
1820 1 -1.2 24.90922202041417 28.664912330764864 15.481727074619199 -1 -1 1
53 1 -1.2 27.244524986014678 29.874716636396947 17.64017684396258 0 -1 -1
1090 1 -1.2 29.107217845580525 29.36385999468717 14.455342099286915 -2 0 0
64 2 2.4 30.1584214621268 28.30634357302531 15.324034079315206 0 -1 0
1371 2 2.4 0.3980184341182313 0.03424513352070249 17.382741137881126 0 1 0
1179 2 2.4 4.202087888517889 1.831925726457919 19.18853666290367 0 0 0
185 1 -1.2 2.9447750886032322 1.0268232604140348 19.88305813907807 1 0 0
2039 1 -1.2 3.9669302712720453 2.5092076921167243 17.67173981167152 0 1 0
1001 1 -1.2 5.186976717653197 0.6984846622767539 18.715930726214847 0 0 0
1868 1 -1.2 7.875006995794504 2.5124374134388328 18.834327514327885 1 0 1
1025 1 -1.2 7.732731618627526 0.13327027829259708 17.58915970971531 0 1 0
762 1 -1.2 10.144124830100036 1.3230193228499219 17.55116974680638 1 1 0
686 2 2.4 8.804044502470559 1.2067129517632824 18.462664870815814 0 1 -1
788 1 -1.2 8.949953752934077 0.3609010817653806 19.806190730845017 1 0 0
293 1 -1.2 12.489097077081853 1.8165651674063712 20.049706292626638 0 0 0
566 2 2.4 13.442027944359044 0.701122075570387 19.454332418875808 0 0 0
119 1 -1.2 13.999986914308291 0.6496981248411763 17.88320192011306 0 0 -1
23 1 -1.2 17.23119452088709 2.5268098817418707 20.376135731692187 0 0 0
1791 2 2.4 26.4235362850642 1.627431391029162 19.25953745692252 0 0 0
1556 1 -1.2 25.461858935273433 0.140423946085423 19.039084858617198 -1 0 0
836 1 -1.2 25.418150545308762 2.8816436410653505 19.67818680091959 0 1 0
1030 1 -1.2 27.04717448403897 2.0280484797457787 17.787970761544145 -1 1 0
1472 1 -1.2 1.545191350140322 3.1680389898509884 18.16877000776048 0 0 0
2019 2 2.4 1.2923998187110228 4.263427660417117 19.178220783434742 0 1 1
1544 1 -1.2 30.05649732101331 4.263708336318848 19.625203164313678 -1 1 0
597 1 -1.2 1.8931584167644513 5.586715606259458 18.58951299499353 0 0 -1
1026 1 -1.2 4.8444559138824035 3.132605099581449 19.88962464860511 0 0 0
203 1 -1.2 6.439634578354185 4.6219930680398 18.42573027680815 1 -1 0
1142 2 2.4 7.7847243779279385 4.025883967172287 19.226913897409656 1 0 0
1013 1 -1.2 8.434592326219539 4.783265016353047 20.87917041121661 0 0 0
451 1 -1.2 9.163643832518733 5.004746893309644 18.612776205426254 0 -1 0
1310 2 2.4 9.814211891516203 4.917699710561386 20.22619086545308 0 0 0
572 1 -1.2 16.100280986260763 5.483580706162652 20.338269447493875 1 0 0
2037 1 -1.2 17.913771420083588 5.408540830353866 18.31447715730992 -1 1 1
620 1 -1.2 18.61067347076435 4.66435380245237 20.659554050949133 0 0 0
858 1 -1.2 21.553108376613423 3.4309907542465385 20.090347259229077 0 1 0
1974 1 -1.2 23.434492980269976 3.3854352987190275 17.837645676072203 0 0 1
268 2 2.4 22.536583139767174 4.051302760627201 18.961085536654263 0 1 0
669 1 -1.2 23.67300452057948 4.6379908654427755 20.014300780492118 0 0 0
1564 2 2.4 25.243820560027388 4.508850143177822 19.770683008410398 0 0 0
1004 1 -1.2 26.086368340182943 4.99259036470252 18.498203763871288 0 0 0
2026 1 -1.2 4.324386391994386 5.5855289117036815 17.40923174290958 0 0 0
529 2 2.4 3.1453307335828935 6.445136429228486 18.01309260512652 1 0 0
1207 1 -1.2 4.017953429553652 7.344605130352206 19.092696602715833 0 1 -1
1970 2 2.4 5.141554964394272 8.512992388344855 19.50899949773946 0 0 0
621 1 -1.2 5.7951023557743016 7.219991775111808 20.54185056553771 1 0 0
1325 1 -1.2 12.070389646699915 5.85372394050194 18.707222999730586 0 0 -1
1600 2 2.4 13.323073150396509 6.435851923012767 17.56125861071159 -1 1 0
1522 1 -1.2 14.491623378427006 7.109851801792086 18.878610340921423 -1 0 0
747 2 2.4 17.679922407139337 5.730962024644488 19.808801943289932 0 0 0
2069 1 -1.2 17.73219055808725 7.428878362050309 20.091327491764094 0 1 0
894 1 -1.2 20.650969792886187 7.318084409158212 17.440809582154372 0 0 0
601 2 2.4 22.033737058460666 6.9895846583224035 18.185081279218156 0 0 -1
1640 1 -1.2 22.05674497043141 5.504259246632874 18.281837232157077 0 1 1
944 1 -1.2 23.292381397682497 7.564745241230912 17.40083543746481 -1 0 1
1198 1 -1.2 26.298360907006956 7.366192413108532 18.140626107814708 0 0 0
1190 2 2.4 27.15538081488167 6.113193337822231 18.32632692024615 0 -1 0
1913 1 -1.2 28.221995735057117 5.930747174977785 19.442962968512123 0 0 0
1302 1 -1.2 4.050213580778768 9.310457170555544 20.294517002720855 0 0 0
1398 1 -1.2 6.0939635152203016 8.654308205667197 18.224623261792996 0 0 0
1847 1 -1.2 10.204847307155568 10.769060635166388 17.21891611731756 0 0 0
2058 1 -1.2 9.358547868750852 8.732226414320795 18.90611336707189 0 1 0
428 1 -1.2 10.697411698226421 10.97415831041263 19.90467327399125 1 1 0
70 1 -1.2 19.29225607758505 9.528871848120625 17.70210038860075 1 0 0
1983 2 2.4 23.71994472456611 9.128107929735293 17.381642742564587 0 1 1
1128 1 -1.2 22.429875311094587 10.024500859555966 17.6447695155769 0 0 0
1966 1 -1.2 24.624450883817783 9.37484519834433 18.770835925970765 0 1 1
1322 2 2.4 25.66776149101633 8.304612829227572 19.22289910997761 0 0 0
1227 2 2.4 27.95196679545178 9.83569174123232 19.66570297119833 -1 1 0
754 1 -1.2 27.90087456654174 10.067561941614317 17.94841073668196 -1 1 0
1951 1 -1.2 0.8703796345035534 13.048582874502086 18.078832773210976 0 1 1
325 2 2.4 1.7107192143269108 12.84572839050523 19.41624872143179 0 0 -1
935 1 -1.2 2.7815651521973885 11.669981497642409 19.107602299274713 0 -1 0
1630 1 -1.2 8.890168600593952 12.370230554148433 18.90444115157655 0 0 0
1012 2 2.4 10.474575239028123 11.786364031966484 18.487300078241738 0 0 0
1401 1 -1.2 11.634488354605628 12.970807548919668 18.293702922408823 0 0 0
938 2 2.4 15.690381087397622 11.16806077914465 17.44098565811321 0 0 0
1498 1 -1.2 15.019341493467513 11.054626813761573 19.010421351227215 0 0 0
2 2 2.4 15.472022828017016 12.192181010555759 20.04266481440904 -1 0 -1
127 1 -1.2 14.051412346552013 13.146278851007816 19.58934757417174 1 -1 -1
429 1 -1.2 17.053759980410387 10.679593334035 17.997048708544447 0 1 0
604 2 2.4 18.660108796859983 11.116618462236305 18.113248774553632 0 -1 0
993 1 -1.2 16.847883821225615 13.261700517244634 19.438007698207137 0 0 0
1798 1 -1.2 18.93901112130351 11.637862536813325 19.62474997595437 1 0 1
1369 2 2.4 20.467468555767507 11.973149960462456 20.12378512028853 0 0 0
2064 1 -1.2 21.153219570651842 12.051926533038118 18.48540719580737 0 0 -1
916 2 2.4 22.377939536321474 11.70133323272935 17.473799153303357 0 0 0
1063 1 -1.2 23.71292628420275 12.492162820859939 17.984012695156014 0 0 0
713 1 -1.2 24.729098974313036 12.992291564104493 20.589853867645555 0 -1 0
318 1 -1.2 26.164687658448354 12.932887414713408 18.129962123885097 0 0 0
1722 1 -1.2 28.31070869311651 12.765318566258866 17.100058870687267 0 0 0
992 1 -1.2 2.86374090033935 14.116703363789618 19.51317318327569 0 0 0
2006 2 2.4 3.287101311365817 15.485874436229354 18.93366739848074 1 0 0
1979 1 -1.2 4.667820334238811 15.15391274321615 18.31723934425256 0 0 0
1882 1 -1.2 6.570470650572985 13.556453180789031 17.648900495479005 0 0 0
1525 2 2.4 7.992086076911858 13.826701592061994 18.50532608229736 0 0 0
1206 1 -1.2 8.026808780562224 14.738060475076752 19.824787144113724 1 1 0
1277 1 -1.2 10.84909258655841 15.91112485040147 18.00476180504221 1 1 0
1477 2 2.4 12.359643239378812 16.15233855683027 17.226037694200564 0 0 0
688 2 2.4 12.761326251987457 13.930393942865116 19.00834169732248 0 -1 0
452 1 -1.2 13.348936440223037 15.39095801039387 18.408538269620625 0 -1 0
1811 1 -1.2 16.829871816837223 14.820751658941822 17.361626263650024 0 0 0
1747 1 -1.2 16.188623779944766 15.877663830121493 19.957112780249087 0 -1 0
1191 2 2.4 17.092452627974872 14.790533483367078 19.161021872006632 0 0 0
538 1 -1.2 18.710865973966047 15.044931123568691 19.727535431718415 0 0 0
1694 2 2.4 19.864813642909063 16.39332569614399 19.345590729765494 0 0 0
805 2 2.4 24.834193828775508 13.35529356269126 18.96426070695195 0 1 0
1176 1 -1.2 24.908421257566324 14.909623456104056 18.73890804429273 0 1 0
1601 1 -1.2 27.6918939072837 15.189264187965462 17.45981735015836 -1 0 0
1789 2 2.4 27.56290306966313 13.740489295935738 18.09565611001389 0 -1 0
1245 1 -1.2 27.858646640649024 13.661670809830664 19.7268163373799 -1 0 0
1113 1 -1.2 0.261990013048861 17.754706201905403 17.793565359016622 0 0 0
2097 1 -1.2 3.5279385468581084 16.624095562990828 20.032992802585788 0 0 0
966 1 -1.2 7.02525279018569 18.909471805965488 18.97774887674723 1 0 0
1126 1 -1.2 9.733699316975532 19.352980324598537 17.30676823086651 0 0 0
1931 1 -1.2 8.484330365498653 16.951248561410065 17.912955658333722 1 -1 0
1971 2 2.4 8.743255091908164 18.5464163568768 18.500267323824172 0 0 0
1541 1 -1.2 9.322581773100845 18.897924115287505 20.00487638490625 0 0 0
721 2 2.4 16.621116345409362 17.45579468936474 20.01560047360477 -1 0 -1
896 1 -1.2 16.991147939536308 18.126516826936953 18.434034553977988 0 -1 0
1152 1 -1.2 19.798415373272647 17.8868467818282 19.540042401449366 1 -1 -1
1355 1 -1.2 19.954486973621815 16.248073923976936 17.810686558892854 0 0 0
928 2 2.4 24.937002416613613 16.495526506408506 18.911546164328747 0 0 0
965 1 -1.2 23.571991325672347 17.273043043105293 18.383907651980003 -1 0 0
1580 1 -1.2 26.45393435990469 17.136279552950704 18.426501062727745 0 0 0
628 2 2.4 29.593157493540545 19.058907418688914 17.575984696103184 0 0 0
1077 1 -1.2 5.52247776655616 21.259945235504254 18.766250840137705 0 0 1
830 2 2.4 6.110694402509564 19.924725094375702 17.925364698236603 0 0 -1
704 1 -1.2 9.299472635084182 21.663495071864126 18.142245686269167 0 0 0
846 1 -1.2 12.002227756428825 20.602411493482187 18.191850009363677 1 1 0
640 2 2.4 13.182317768833315 21.5289356349623 18.954826084329767 0 0 0
1273 2 2.4 16.440748230562534 19.27712853526766 17.534564222244146 0 0 0
1247 1 -1.2 13.98272073641028 20.42323987770855 20.03007048354169 -1 0 0
1907 1 -1.2 16.75113453399367 20.557704632876153 18.612808159644086 0 0 0
844 2 2.4 21.68550992268971 21.35608639121927 19.847723779913757 0 0 0
679 1 -1.2 21.534182844372122 20.811142529274214 18.232188589205748 0 -1 0
1616 1 -1.2 29.271129645883093 19.776573509359977 18.953538958523282 -1 0 0
764 1 -1.2 0.1953076982614498 24.421146340108056 19.647944775486277 0 0 0
270 1 -1.2 30.015488857591553 22.460642530783847 18.257558718442247 0 0 0
541 2 2.4 5.432917363507925 21.936490862015038 20.176564061391677 1 -1 0
871 1 -1.2 5.493312498112193 23.5617655683802 20.309154185287365 -1 -1 0
329 1 -1.2 8.10319123885092 23.776069089554777 18.722038554541296 0 0 0
1622 2 2.4 8.910683807345187 24.244315444698 20.023945486060242 0 0 0
1049 1 -1.2 12.406809014455732 22.821737391972572 20.06943503794329 0 -1 0
1029 1 -1.2 15.03059599628132 23.914068905905673 16.89563994816818 0 -1 0
1246 1 -1.2 14.379960981876156 21.977766460500487 18.03896972718988 -1 0 0
1315 1 -1.2 17.914994821786365 22.57870401237707 20.475339141897233 0 -1 0
698 2 2.4 23.476591400048616 25.119999762493446 17.080673688117773 0 0 0
1112 1 -1.2 23.65568775600956 24.96815998164581 18.718129289005798 -1 0 0
1473 1 -1.2 25.131797843613388 21.94886004977186 18.54013692437062 0 0 0
1718 2 2.4 29.56089588058512 23.056628559707097 19.564541284436036 0 0 0
1805 1 -1.2 28.01360554997134 23.47667972926497 19.587955518683522 -1 -1 0
1739 1 -1.2 5.398693241515935 26.253811126799445 19.342010462830086 0 -1 0
554 2 2.4 6.678823415545474 27.193852875172443 18.463657224505237 0 -1 -1
164 1 -1.2 8.377212664088699 27.300594410139905 18.44979573990357 0 0 -1
389 1 -1.2 10.009545842004028 25.526748664491176 19.83955083347748 0 0 0
1239 2 2.4 14.920146618183956 25.470872427099252 17.44798958203906 0 0 0
1291 1 -1.2 14.721564285489716 25.322810078144094 19.103853992845377 1 0 0
1778 2 2.4 15.445497470040328 25.880444337529536 20.388212823996486 0 -1 0
1459 1 -1.2 19.195280692841568 24.85811139513821 20.419018822155248 0 -1 -1
1005 1 -1.2 17.139503557649174 26.00922750370446 20.272022335612768 1 -1 0
39 2 2.4 18.66200525150374 26.276901321524015 20.59597981274699 0 0 -1
953 1 -1.2 19.198517698672397 27.322635445171457 19.590286349695358 0 -1 0
1143 2 2.4 24.7824842207007 24.847882665630184 19.81519116107805 0 0 0
478 1 -1.2 26.150498576573746 24.933417731693094 18.92291177301027 0 -1 0
491 1 -1.2 28.53252997172229 25.46239750342211 17.56715093180878 -1 -1 0
1396 2 2.4 27.621811823242904 24.933077705304907 18.911557737836507 0 -1 0
209 1 -1.2 27.923866121519303 26.15122495842428 20.130265897680435 1 0 0
1410 1 -1.2 0.4460046448156296 0.2352591009048602 19.02178033531991 1 0 0
47 1 -1.2 6.399337935859795 28.916377733318438 18.545029265668873 1 -1 0
532 2 2.4 6.164915431504406 30.35992102295992 17.676826584107328 0 -1 0
1409 1 -1.2 10.364725471323343 28.245669949975316 20.05684993648133 1 -1 1
1499 1 -1.2 11.883319384822967 27.650149833208925 18.465750769617223 0 0 0
1911 2 2.4 12.03771406075912 28.268565836898446 19.92149263746832 0 0 0
1184 1 -1.2 12.628467541645607 29.771239127155734 19.74957734862177 0 0 0
1858 1 -1.2 12.940682266369205 27.36084922934752 20.95644758288991 1 0 1
176 1 -1.2 17.317785921778327 -0.006998989687620151 19.383526317454173 -1 1 0
1777 2 2.4 17.617885801125844 30.193102227961305 17.851505359104813 0 -1 0
2154 1 -1.2 19.115104929077077 29.85099072885028 18.4953719434303 0 0 0
2080 2 2.4 19.895823425505636 28.45696850311471 18.760985085485412 0 0 1
2096 1 -1.2 21.242827552151088 29.01677059713525 19.722022267171052 0 0 0
1110 1 -1.2 25.255209725310486 28.155131780478545 18.284358077634465 0 -1 0
962 2 2.4 26.333795974577527 29.27803976157742 18.757899501582195 -1 -1 0
1942 1 -1.2 27.355300649682718 28.740424833204457 19.961454720499493 0 -1 1
1022 2 2.4 1.5155590786591318 0.28280730358687123 20.14609464494315 0 0 0
57 1 -1.2 0.869401244353685 1.3265657698009408 21.379560093808866 1 1 0
925 2 2.4 1.8189265071437548 2.5349868811895506 21.884110189049323 1 0 0
823 1 -1.2 7.621671359158059 1.677183999539121 21.631097776602108 0 1 -1
1121 1 -1.2 6.297987745966755 3.765032721645859 22.04049459521934 0 1 -1
913 2 2.4 9.041561499079885 0.9028393878122097 21.413382455831343 0 0 -1
1365 1 -1.2 10.5192955998538 1.589367944001709 21.859086823351348 0 0 0
914 2 2.4 11.71319158111438 2.492916247379831 21.322766219796424 1 0 0
1019 1 -1.2 14.891811617008484 0.9807168567102871 20.24478317941111 0 0 0
1079 1 -1.2 13.688373007219115 1.305393195178272 23.768790474660424 0 0 0
1213 2 2.4 16.499040765961404 1.0266098433447006 20.454694543778427 1 0 1
581 1 -1.2 16.922276650058134 0.38746050640363866 21.984401967875808 -1 1 0
695 1 -1.2 20.98141535197017 0.9534541896028477 21.089309927533552 0 0 0
970 1 -1.2 25.010313208862957 0.48710531046635436 22.06811778238225 -1 1 0
1587 2 2.4 26.45713416685555 1.2810272760952761 22.06271819984941 -1 1 0
1349 1 -1.2 27.330721460928594 1.3006832823637842 20.613855280470712 -1 0 0
1692 1 -1.2 25.728244263699484 2.5755227837034487 22.60310860666549 -1 1 0
1655 1 -1.2 1.9331604935899553 3.700974242846958 20.652992030116852 1 0 1
863 1 -1.2 1.1055493858320486 2.705665343835435 23.281351800838365 1 1 -1
2045 1 -1.2 3.553374297309803 2.6147137817969077 22.023913833681327 1 0 1
637 2 2.4 4.806525187074805 3.63922779184373 21.32292621367264 1 0 0
657 1 -1.2 4.3482601632081685 5.230377844753852 21.530243911971816 0 1 0
1175 1 -1.2 10.82397752941608 3.61478670507753 20.329885380470145 0 0 0
32 1 -1.2 12.614036123842453 3.2628930852080957 22.311294068791057 0 -1 -1
1788 1 -1.2 17.410906564620056 3.8968072266993614 22.810856306893196 0 0 0
1659 2 2.4 18.161773866417345 3.4291061492100967 21.49008877673753 0 1 -1
496 2 2.4 21.22050515576326 2.5586734954840873 21.484685758003003 0 0 0
860 1 -1.2 19.69498915548809 2.881467198878372 21.9208948423238 0 1 0
2073 1 -1.2 22.50697727629181 2.625405345098216 22.42198571258217 0 1 0
1822 1 -1.2 25.918727924821553 4.842174239071734 21.128318234692216 0 0 0
973 2 2.4 25.802083380308037 4.234712617991415 22.621960386779516 0 0 0
1771 1 -1.2 28.70995752934786 4.8199346386079585 21.827076427376316 -1 0 1
1149 1 -1.2 -0.05210002948853898 6.720840963897887 21.094549831958062 1 1 0
1910 2 2.4 4.897392202773306 6.77135562164078 21.910331586861016 0 0 0
1769 1 -1.2 3.726055521714968 7.897746791887844 22.264252391141916 0 0 0
1208 1 -1.2 5.52541151630946 6.403283165958607 23.420409375784757 0 1 0
1656 1 -1.2 10.58672062974959 6.187437378479649 20.965825244846435 0 1 0
1707 2 2.4 11.936937542824486 6.661541087691977 20.08285568241234 1 1 0
1066 1 -1.2 13.338915586091954 6.28070832276749 21.04809743447984 0 0 0
424 2 2.4 14.87804048427171 6.623077039218863 20.367922640150454 0 0 0
285 1 -1.2 15.481325935067284 7.6349137525659705 21.459952858963337 0 1 -1
1765 2 2.4 17.064519582684696 8.064188180367912 21.59342029077461 0 0 0
778 1 -1.2 17.70896348346108 7.736608020080196 23.120974010944742 1 0 0
777 1 -1.2 20.459035202127577 7.141492814002758 23.134132830225212 0 1 0
322 1 -1.2 22.203877649235878 7.619105530834705 19.785508804532277 0 1 -1
1082 2 2.4 23.23942780601529 7.453388762815545 21.059955086214856 -1 0 0
1535 1 -1.2 23.024008229645553 6.377269602267443 22.074564384392882 0 0 0
454 1 -1.2 24.778363041277593 7.603832848229919 20.33544721928879 -1 0 0
1168 2 2.4 29.408473686262425 5.5135232453419665 20.4753791704208 -1 0 0
1406 2 2.4 -0.061640168946833815 8.350584058710771 21.142622379649623 0 0 0
1929 1 -1.2 30.01730676582864 8.369823351771062 22.932304405957957 0 1 0
465 1 -1.2 1.5031038904584701 8.698861115306883 20.805369094248572 0 0 0
611 1 -1.2 2.65334463109161 10.601112363877869 22.319372544153573 1 -1 0
843 2 2.4 3.0449580459293175 9.232972265250785 21.566786264169455 1 1 0
641 1 -1.2 7.057469539246066 10.074213425307521 22.171867567231377 1 0 -1
1597 2 2.4 10.243186076582136 9.353224111590182 20.230545627407714 0 0 0
1934 2 2.4 8.467270471248543 9.489493151704616 22.793212938441275 1 0 0
1973 1 -1.2 9.324629979797443 9.14190982042459 21.561855703686135 0 0 0
715 1 -1.2 11.647815681578457 8.293170378624449 19.947654661963604 1 1 0
885 1 -1.2 14.529336352947888 10.413273736227534 22.2411791776298 0 0 -1
926 2 2.4 16.058371437813552 10.616321573348083 22.185186588785214 1 0 0
1651 1 -1.2 17.28435783870526 9.643677412344957 21.708977465944933 -1 0 0
1458 1 -1.2 21.218211224146984 10.668214748074076 23.035103452843224 0 1 0
1493 1 -1.2 21.491471502696637 10.785800579087812 20.657658741241057 0 -1 0
385 2 2.4 22.445724179334228 10.437634193697605 22.083080665859423 0 1 0
1378 1 -1.2 22.88557997445893 8.892970430744397 21.8288095991833 -1 0 0
1463 1 -1.2 26.862122255593064 8.821431406105411 20.020641870510612 0 0 0
371 1 -1.2 29.406683226009314 9.23433815028065 20.194407387931093 -1 0 0
802 1 -1.2 1.1291057518705525 12.938759391485032 20.899200116543028 0 0 0
1623 2 2.4 3.7044310439709935 11.854426769571093 22.642032077880053 0 0 0
367 1 -1.2 3.447347290019091 13.405967754837485 22.12728830084316 0 1 -1
1986 1 -1.2 5.104382844353359 11.451463916279556 22.00811838839143 1 0 0
124 2 2.4 6.667187035588251 11.760285079558676 22.350997105809295 1 0 0
2156 1 -1.2 7.232322724925766 12.701078467260102 21.211768089566988 1 0 1
1294 1 -1.2 12.329382277920738 12.008820631779114 22.018847108057244 1 1 0
736 2 2.4 13.205691854567718 11.347277282051206 23.18143695874043 0 0 -1
674 2 2.4 11.526670588993138 13.569381710264784 21.812874489728785 0 0 -1
1494 1 -1.2 16.205944312412733 12.190515146769593 21.482171380837343 0 0 0
202 1 -1.2 20.46228628523229 13.096654313915849 21.289326837392245 0 0 -1
1594 1 -1.2 23.33419024118084 11.793209109540701 22.392459724733193 -1 -1 0
508 2 2.4 23.73998551274081 13.394576770214718 21.775479335690047 0 0 0
732 1 -1.2 26.997937662949226 12.696933544445631 22.34423453174567 -1 0 -1
1734 1 -1.2 27.90480479912901 11.302925890645158 20.265487623738235 -1 -1 0
74 2 2.4 28.071542713152358 12.650783092921685 21.142380872391954 -1 -1 -1
2003 1 -1.2 29.320852846075585 12.89792593412289 22.213105011533226 0 0 0
7 1 -1.2 1.1218451227150503 14.03477462911765 23.28287151550515 1 -1 -1
937 2 2.4 0.19566792835900798 13.875050941080053 21.922051708379893 0 -1 0
1404 1 -1.2 -0.0343440085714288 15.432113457979145 21.605788347961134 0 0 0
1736 1 -1.2 3.0426932053209934 15.964906766819839 22.65011813121898 0 0 0
1060 2 2.4 2.773405098054088 14.374979970857474 23.288984132475022 1 0 0
360 1 -1.2 7.658503823400845 14.918234809719317 22.392935678357084 1 1 -1
1212 1 -1.2 9.828479576442867 13.46884672793919 21.39358086622259 0 0 0
853 2 2.4 8.3006855436441 13.987666605012265 21.193383151484767 1 0 0
1854 1 -1.2 12.081250332222464 14.27075229325005 20.398849428699847 1 0 0
2133 1 -1.2 21.05775235605044 15.61636724873728 20.24749079544758 -1 0 0
2129 1 -1.2 20.509734528525335 15.135459927850322 22.867654681740273 0 1 0
1036 2 2.4 20.99270141190473 14.542371923815688 21.458348167774975 0 0 0
1759 1 -1.2 22.50290461451212 14.380130133163883 21.70729626615004 0 -1 0
1385 1 -1.2 24.610494459481107 14.642416796454109 22.627264603208364 0 0 0
49 2 2.4 25.21829307385917 16.103077850733662 22.078436791266125 0 -1 0
714 1 -1.2 26.849085102199087 16.00766862078535 22.511654297976502 1 0 0
1205 1 -1.2 1.568258411754192 17.844937086515667 21.389482377731913 1 0 0
976 2 2.4 3.078207672148092 17.102329892898965 21.469340373998264 1 0 0
1953 1 -1.2 4.190597144145856 18.041463107255566 21.933189963495614 0 0 1
878 2 2.4 4.79937780647882 18.780612777831028 23.247070167887944 0 0 0
1507 1 -1.2 10.861007413278358 18.324375199114556 22.140540941794423 0 0 0
1155 2 2.4 12.262331992754929 18.42872387515092 22.804886854666925 -1 0 0
617 1 -1.2 15.321602016325677 18.170308281851927 20.49897880465716 0 0 0
2128 2 2.4 19.2457166154014 18.59758304219224 20.871144070732583 0 0 0
1356 1 -1.2 17.840798206271756 17.788423920074937 21.08742337346374 0 -1 0
1614 1 -1.2 20.294296508007303 18.742093820222156 22.120627229994806 0 0 0
1448 1 -1.2 24.93433852127757 16.80261423810747 20.503217815326952 -1 0 0
589 2 2.4 24.521685230069412 18.680573525501604 23.180162495886147 -1 0 0
1520 1 -1.2 24.687103468510816 17.124727134804004 23.531713533135033 0 0 1
1283 1 -1.2 25.55885880346995 18.86409567951319 22.015831526756227 0 0 -1
1443 2 2.4 0.1921897536387744 17.158917360724466 21.65810508930919 0 0 0
1617 1 -1.2 29.338641095887652 17.569681410964844 20.75312936534831 -1 0 0
1613 1 -1.2 29.974465029425573 17.546588097365593 23.215319568991877 -1 -1 0
54 1 -1.2 1.6833314559594412 21.67648211806055 22.06216422361553 1 -1 0
613 2 2.4 0.09462063463365376 21.44947317748703 21.96879624179991 1 -1 -1
1800 1 -1.2 -0.07266793164181463 19.913654454344037 21.46937937329908 1 -1 0
359 1 -1.2 6.327116770572318 19.27822975936181 22.86429529473652 0 0 0
1335 2 2.4 7.360981596976203 20.570507856533883 22.43709293582989 0 0 0
659 1 -1.2 6.696801608038747 21.538184359062164 21.236868059121583 -1 -1 -1
664 2 2.4 10.128642827573612 19.557395709886354 21.229525530570957 0 0 0
1869 1 -1.2 8.896715032013889 20.170629206841475 22.165304438108237 1 0 0
214 1 -1.2 10.957680295250615 20.83916616618762 21.06178654695903 1 -1 0
160 2 2.4 11.235021749748125 22.445440729436164 21.17917990489343 0 0 0
1697 1 -1.2 13.615280573665808 19.065696968214144 22.139279730298618 0 1 0
1958 2 2.4 14.738058273355314 19.515853425849595 21.010118135615063 0 0 0
1044 1 -1.2 15.993521922998974 20.58902903625305 21.456703885967457 0 0 0
1153 2 2.4 17.334352407662006 20.957641938447367 20.22700611361857 0 0 0
509 1 -1.2 18.61436689204881 20.054973152678762 20.827507547152873 0 0 0
1238 2 2.4 21.571681014759438 19.583619338816973 22.166823571623844 0 1 0
101 1 -1.2 21.602952632923078 19.968580454781428 20.600107811742642 0 0 0
1146 1 -1.2 21.198290821669115 21.032828949185316 23.152815332951945 1 0 -1
416 1 -1.2 22.912771723100825 18.981660999717104 22.679321116965326 0 0 0
1676 1 -1.2 22.98659759298318 22.08047055672441 20.215867132936065 -1 -1 0
2122 1 -1.2 25.655924892154427 21.130063440904397 20.9353807406171 0 0 0
1562 2 2.4 26.53909070309895 20.190334382237815 21.84109192810549 0 0 0
296 1 -1.2 27.111742894049378 20.617815691947204 23.2165024888061 -1 0 0
1180 2 2.4 29.2489777995574 19.18368429679648 20.489159482817676 -1 0 0
1282 1 -1.2 27.818684080089888 19.68648433093804 21.008223512368374 0 1 0
81 1 -1.2 29.557329893416266 21.873099510959946 23.273265774689463 -1 0 0
142 1 -1.2 4.043974151601845 21.710763875417225 20.93081548896441 1 -1 0
696 1 -1.2 2.320241570757929 23.895644680272433 21.105209217031486 1 0 0
735 2 2.4 2.9671172364582135 22.597698263825134 21.68578483926215 0 0 0
934 1 -1.2 7.281537796950098 21.826026366343438 23.41086595488254 1 0 0
1135 1 -1.2 9.696866426610796 22.962672516913884 20.620167724799416 0 0 0
932 1 -1.2 12.020057950358872 22.76737633659239 22.63593610112849 1 0 0
1428 1 -1.2 14.864356009213207 24.894549308080325 21.61742767081248 1 -1 0
232 2 2.4 14.880372285215067 25.16365308904506 23.263090030028277 0 -1 0
312 1 -1.2 14.070989643486708 23.869890951119164 23.858157381226867 0 0 -1
1528 2 2.4 19.443545217489447 23.190978973667185 20.88720025398446 0 0 0
237 1 -1.2 19.80866278662908 23.045861815254806 22.527361309734964 -1 0 0
672 1 -1.2 20.528030043702223 22.51729993991783 20.123683580599323 0 0 -1
374 2 2.4 24.64115745256848 22.12061240095362 20.142457304028433 0 0 0
776 1 -1.2 25.041792481730074 23.62195537926074 20.814173659026867 -1 0 -1
118 1 -1.2 29.600587190357857 22.201963058985758 20.795599195091565 -1 0 0
2152 2 2.4 1.0035552283321973 24.953040560079693 20.998908994397336 1 0 0
1784 1 -1.2 1.6644603488102214 26.362937075642172 20.65224073701333 0 -1 1
825 1 -1.2 -0.03581401475182312 25.146860595155488 22.45866213383854 1 0 -1
1838 2 2.4 4.960735138103196 27.135304645252646 22.423769926800954 1 0 0
743 1 -1.2 3.757653762640758 27.75624864715281 21.61711357519019 0 -1 0
474 1 -1.2 5.5867876619700745 25.76528704335586 21.84634494780696 1 -1 0
1017 1 -1.2 7.643194982804172 25.211520825916505 20.554799562678852 -1 -1 0
1969 2 2.4 5.848259424351691 25.065040251651478 20.37093553182659 1 -1 0
15 2 2.4 9.32046698670549 27.110541149517353 20.029018808400306 0 -1 0
560 1 -1.2 8.561457256053435 27.584033588150934 21.594539732309705 1 -1 0
2106 1 -1.2 14.083357008330676 26.68422377576787 23.34858125545227 0 0 0
344 1 -1.2 19.226535221046593 26.48055369846894 22.14874197959451 0 0 -1
811 1 -1.2 24.575837105164275 26.289490473870956 20.553332421578453 -1 0 0
304 2 2.4 25.226137048343094 27.050054775118376 21.804517020129904 -1 -1 0
1939 1 -1.2 26.73658701716732 26.704944983966517 22.02384170604556 0 -1 1
855 2 2.4 27.597300541974363 27.472483640766534 20.993566839716543 0 0 0
193 2 2.4 2.0870471091196245 27.80353152039801 21.27077975832357 1 -1 0
1199 1 -1.2 1.9512819083605533 29.18910398109358 20.268655591037962 0 0 0
126 1 -1.2 1.2920709450253685 28.348003050782815 22.62130748081512 1 -1 -1
2134 1 -1.2 6.043568495229721 28.37457933635979 22.704826035788432 0 1 0
519 2 2.4 7.905613763420115 28.658474662041264 22.642802963969025 0 -1 -1
1738 1 -1.2 8.575305545338857 29.96442041604732 21.98503950054733 -1 -1 0
2120 1 -1.2 13.902233403466209 29.423206413640255 22.494696204793417 0 0 0
171 2 2.4 14.13010701149071 27.802429675865874 22.082497717166127 0 0 -1
1999 1 -1.2 15.462021412392408 27.572391410391315 20.880138795858112 0 0 0
1859 1 -1.2 15.781095182043492 30.18204457825284 24.229506511093085 0 -1 0
616 2 2.4 19.216725694499235 27.704228342677673 23.065808418665892 0 0 0
1959 2 2.4 21.030644803671624 29.794292868328963 21.19506159738936 0 -1 0
2051 1 -1.2 20.064469128518322 29.085279803560915 22.36246340899488 -1 -1 1
1073 1 -1.2 22.678031187279043 29.644232089390343 21.587525305763513 0 0 0
1492 2 2.4 23.90572353781212 29.75383271093796 22.634631006784165 0 -1 0
235 1 -1.2 24.93965012184879 28.565719269860494 22.053361283473667 -1 0 0
1998 1 -1.2 27.639626633936402 0.6909803706991261 22.918094750909518 0 1 0
1905 1 -1.2 29.069716209609734 28.18384384506002 21.521697429772164 -2 0 0
1834 1 -1.2 3.8379080655580924 1.2204006724917242 25.261822540003624 1 1 0
361 2 2.4 7.000933046799131 2.7260106192472318 22.851765119216815 -1 1 -1
668 1 -1.2 6.030166082223561 2.1370980261675054 24.134886573553256 0 1 0
99 2 2.4 13.445300922198724 2.9687016495154004 23.67089257549073 0 0 -1
217 2 2.4 18.058928097894537 1.5012714584761986 25.811157061216463 0 0 -1
1411 1 -1.2 18.324436035405405 0.43933251812886415 24.567700948267728 0 1 0
151 1 -1.2 19.48504414024314 1.5949329742643565 26.421985293129225 -1 0 -1
1195 1 -1.2 21.307068179987436 30.2844273875217 26.214452016104257 0 0 0
335 1 -1.2 27.99903563745981 0.5305026636098907 25.46477980596596 0 1 -1
370 1 -1.2 0.7656982541126596 3.06452809763385 26.017067726372233 1 1 0
1139 1 -1.2 1.6888570543689405 4.909121841179034 24.417184528896748 0 0 0
387 2 2.4 0.5112557030325631 3.7035780850810345 24.57473681324943 0 1 -1
61 2 2.4 4.796649973300188 2.4837911974786766 25.260990377769918 1 0 -1
1745 1 -1.2 3.7887414721434416 3.8757137391866934 25.15043824123341 0 -1 0
1141 2 2.4 2.967311198763429 5.314730018720499 25.288597576551997 0 1 0
1915 1 -1.2 8.234576203727647 3.3581322365092245 23.56662157650868 0 0 0
13 2 2.4 8.569302926016872 4.254049947187225 24.74669928543855 0 0 -1
1908 1 -1.2 10.193042794242324 4.323756099781657 24.966139636462575 0 0 0
1709 1 -1.2 12.621046177602679 3.407059867574017 24.981503004014503 0 1 0
2032 2 2.4 11.463883254810431 4.4331499856800205 25.79776879154531 0 1 0
1818 1 -1.2 11.830852801059562 6.0455845449132 25.69470674649399 0 -1 0
2057 1 -1.2 14.917204954129701 3.505285642607553 23.790199966830436 0 1 0
1403 1 -1.2 16.690846777521458 5.227272624401051 24.826230431587582 0 0 0
251 1 -1.2 17.007978297214162 2.70962333175287 25.329541030257275 0 0 -1
2126 2 2.4 16.53107887685778 3.721634542445352 24.141342266339176 0 1 0
1450 1 -1.2 23.751016058550597 2.670583966897568 25.21104925238373 0 0 0
1839 2 2.4 22.98197737588551 3.659505377130286 23.754273676166388 0 0 1
29 1 -1.2 22.278594734401736 5.07936913638168 24.256306879767305 0 0 0
653 1 -1.2 24.25550156070881 4.325399093129676 22.957726820864035 0 0 0
1627 1 -1.2 26.99928661727144 4.8287439035661395 23.547188941503446 -1 2 0
1249 2 2.4 28.598109565510835 5.1874234393289065 23.527439641099694 -1 1 0
2027 1 -1.2 29.474106443959975 3.924285655877525 24.04012825186828 -1 1 0
1938 1 -1.2 0.5777408654661612 7.858119136285382 25.206134179693073 1 0 1
1540 2 2.4 2.0827922525667626 8.212155181360336 25.706859588414993 0 0 0
827 1 -1.2 3.3300690528924113 6.994176866942586 25.112589990349566 0 1 0
1816 2 2.4 6.977994515720624 6.95566498753009 24.234540688760426 0 0 0
1880 1 -1.2 6.5546249154066105 7.4234835720258046 25.657345771558848 -1 0 0
1308 1 -1.2 7.602835901362372 5.500728573785675 24.359542797067604 0 -1 0
623 1 -1.2 12.55695877686556 8.420818997941508 25.622498307544248 1 0 0
786 1 -1.2 16.34165611339676 7.3372347814002 26.188562480086233 1 1 -1
1923 2 2.4 17.494134281670988 6.243333215650975 25.64420150796348 1 0 0
1665 1 -1.2 18.830015042314724 6.784091882225538 25.03090635525386 0 1 0
1491 2 2.4 19.110489365955505 7.764289410639478 23.944359315090615 0 1 0
1960 2 2.4 22.0443623569392 6.599453301898014 23.488660416958517 0 0 0
1181 1 -1.2 22.484846510419846 7.789514793451825 24.615893106060206 0 0 0
189 1 -1.2 28.909536378563285 6.539649677348408 24.37307138832045 -1 0 -1
951 2 2.4 29.553351847618192 8.065995050794712 24.443641486628795 0 0 0
1350 1 -1.2 2.615486658507641 9.580689181653886 25.32578701727606 2 -1 0
1637 1 -1.2 8.039136549059544 8.122279956684467 23.753912704131317 1 1 -1
2060 1 -1.2 10.222472649741581 9.552956038078598 25.626579197759334 0 0 0
1103 1 -1.2 9.098586138386501 10.621839055987568 23.618320609086236 0 0 0
707 1 -1.2 12.179726875528155 10.34989037157023 23.818742762784023 0 0 -1
1083 2 2.4 11.755745295423148 9.779338702745859 25.286320084985178 -1 0 -1
1487 1 -1.2 16.352441894762052 11.164492438185285 23.839597278135894 0 0 0
1265 1 -1.2 19.383012620665006 9.317635490157281 24.181520157309738 0 1 0
1768 2 2.4 20.340241344777876 10.614671552947321 24.408100969685204 -1 0 0
1926 1 -1.2 21.214660366655654 9.963941590559585 25.647846978667364 0 0 1
1321 2 2.4 22.67888888751426 9.17450596591808 25.683130716467364 -1 -1 0
68 1 -1.2 23.84494635026923 10.337707826202404 25.43304277694345 0 0 0
55 1 -1.2 26.64464721920731 10.192374666582564 25.70225259171956 -1 0 -1
1819 1 -1.2 28.82909386477177 9.016429088983005 25.37759533795418 0 0 0
314 2 2.4 28.281037419470096 10.452100267403058 25.795178375093677 -1 0 0
1766 2 2.4 3.356033673314293 11.002247290272804 25.643951630334982 0 0 0
1809 1 -1.2 3.609190840644803 12.017004186945638 24.306364073107204 0 0 0
1808 1 -1.2 7.803694174325336 11.039328117335245 25.71642348471946 0 0 1
1028 1 -1.2 4.974136373832904 10.552864286238796 25.938404898358353 -1 0 0
1400 1 -1.2 6.836372351971055 12.645001286878667 23.728801040793538 0 0 0
242 2 2.4 9.308277524932173 10.733590228146968 25.13684811730992 0 0 -1
1440 1 -1.2 9.976359428511266 12.180617938821147 25.477037585414497 1 1 0
902 2 2.4 15.441485621470147 12.06343120993503 24.79619671658056 0 0 0
1712 1 -1.2 13.969854371488474 12.434334873232908 24.16559843714879 0 1 0
2034 1 -1.2 16.611734634945496 13.253278707095813 25.18870012814386 -1 0 0
1479 2 2.4 18.281259324442505 13.154800143998733 25.24942207668845 0 0 0
1604 1 -1.2 18.4696697073532 12.81365386386143 26.869445070846766 0 0 0
108 1 -1.2 19.316725113032863 11.885106268035775 24.58265900476701 0 0 -1
1096 2 2.4 25.253696713172427 11.191706954987332 25.566014793453125 -1 0 0
612 1 -1.2 25.618068632225437 12.163651506084738 24.33180052959947 0 0 -1
1648 2 2.4 27.143889891047575 12.630545818507976 23.98407457533695 1 0 0
1865 1 -1.2 28.149120854072486 11.519220050334175 24.400650374421318 0 0 1
1903 1 -1.2 3.17562582514156 14.630297400178488 24.821874537748005 0 0 1
291 2 2.4 4.605165790070927 15.313695721251959 25.205789487643944 0 0 -1
1581 1 -1.2 5.524254264075794 14.991026420845536 23.979265194951928 1 0 0
207 2 2.4 6.966994542057677 14.31088585231907 23.77675940651002 1 0 -1
1904 1 -1.2 7.783082533665144 15.098827229657388 25.022482197948197 0 0 0
627 2 2.4 8.978301427076575 15.839147963922528 25.89128220140672 0 0 -1
1485 1 -1.2 11.716834908689147 14.60425992648458 23.15518395961198 0 0 0
1874 2 2.4 11.788898079909012 15.825817203435957 24.220068963899703 -1 0 0
893 1 -1.2 12.788978521882692 15.232560600649819 25.484967966042174 -1 -1 0
775 1 -1.2 18.543981364596018 14.6033197938339 24.63072879181508 0 -1 0
1886 2 2.4 20.079823823541687 15.433076105501385 24.37663264296812 0 0 0
643 1 -1.2 21.11467374070587 14.83319609585775 25.519425234581803 0 0 -1
1038 1 -1.2 25.573334499311887 15.584730748486024 25.19054724257532 0 0 0
676 2 2.4 26.80561482893813 15.713396962834336 24.120309798712082 0 0 0
609 1 -1.2 27.542846856434146 14.185720477561814 24.25641968546611 0 0 0
738 1 -1.2 30.04938621138916 17.821367034413154 25.85240657891971 -1 0 -1
2157 1 -1.2 5.0046741841451166 18.155497089825037 24.66526474623774 1 0 0
178 1 -1.2 4.2477148878692175 16.61179329205089 26.35495161424427 1 0 -1
1418 2 2.4 4.9616389121909386 18.255259763958694 26.12441147895547 1 0 0
1680 1 -1.2 10.36280587775002 16.12576920061182 24.99245513784879 0 0 0
1956 1 -1.2 12.670350758247096 16.93112080246055 23.352827822108658 0 0 0
1468 2 2.4 18.956108590597935 18.349660253638312 25.68393451075528 0 0 0
1857 1 -1.2 17.316274184350192 18.35179786821069 25.509281721837375 0 0 0
833 1 -1.2 19.586199114006405 16.977896031544365 24.79369115588841 -1 1 -1
94 1 -1.2 19.652453026674603 19.8809518027876 25.324384155012073 0 -1 -1
790 1 -1.2 24.585995508301256 18.01810716003268 26.200709353245507 0 0 0
1866 1 -1.2 27.882139001111348 16.903389162531386 24.53316109638433 0 0 0
1873 2 2.4 29.117271428850227 17.992936985647326 24.48590856087658 0 0 0
273 1 -1.2 28.782013360960264 19.519506009938254 24.635920158201255 -1 0 0
246 1 -1.2 2.616841064250789 21.313392903552323 25.36633372440359 0 0 -1
401 1 -1.2 4.022833279688898 20.11532270603071 23.702337030223262 1 0 0
1309 2 2.4 3.7681083513473297 21.655019344494512 24.2410387802254 0 -1 0
347 1 -1.2 7.689540715582572 21.885930641207516 26.107956255172034 1 0 -1
1338 1 -1.2 11.962425382088716 19.32114745649097 24.266219407114704 0 -1 0
494 2 2.4 12.847236209261613 20.05991162858022 25.374075489127794 1 -1 0
2132 1 -1.2 13.516866462109041 21.411275481560086 24.76210832450311 0 0 0
757 2 2.4 15.972956654117572 18.880164569216642 26.219193200000127 1 0 0
105 1 -1.2 14.348429809465888 18.937931112489135 25.613095094604425 0 0 -1
636 1 -1.2 15.87985780428148 20.564072426818218 26.3191333620302 1 0 -1
1513 2 2.4 20.92829730123862 20.950795491978244 24.82999546184468 0 -1 0
840 1 -1.2 22.277175937750254 20.38277722965894 25.496081625384882 -1 0 -1
131 1 -1.2 19.94799015234946 22.326305382403643 25.131914339896642 0 -1 -1
1735 1 -1.2 24.52992621646437 19.624044450151523 24.532008207207394 0 -1 0
1813 2 2.4 23.93638109596353 20.874995429131747 25.42133485734814 -1 0 0
2054 2 2.4 28.51095338603354 21.008555323934964 24.113706234839654 1 0 0
971 1 -1.2 28.07295753338493 21.936523014496277 25.301431844093795 0 0 0
79 1 -1.2 3.6208537730714005 22.767748474972137 23.10704010765859 0 -1 0
995 1 -1.2 5.249733635490129 22.020285208778773 25.010139576948333 1 -1 -1
375 2 2.4 6.727432916437381 22.46397136746065 24.78782443639564 0 0 -1
810 1 -1.2 6.964963706545412 24.12730979858729 24.836542935272586 0 0 -1
575 1 -1.2 11.537871939058999 23.228895006848525 25.124713961646375 1 -1 0
14 2 2.4 12.832143392874077 22.856137638779185 24.11041220620641 0 -1 -1
1546 1 -1.2 16.55625265597199 22.89971305120427 25.51361177488733 0 0 0
835 1 -1.2 18.465666975651992 24.400088475666706 24.632359504234355 1 0 0
1850 2 2.4 16.968667597939355 24.518939454760005 25.23215514582781 0 -1 0
602 2 2.4 19.660014815211174 23.49116944451131 24.132087472892277 0 0 0
431 1 -1.2 20.89322779110304 24.64227022015367 24.357769657467927 0 0 -1
1976 1 -1.2 24.05054318460359 22.402962244459136 25.031724169803194 -1 0 1
662 2 2.4 24.56355469494999 23.72148066032246 25.798267215739315 -1 0 -1
274 1 -1.2 26.198721305062655 23.77974424253743 25.40684951034606 0 -1 0
1947 2 2.4 27.790661004892865 23.518740469870774 25.632660175995003 -1 0 0
332 1 -1.2 28.35220111896955 24.67935361375468 24.52824552433471 0 0 -1
1392 1 -1.2 0.2806373548037574 24.78389491930331 25.482526212520316 0 0 0
303 2 2.4 29.755558067727403 25.364952366494553 23.952932812159546 0 0 -1
2088 1 -1.2 4.496728489514702 26.668117637474896 23.91156487161093 1 0 -1
1641 1 -1.2 2.4129047621317827 26.624475249035402 24.97004003944768 1 0 0
2000 1 -1.2 7.4298078660596465 26.58438011453437 25.79362787299021 0 0 0
1737 1 -1.2 16.398912778436486 25.027137484833528 23.885491792806086 -1 -1 0
1968 1 -1.2 16.812283036841468 25.456000682494484 26.463599318756977 0 0 0
1849 2 2.4 20.798917567243564 26.249069960857035 25.057792105344554 0 -1 0
1571 1 -1.2 19.561331799507325 27.122624198843805 24.589758587860388 0 0 0
1253 1 -1.2 23.990436183160664 25.172145451905333 25.528484264863547 0 0 0
1856 1 -1.2 22.2382354587083 26.93385418849091 24.73187680111087 0 -1 0
1300 2 2.4 23.823745683917885 26.50732388139679 24.52252899143518 0 0 0
1832 1 -1.2 24.15917571636983 26.512521393298638 22.982846958517037 0 0 0
1421 1 -1.2 29.48151834882451 27.04919194180264 23.96555217271511 0 -1 0
1046 2 2.4 3.7648035937097366 27.532563679040873 24.994429444402886 1 0 0
882 1 -1.2 3.782463723722454 29.177233360142033 24.92399978907846 1 0 0
1599 2 2.4 8.426507342102658 27.84168550848107 25.87446651155998 0 0 0
441 1 -1.2 7.938807654588944 28.900047375391573 27.107246375240987 0 -1 0
179 1 -1.2 8.375938318996205 28.53652982238768 24.206033713277833 0 -1 0
870 1 -1.2 13.396890933762812 29.62335243595782 25.20838837542479 -1 -1 -1
1509 1 -1.2 12.451383152896405 27.808039981496883 27.383851176458613 0 -1 0
2068 2 2.4 14.147456792063567 30.294830818950118 23.886456339766106 1 -1 0
1088 1 -1.2 17.785418152851005 28.679710833321412 23.219010075138677 0 -1 0
1888 2 2.4 17.30476229919148 30.125114645798845 23.496183537190813 0 0 0
1687 1 -1.2 24.948406627455622 27.42647381383482 25.401222362520688 0 0 0
922 1 -1.2 23.892172146135348 29.53602549698315 24.196691697682603 0 -1 -1
445 2 2.4 25.273335820139263 28.984818194275093 25.108065422936715 -1 -1 0
1268 1 -1.2 26.719208940513465 29.0885069729139 24.145567317709673 -1 0 0
1503 2 2.4 29.82947892926319 28.29300567182974 22.893740965505607 0 0 0
1323 2 2.4 27.861085933329342 30.034084041845205 24.119594421505408 0 -1 0
804 1 -1.2 29.411298223251016 29.539131519116527 23.929987225033205 -1 0 0
1547 1 -1.2 1.0734615917692738 1.0362422473014419 28.069334668576868 0 0 0
241 2 2.4 1.0855928406376398 2.5441422744293423 27.569829002140523 1 0 -1
459 2 2.4 4.127938918048447 30.329066250671904 26.02030433002515 0 0 0
2135 1 -1.2 5.8691649239321295 0.09499500900876151 26.43382009480912 0 1 0
213 1 -1.2 8.138985290110899 1.2246452263607879 27.526780054911193 1 1 -1
873 1 -1.2 15.22366149554634 1.516712181974607 28.911503162255784 -1 0 0
328 2 2.4 14.76871888403619 30.354067293680476 28.701567161946564 0 0 -1
889 2 2.4 16.81888413370275 2.121107938549587 28.74092452892277 0 0 0
546 1 -1.2 17.09535142208712 1.2255539612759163 27.326573633911526 0 0 -2
1729 2 2.4 20.352918862164778 0.5796219259771644 27.244065094168633 -1 0 0
1230 1 -1.2 21.359892022909463 1.4688055534089888 28.35254237834914 -1 1 -1
1639 1 -1.2 23.722504902235183 0.8806633052618857 27.300149716863263 0 1 0
133 2 2.4 22.682501887914988 0.5360007555074815 28.486300184055622 0 0 0
1719 2 2.4 24.258872584127975 2.280171868256481 26.679223495131243 0 1 0
955 1 -1.2 25.995380260553162 2.1634922385386064 26.611179572247508 -1 0 0
256 2 2.4 26.881066194648046 0.7117605433075007 26.64853175441142 0 1 -1
990 1 -1.2 27.550227203427404 0.511056052145933 28.13705318757696 0 0 0
1930 1 -1.2 2.607568754049739 2.995705848072138 27.536305126354183 1 1 0
266 2 2.4 3.171953168691899 4.650005976571406 27.869176027225688 1 0 -1
680 1 -1.2 4.697272039285286 4.883889935060283 27.649833126889767 0 0 0
1650 1 -1.2 5.54129068678134 2.8025813626405065 26.6375452708033 1 1 0
1311 2 2.4 5.334311822513311 3.5222137105568754 28.178841153813657 0 0 0
1748 1 -1.2 6.8895818137916685 3.6985985889104978 28.362917541728628 0 0 0
349 2 2.4 8.218806889073795 2.929478457612512 27.958358911449267 1 0 0
11 1 -1.2 8.32791068491118 3.4860937582261218 26.234172097167505 -1 -1 -1
1517 1 -1.2 9.588661179600251 2.989860799638273 28.774544262715324 -1 0 0
1287 2 2.4 10.758464721925435 4.258567595545687 28.572415838859715 1 1 -1
2023 1 -1.2 9.73041729929554 5.474968371131781 28.198802050870377 0 1 1
536 1 -1.2 11.392293154237265 4.044467940612252 27.271371619856247 0 0 -1
1943 1 -1.2 16.77378941516597 3.757756129859107 28.676303770298027 0 1 0
1814 2 2.4 17.39507617257439 5.173796857896319 28.407490586281604 0 0 0
1376 1 -1.2 17.960431411805487 5.4352747144193705 26.924439839630622 0 0 0
2067 2 2.4 24.012005676305147 4.930749914229538 28.613289436687683 0 0 0
1763 1 -1.2 23.984923409472227 3.4379681065519376 27.808790346894757 -1 0 0
545 1 -1.2 0.030869897584910214 3.410135310306928 28.470012009107247 1 -1 0
727 1 -1.2 2.613128414135646 5.6682242929958875 26.820359668667205 0 0 0
492 1 -1.2 2.2840545496852602 8.370127500998557 27.241254705951672 0 0 -1
875 1 -1.2 5.822286166248541 7.465568701859223 28.161757207916956 0 -1 0
1358 2 2.4 6.885030141612634 8.056275162379636 27.039613197589997 0 0 0
1068 1 -1.2 8.405535237663445 7.632651783201745 27.411251429558703 0 0 0
146 2 2.4 9.578090199198344 7.131155804308297 28.44579283130256 0 0 0
1922 2 2.4 12.308443479471727 7.170543382083857 26.6259472658595 0 0 0
1255 1 -1.2 10.886377589932813 7.730761364898656 27.66005847107553 0 0 0
525 1 -1.2 13.686020929328748 6.814157205356456 27.467088362975943 0 1 -1
856 2 2.4 15.399101167658223 7.382732806876866 27.56918835269627 0 0 0
1618 1 -1.2 16.09744749245239 6.293746389286442 28.832950369009613 0 1 0
897 1 -1.2 23.025628926351814 6.021519139182329 27.86350378090697 -1 0 0
1720 2 2.4 22.990049205344512 7.721174260044297 28.263777138146658 0 1 1
1918 1 -1.2 25.66159621970808 5.191443066996874 28.401664728752582 -1 0 0
1059 2 2.4 1.6032982151445814 8.862986395768306 28.690316433703707 1 0 0
480 1 -1.2 -0.026676716470787426 8.930780572056705 28.358195662909747 0 0 -1
1872 1 -1.2 2.2103766013439934 10.32102693683373 29.34049214417229 0 0 0
959 1 -1.2 6.7914522400282396 9.616418761010868 27.612599842853385 0 0 0
924 1 -1.2 11.928194327821931 10.905205667713632 26.48504736591006 0 0 0
820 2 2.4 15.615990705151441 10.597292263227478 27.67197910970127 0 1 -1
390 1 -1.2 15.066691324362047 11.135869817837662 29.057226768145544 0 2 -1
501 1 -1.2 15.876854554483169 9.060087576758056 27.716292541062867 0 0 0
753 1 -1.2 19.104882565517435 8.207734825705801 29.25644365446378 0 1 -1
1746 1 -1.2 21.396386780489056 8.186641700978264 28.06759490509162 -1 0 0
294 1 -1.2 19.561008071124938 10.343650681656802 27.912713734010033 -1 1 -1
1395 2 2.4 20.377143897575703 9.283180696108348 28.828409671404845 0 0 0
1147 1 -1.2 23.445555066177768 8.09257440762402 26.84655529785754 0 0 0
377 1 -1.2 25.842338592045063 9.225821432263942 30.08419257905353 0 1 -1
543 2 2.4 29.142485528488724 9.897408469576206 28.547392280333924 0 0 -1
645 1 -1.2 28.93531943479673 10.770716675562316 27.17159475498118 0 0 0
1137 1 -1.2 1.1264362814632813 13.122496405657943 29.10782532652945 1 0 0
1298 2 2.4 -0.0823271463324272 12.521581135991033 30.242973290601604 1 0 0
1425 1 -1.2 2.862719164218237 11.795733532351067 27.029868847197214 1 0 0
1576 2 2.4 2.7513115175170304 13.007129805769923 28.1817764482193 1 0 0
920 1 -1.2 4.125068949867643 13.39900561933239 28.747221235760996 1 -1 0
1348 2 2.4 6.353959915510605 10.862809994904532 26.670217286245432 0 0 0
1955 1 -1.2 6.169986166504796 11.968647083073497 27.716138881241267 0 0 0
697 2 2.4 5.547754579419581 13.389008951030572 27.88315193985735 1 0 -1
1961 1 -1.2 9.944803730523958 11.48192529431806 28.203055946479175 0 1 0
1982 2 2.4 10.821674737973218 11.982523241410158 26.953788965894223 0 0 0
1723 1 -1.2 11.69384353569526 13.237454491604664 27.380175094895264 0 0 0
1842 1 -1.2 15.03095152187333 11.308830526604297 26.34825179278646 1 0 0
475 1 -1.2 17.252243208933606 11.320026239327621 28.136548062362664 0 0 -1
182 2 2.4 18.823492093965196 11.87287179639557 28.13284869847859 0 0 -1
1559 1 -1.2 18.98100118561561 13.02554549084381 29.179578639047822 -1 0 0
968 1 -1.2 23.844875205910363 10.91276225267312 28.455432580383363 0 0 0
438 1 -1.2 22.782662298678837 13.096242788838445 26.92901018702982 -1 0 0
626 2 2.4 23.92092667782144 12.364351833692202 27.815066531616203 0 0 -1
848 1 -1.2 24.073103868471268 13.339594415598 29.278417727094116 0 1 -1
718 1 -1.2 24.939503909445406 12.311925298142974 26.592263201904995 0 0 0
983 1 -1.2 29.355010642318472 11.249659291980306 29.452072009616295 -1 -1 0
2035 1 -1.2 2.546584770158784 14.576868263520531 27.275697098160045 1 0 0
1527 2 2.4 2.818627829370927 16.1821695669634 27.240600707758787 1 0 0
2050 1 -1.2 5.1898299077539845 14.201829899638327 26.551720596122 1 0 0
1280 1 -1.2 6.605098097251714 14.61853776341746 28.528744220660865 1 0 -1
1848 1 -1.2 8.885249724577706 14.48550891304115 27.019064820901605 1 0 0
181 2 2.4 8.309392060999055 14.639087288116063 28.590983372119666 1 0 -1
1032 1 -1.2 11.03610433272027 15.610144044903537 27.564770081963758 0 0 0
1465 2 2.4 12.448065026963476 14.790897735565354 26.946725856123244 0 0 -1
2011 1 -1.2 13.714412478602766 15.225374668734776 27.817908404351595 0 0 0
862 1 -1.2 21.178991101185197 14.566434791534384 28.20910503054688 0 1 0
484 2 2.4 21.973463884070227 14.658836802678053 26.767752941433336 0 0 -1
537 1 -1.2 23.182836926086615 15.770655080190227 26.256447321527556 0 0 0
1831 1 -1.2 25.095429193242936 15.907261394923426 27.976772578961068 0 0 0
373 2 2.4 25.25231916521736 14.669776790361526 29.11515153410992 -1 0 -1
1397 1 -1.2 26.94899004288324 14.654883321962046 29.057169589872853 0 0 0
921 1 -1.2 1.7255005569658977 17.08392836406526 26.52914542206704 1 0 0
1058 2 2.4 0.6169101566959788 18.233553074636387 26.99479575165954 1 0 0
1435 1 -1.2 3.112198247190049 17.09129845902663 28.453115833998915 1 0 0
821 1 -1.2 3.7730597978166576 19.11994742223409 26.80498147873879 0 0 0
798 1 -1.2 6.195188401718586 18.068632139591706 27.03354462839615 0 0 -1
172 2 2.4 7.625291892086879 17.87144325299528 27.89972568967728 1 0 -1
17 1 -1.2 8.206096381396003 19.42740023176383 28.085788111455436 0 -1 0
1595 1 -1.2 6.99206086997061 17.153428338809753 29.385508877055976 0 0 0
1390 1 -1.2 8.339870581288915 17.168488165203467 26.505287249933456 0 0 0
872 1 -1.2 10.899200390900914 18.165191983332047 28.5347394523409 0 0 0
765 1 -1.2 13.52634983502999 18.297906912269383 28.112175159639193 0 0 -1
313 2 2.4 12.085017500915601 19.12732197497925 28.052091415992557 0 1 -1
369 1 -1.2 15.95379384104138 18.136046604667108 27.60253896983615 -1 0 -1
2042 2 2.4 15.00004792718778 18.132762188098916 28.781252771651292 0 0 0
1303 1 -1.2 19.265833453656438 17.70669178282762 27.302824247656957 0 0 0
25 2 2.4 19.360699027348012 17.408621409043683 28.896909635700865 0 0 -1
1891 1 -1.2 20.97636480607905 17.71521192984402 29.48526055435825 0 0 0
1633 2 2.4 24.678389461389536 16.38347348819141 26.390991098168495 -1 1 0
1008 1 -1.2 23.28794262944008 18.38403906071398 28.40964769727379 0 0 0
1679 1 -1.2 29.926719891863744 17.74070590142691 28.214341178280975 -1 1 0
323 1 -1.2 1.3302790571240648 19.639472036033645 27.474876710463555 0 0 -1
1935 2 2.4 2.738106645272933 20.43416811309334 26.789121482811854 1 0 1
1495 1 -1.2 3.2943904176986476 21.43942599770698 27.804047280914997 1 0 0
2153 1 -1.2 7.827961859927441 21.783955034549454 28.584531761979154 0 0 0
593 1 -1.2 11.480367876017256 19.814249757948613 26.510482876313386 0 0 -1
1584 1 -1.2 12.094294743815142 20.341620975675347 29.161805124340624 1 0 0
573 1 -1.2 20.222988327000934 21.176758168767797 28.653144175123526 1 0 0
712 2 2.4 24.389816777812083 19.009906006999035 27.493739446435292 0 0 0
1776 1 -1.2 24.17369935198158 20.516302488611625 27.00662687501279 0 0 0
2004 1 -1.2 25.820392856156662 19.231556045826956 28.385934326678083 0 0 1
716 1 -1.2 27.427350855377142 21.51275544119433 28.869965802685613 0 1 -1
685 2 2.4 26.733280638439933 20.149836000638324 29.38472772938854 0 0 -1
455 1 -1.2 7.786758584549541 24.242962326940994 27.25989958139013 0 -1 0
175 1 -1.2 10.032995137517666 23.26612523425513 27.35582587925732 0 -1 -1
2150 2 2.4 8.308910395434776 22.764045844618227 27.431530388919708 1 0 -1
650 2 2.4 11.441972096539313 23.614305505295743 26.738298053148167 0 -1 1
1211 1 -1.2 12.892417177345907 22.952694279354237 27.09012204557474 0 0 -1
279 2 2.4 16.383333742398445 22.09816902464596 26.883815828349483 0 0 -1
1108 2 2.4 14.00608854601519 23.687630248505776 28.042323260114273 0 0 0
656 1 -1.2 15.299968559037984 22.797509004927562 27.74126713359556 0 0 0
563 1 -1.2 17.931372473908816 22.078104323938934 27.29719556029037 1 0 -1
1827 2 2.4 19.136313574088234 22.514091675321318 28.291977671578223 0 0 0
113 1 -1.2 19.66857097119916 23.866767653722505 27.739094955593917 0 -1 -1
59 1 -1.2 22.196083041532948 24.62477427698474 28.35003378472119 0 -1 -1
115 1 -1.2 24.45719270670133 23.588970314486843 27.466485692945245 0 0 -1
1672 2 2.4 23.301832676790223 23.57933047583349 28.752227180600386 0 0 0
1634 2 2.4 27.71239261156075 23.227545197016827 28.84166224183562 -1 0 0
610 1 -1.2 27.55885216004764 23.496711296683937 27.269285952537466 0 0 0
75 2 2.4 1.3241420456824824 25.976651003849714 25.971140983032665 0 -1 -1
583 1 -1.2 0.3846869907864776 26.98265043512738 26.86763015254333 0 -1 -1
276 1 -1.2 2.3536551190841872 25.288778725542365 27.186284203675875 0 0 -1
78 1 -1.2 5.090969757728896 25.039431647845124 26.635123778177356 0 -1 -1
2137 2 2.4 3.8735500369078557 25.87008747059329 27.36447262760016 1 0 0
42 1 -1.2 4.31754007525205 27.493524971531087 26.82748036589159 0 -1 -1
183 2 2.4 6.746398320395146 25.026224729868154 26.156531863090112 0 0 -1
31 1 -1.2 11.447281709152245 25.389137028191517 26.2528562202456 0 -1 -1
1357 2 2.4 10.962412256465436 26.798264049896694 26.89137131885886 1 0 0
905 1 -1.2 10.746871271380403 26.737030643573306 28.365646290679226 0 -1 0
1319 1 -1.2 14.340959994894108 25.218927239026286 27.213774324558063 0 -1 0
1192 2 2.4 15.505409329096214 26.23990543022829 27.208404992754634 0 -1 0
582 1 -1.2 15.900072160634924 26.92899259494358 28.625833541392097 -1 -1 0
1949 1 -1.2 20.321480251182905 26.337298406768962 26.686371128479802 -1 0 0
1708 2 2.4 20.40743109182267 25.260901557831957 27.927644372896122 0 0 0
177 1 -1.2 19.84009148510247 25.770744796025607 29.321952329181237 0 0 0
1215 2 2.4 2.1899986112094996 30.314109940537122 28.254770454596 0 0 0
249 1 -1.2 1.3224598189603634 28.941490289977715 28.401444641277614 1 -1 -1
1693 2 2.4 -0.006845691168693424 27.950156820257412 28.124614187617773 0 -1 0
1785 1 -1.2 3.366079716071235 30.100536136259148 27.359838926394957 1 -2 0
975 2 2.4 7.221264161033345 -0.12897875411533022 27.488558439301382 0 0 0
1591 1 -1.2 6.823077495973779 30.157976348581197 29.041803920712265 0 0 0
980 1 -1.2 9.956833011354666 27.457706588375483 25.83793519971524 0 -1 0
1688 1 -1.2 13.870969298553794 30.036172482767338 27.543770161651793 0 0 0
446 2 2.4 13.683126942670695 28.62241808150148 26.607762811057178 0 -1 0
287 1 -1.2 14.826877243609497 27.488440080581615 26.31688584650043 0 0 -1
2099 1 -1.2 16.2054684775872 29.558428261174488 28.82879383468438 -1 0 0
957 1 -1.2 18.26910124082084 27.939307800002013 28.918139518358455 -1 -1 -1
1704 1 -1.2 19.64032637961212 29.85680751973577 28.184872142920405 0 0 0
412 2 2.4 20.599988308105566 29.6073755785876 29.507756235724234 0 0 -1
442 1 -1.2 22.037571089549843 29.589647449910853 28.75556708077829 -1 -1 -1
93 1 -1.2 25.829848127856643 29.898025332613948 26.40654355630683 -1 0 -1
1284 1 -1.2 29.12214107925175 28.899697294477132 28.17872914082692 0 0 0
557 1 -1.2 3.836482053798752 1.3296339421342283 31.743759897694407 0 0 -1
1713 1 -1.2 4.334412604713027 2.9060187519483773 29.572724834879722 1 1 -1
510 1 -1.2 2.9789912957301814 0.24429030633814608 29.60097703389829 0 0 -1
1742 2 2.4 3.841754671750977 -0.1228322521720831 31.09575541913624 0 0 0
440 1 -1.2 7.7210627084493035 30.357498205043157 31.502863361476997 0 -1 0
1266 1 -1.2 17.683299218435064 1.693194000995593 30.024021349466455 0 1 -1
997 2 2.4 18.713843710986207 1.2474484266685937 31.11440442491634 0 0 -1
307 1 -1.2 18.072563375725743 0.31223237865419656 32.39054400098951 0 1 -1
1543 1 -1.2 19.67488561281296 2.4155355870598036 31.785506931733174 0 0 0
726 1 -1.2 23.404271974808076 0.9476451565074243 29.870426719469155 -1 1 -1
110 2 2.4 23.588155859594227 -0.06799277631154584 31.233146024904645 0 0 -1
46 1 -1.2 24.99419250493253 0.5438311739503529 32.06428699890987 0 0 -1
781 2 2.4 29.712537881569062 0.604855346173321 31.37551738540785 0 0 -1
822 1 -1.2 28.49121987298963 30.28327683310422 30.54284790217261 0 0 -1
2159 1 -1.2 29.931308398376512 2.1065166550048944 30.580899263091645 0 1 0
819 2 2.4 1.433894429723038 4.958890717422534 31.910005273177553 0 0 0
1054 1 -1.2 0.07044945763272589 4.636282843073807 30.885256456192796 1 1 0
464 1 -1.2 2.4083608981373934 3.5088621381633995 31.809059530764344 0 0 0
1802 2 2.4 3.9142732640622038 2.919792220941692 31.1862943115956 0 0 0
1833 1 -1.2 5.02585632876204 3.739470093839473 32.0706794717785 1 1 0
1047 2 2.4 6.34036566423542 4.745616673994012 31.762545165116883 0 0 0
744 1 -1.2 7.612652405969367 3.687059713047647 31.69115250624593 0 0 -1
730 1 -1.2 12.168831620133405 4.403073629301345 29.6066498308839 -1 0 0
1132 2 2.4 13.070191583488574 4.910694162193019 30.991501205002777 1 1 1
692 1 -1.2 14.520347721260848 4.487316059851107 30.654904985450386 0 0 0
324 1 -1.2 18.791059402034456 5.292251297583743 29.23725299213881 0 1 0
1889 1 -1.2 17.15359607164084 4.53851716403368 31.00293976886707 0 1 0
629 1 -1.2 19.594515761645113 5.040335849627332 31.716622372354117 -1 0 -1
739 1 -1.2 21.879150408307247 3.5293337296459097 31.75850615796434 0 1 -1
132 1 -1.2 23.43517865762879 4.923167378621443 30.18858629027183 0 0 -1
1504 2 2.4 23.005730252307096 4.85616127103513 31.672476880680758 0 0 0
1531 1 -1.2 28.307133062165608 4.297257437962141 29.61680237535949 -1 0 0
244 2 2.4 29.708749423599585 3.5947568222871595 29.96242545993744 -1 1 -1
1772 1 -1.2 1.670005043734518 7.6126518119823565 29.588611941570814 1 0 0
1078 1 -1.2 2.3865465825741574 6.204906454772476 31.639655304958456 1 0 -1
1743 2 2.4 2.925527864161348 6.559012101068559 30.11185896411 0 1 0
1810 1 -1.2 2.717726552197067 5.064149271816336 29.427022959171936 0 0 0
1673 1 -1.2 4.434072152382369 7.499002399809811 29.99452111892664 1 1 0
797 1 -1.2 6.44067467771856 5.759758977680511 30.51758964906767 -1 1 -1
1779 2 2.4 5.987390670057469 7.18860932555001 29.79002148315508 0 0 0
1666 1 -1.2 9.35909219138632 7.746196535365965 29.963199548702338 0 1 0
847 1 -1.2 12.888550949017812 6.458380334633285 30.962023451427278 1 1 0
1466 2 2.4 13.133010149009237 8.148235987528263 31.239055539075288 0 1 0
1288 2 2.4 18.523067872000595 5.657860821849251 30.692516350391415 0 1 0
1992 1 -1.2 18.154504300605957 7.085786357203169 31.273457217487387 1 0 0
2040 1 -1.2 22.29044109203833 6.314027281880803 31.98591587346344 -1 1 0
1328 1 -1.2 26.068859166190446 4.848523166525521 30.97468155376138 -1 0 0
87 2 2.4 26.905033446896105 5.260073854222187 29.634652848585887 -1 1 -1
2024 1 -1.2 27.58325444367511 6.663892616419925 29.94806623342525 -1 1 0
1157 1 -1.2 2.43960260221077 9.593894544055052 31.927447101935392 0 0 -1
1682 2 2.4 2.1040765470412 10.817255230792243 30.987342805621093 0 1 0
1628 1 -1.2 6.888409059526251 8.269406047043791 30.480445395342635 0 -1 0
1202 2 2.4 8.379569448909375 8.668382497995976 30.950186480467373 0 1 0
558 1 -1.2 8.480842250628436 10.596037277055592 30.312511966566227 0 0 0
114 1 -1.2 8.685781542735134 8.504804899786373 32.45390329475375 0 -1 0
1795 1 -1.2 11.957443445511105 9.305923740016592 31.227670192765096 0 0 0
2043 2 2.4 11.395115980212093 10.902256180106699 31.78985803206245 0 1 0
1565 1 -1.2 14.167445234970163 8.825165716141724 30.21590454128604 0 1 -1
362 2 2.4 15.495149172663378 9.954341467271668 30.393036504775857 -1 1 -1
1985 1 -1.2 15.146238790336525 10.555112248194206 31.831496958960223 1 0 0
1379 1 -1.2 16.68335691203904 9.087405975468783 30.17666079693835 -1 -1 0
289 2 2.4 18.229904120977178 8.564374961843336 30.452642457349533 0 0 -1
1750 1 -1.2 18.941437408160507 9.794792255614132 31.181553316729936 -1 0 0
497 1 -1.2 21.17044359932078 10.060324164044026 30.080778331068593 0 0 0
100 2 2.4 20.525999987791764 9.869226229155805 31.489878917076318 -1 0 -1
1916 1 -1.2 23.287019731042946 8.459411450670542 29.643157861898622 -1 0 0
1431 2 2.4 24.40948891756507 9.769927774127714 29.791708514193907 0 0 0
430 1 -1.2 23.80244327277071 8.441844781237762 32.44252656683128 0 0 -1
1588 2 2.4 24.262996749780832 10.141744092665572 32.71236591517066 -1 0 0
192 1 -1.2 24.073722256191864 10.787597616521294 31.105465206270765 0 1 -1
964 2 2.4 27.350270446731695 8.389902041045232 30.18464939839985 0 0 0
1232 1 -1.2 27.888640677034683 9.055063525155674 31.608243722137185 0 1 0
1824 1 -1.2 27.90810273438588 8.882304995225288 28.832712775400356 -1 0 1
1399 1 -1.2 0.6014774846625248 11.634563436939516 31.36322592818405 1 0 0
82 1 -1.2 3.1320731138096094 11.970502315367504 31.10030713893488 0 0 -1
1259 1 -1.2 3.5980059576539976 14.20415490447147 32.24691393688282 1 0 0
1138 1 -1.2 8.673290704668638 13.301831864371497 29.32293844636781 0 0 -1
1177 2 2.4 9.384114435136839 11.836820067896802 29.779444741503625 0 1 0
936 1 -1.2 10.6290936837291 11.998557362245757 30.69687648916909 1 0 0
540 1 -1.2 20.80169208953647 14.098393911237496 30.478141229581265 0 0 -1
18 1 -1.2 27.181236223194517 11.61379504665653 32.10886446185992 0 0 0
809 1 -1.2 2.447542414831766 15.736462588838112 30.38732764239018 0 0 0
1117 2 2.4 2.221740889730475 14.99232225412483 31.828230336242466 0 0 0
1367 1 -1.2 7.424286276948206 16.38552226411765 31.899998952768648 1 -1 0
1045 2 2.4 10.82859188452569 16.587143427782053 28.948930121512095 1 0 0
1812 1 -1.2 9.45813687015045 15.695989022594597 29.344026613886193 0 -1 0
1909 2 2.4 13.779541875293082 15.685713556345624 29.441364117391537 0 0 0
694 1 -1.2 14.08393949999355 14.835564658974276 30.70941185390348 0 0 0
165 1 -1.2 19.043823290111607 15.81250334858218 29.080324351378017 0 0 -1
748 2 2.4 19.81392850651912 14.393654106554694 29.295962707973544 0 0 -1
772 2 2.4 21.058910046427652 14.51899093475739 32.16431936044979 0 1 0
199 1 -1.2 22.357220109947097 15.575021977405456 32.04412930846346 0 0 -1
1586 2 2.4 23.80428484314564 16.203185673652445 31.57515434238043 0 0 0
1643 1 -1.2 24.7491874523047 15.504052974751275 30.46710610141045 0 0 0
420 1 -1.2 27.279676567367538 14.743832248521063 31.6636405665916 0 1 -1
2052 1 -1.2 29.18883474161768 13.801067022536463 30.24847623022006 -1 0 0
1454 2 2.4 28.116781536124307 15.130937728220577 30.235817053004844 -1 0 0
1946 2 2.4 1.4589197918928645 19.41597736887848 31.198700963499366 1 0 0
1496 1 -1.2 2.5712756551342686 18.199272184653882 31.0202015174156 1 -1 0
534 1 -1.2 4.978305382759174 16.662840233358086 30.882248048940713 0 0 -1
97 2 2.4 3.273625749063582 17.049255860074787 30.174304287104196 1 0 -1
1741 2 2.4 6.444093130799391 17.11443809271259 30.893623782162145 0 -1 0
204 1 -1.2 5.99452919900343 18.53084027133619 31.60521824880072 0 0 -1
1476 1 -1.2 12.151732328387848 16.49169915698263 29.82292493466491 0 0 0
742 1 -1.2 15.04346404175592 16.722300967817297 29.404726300438725 0 0 -1
832 2 2.4 18.37020817857872 18.856346632417278 31.720118931641004 0 0 0
1652 1 -1.2 18.730386885772276 18.35106446004497 30.11276527935048 1 1 0
1419 2 2.4 22.38530942168603 18.361973682483573 29.733731228557303 0 0 -1
1075 1 -1.2 23.289990029477643 17.800177764150202 30.904238910053458 0 -1 -1
258 1 -1.2 0.1683929238009396 18.78592060339467 30.343198656082254 1 0 -1
406 1 -1.2 28.858554528703912 16.529299303377968 30.341879425694923 0 0 0
1021 2 2.4 29.36684024456954 18.169204947717546 29.63391859127808 -1 0 0
48 1 -1.2 28.297380308881333 19.46614016633295 29.686812412648752 0 -1 -1
861 1 -1.2 2.1435492568313785 20.673596287157114 30.274196267361393 1 0 -1
1609 2 2.4 4.156803796639804 21.528464923168393 29.08758780171123 1 0 0
1661 1 -1.2 4.939131174600151 20.228578051331002 29.58239681608048 1 0 -1
974 2 2.4 5.65540813857043 19.97040354041672 31.01580087145114 0 0 0
1510 1 -1.2 7.076728488092142 20.73414401720709 30.591517628307933 1 0 0
2056 2 2.4 8.19985035641299 20.46036919133733 29.394059464819307 0 0 0
1906 1 -1.2 9.599052665991918 20.427170235827745 30.12520169470843 0 0 0
793 2 2.4 11.120643416668138 20.87327812512203 30.323856169791046 0 0 -1
211 1 -1.2 11.309438647149682 20.57630058149116 31.912479430834654 1 -1 -1
456 1 -1.2 15.797375387236048 19.30587643466539 29.71382405508291 0 -1 -1
1237 2 2.4 15.673477741651196 20.25596751952714 30.904446279270807 0 -1 -1
1674 1 -1.2 16.016732500904634 21.896371192893017 30.364967707782064 -1 0 0
345 1 -1.2 16.894403092112515 20.070292368160683 32.07913128375659 0 0 -1
1359 2 2.4 21.629916188284557 21.26857949306101 29.74569353981706 0 -1 0
269 1 -1.2 22.18097109693592 19.854101073456647 30.26774166134781 0 0 -1
570 1 -1.2 21.042113770509648 21.733063337198104 31.15425979020539 1 -1 -1
1174 1 -1.2 26.047179296650384 20.547906337082843 30.92505669311888 -1 0 0
1252 2 2.4 25.88063750334783 20.82061228533583 32.51275724644387 0 0 -1
250 1 -1.2 0.7957474359658333 22.657373213243947 31.284759284539273 1 0 -1
854 2 2.4 2.287764967539833 22.166996181041977 31.109722567597995 1 0 0
311 1 -1.2 5.232734396270549 22.97211913188579 28.936234415459815 0 0 -1
351 2 2.4 4.487301069713702 24.133560544088088 29.702141570351483 1 1 -1
1402 1 -1.2 4.760999315369209 24.602905148943826 31.204706076461687 1 0 0
994 1 -1.2 11.217798472840494 22.416532471513506 30.016681404475857 0 0 0
422 2 2.4 12.330012984122078 23.674888801927665 30.341397449790232 1 0 -1
358 1 -1.2 12.551333196909955 23.86809841714159 31.96565288767984 1 0 -1
2107 1 -1.2 13.941832886852486 23.78778112033016 29.884185915928164 0 0 0
813 1 -1.2 18.368502100755922 22.908585730125672 29.586432180197356 0 0 0
1549 2 2.4 17.368998471106185 22.848525037236215 30.88553556857252 0 -1 0
1170 1 -1.2 16.989719727377995 24.081357215792657 31.635985310244994 1 0 -1
923 1 -1.2 24.28641529956928 23.959408128432027 29.982915788103078 0 0 -1
1786 1 -1.2 22.837390098137643 22.101591205982896 28.871102195269334 0 -1 0
719 1 -1.2 26.88425607168723 24.303691698525924 29.672894346697106 0 -1 -1
900 1 -1.2 25.635649521505343 24.891984010639856 32.044232927968444 0 -1 -1
397 2 2.4 29.924796429505164 23.712795463126884 31.185692797706757 0 0 -1
1568 1 -1.2 29.165660112175413 23.228889398032948 29.71666988812881 -1 0 0
427 1 -1.2 -0.05223584878704895 26.75029463478153 29.269020200918604 1 0 -1
1136 1 -1.2 4.054170236391032 25.487234124923194 28.921767872956067 0 0 0
356 1 -1.2 3.230680017002532 22.98704867813157 30.06506157384233 1 0 0
1204 2 2.4 8.191363412502861 26.913235778767962 31.476382454609944 1 0 0
1631 1 -1.2 9.072417742729106 26.119446565531835 30.429104266396113 0 0 0
1744 2 2.4 10.746934807476968 26.229111099029723 29.877792534847934 0 -1 0
317 1 -1.2 11.157752651967096 24.73471800688236 29.551733347704783 1 0 0
689 1 -1.2 11.758002158538485 26.61928410764877 30.958967136054905 1 0 -1
2049 1 -1.2 18.235747350965294 26.621501832411436 31.137836021580245 -1 0 0
1275 2 2.4 17.622894522697383 25.51837448481161 32.33437125335912 0 0 0
339 2 2.4 19.258578798725527 27.12733639878883 30.029901405883983 0 0 -1
1574 2 2.4 25.529003791118825 24.876429068328274 30.431647324732282 0 0 0
1579 1 -1.2 25.174233089954125 26.518967301505402 30.168863745555498 0 0 0
705 1 -1.2 26.44213605046443 27.857611698389302 31.88433663032363 0 0 0
1950 1 -1.2 0.2074800779805079 25.16334304582304 31.33030993628728 0 0 0
1862 2 2.4 30.216903390474943 26.729375380448612 30.871887261272043 0 -1 0
1500 1 -1.2 0.6373434289320823 30.1870350982634 31.4337116464795 1 -1 0
227 1 -1.2 0.7430225648788007 27.635610644178644 31.785541054688267 1 -1 -1
1725 1 -1.2 2.754838430544383 29.22000095111924 31.70816416018691 2 0 -1
128 1 -1.2 5.278514216597243 29.88484737943739 31.03999494384552 1 -1 -1
1767 2 2.4 6.823890257062971 29.54412292504524 30.445622323103006 -1 -1 0
1871 1 -1.2 7.258312640365112 28.02238684288874 30.629140078457997 1 -1 1
2071 1 -1.2 14.264437953287567 30.252098494181432 30.288202002240865 0 0 0
2053 2 2.4 16.756155782230657 28.15319329270347 29.38965941666023 0 0 0
85 2 2.4 14.759305503674234 29.27172547438641 31.477529024024893 0 0 -1
404 1 -1.2 15.938514542999856 28.276819184857604 30.796737699186377 0 0 -1
92 1 -1.2 19.78499043317081 0.15161850467897106 30.602032314018825 -1 0 -1
1991 1 -1.2 20.60209734300071 28.266623267657266 30.405551615087003 0 0 0
36 1 -1.2 24.30937734324655 29.16517437741432 30.65789883270873 -1 -1 -1
95 1 -1.2 26.373653558081845 28.900893395185815 29.182974244524328 -1 -1 -1
26 2 2.4 25.498272100599376 28.060395008634018 30.423333462917995 0 0 -1
505 2 2.4 27.927097927643683 29.772815811434096 29.092707265463 0 -1 0
1267 1 -1.2 28.701698358064935 27.279465137608423 31.123485526664897 0 0 0
796 2 2.4 7.395910741647494 0.29872631750712036 33.06919956154357 0 1 -1
1770 1 -1.2 8.332295730873843 1.82578125362722 33.1979608372377 0 -1 0
1605 1 -1.2 6.075187777864848 0.330424787255093 33.946887685597154 0 1 0
1937 1 -1.2 15.476962955159967 30.2345728194762 32.68746479284035 0 -1 0
1667 1 -1.2 17.01145785424701 1.4167767327483243 34.43118175461647 0 1 -1
1898 2 2.4 16.83621643692681 0.2193011439193307 33.45768818538862 0 0 0
1344 1 -1.2 25.125328183129643 2.039280775312903 34.364461128875924 -1 0 0
1539 2 2.4 25.88288337606428 1.4702011654022507 33.07761021749357 -1 0 0
468 1 -1.2 26.83328062620629 0.17987356774892313 33.74502507037755 0 0 -1
683 1 -1.2 29.297102807855165 0.7530754757488488 32.909151108604725 0 0 -1
2041 2 2.4 28.268609984755518 30.194566723465563 33.91477909048319 0 0 0
1200 1 -1.2 0.690076514913178 5.101150246957735 33.27810862896647 0 0 -1
1098 1 -1.2 7.708547048003368 4.228069665036009 34.43349291501252 0 1 0
1034 2 2.4 8.402686257090723 3.353212705730586 33.27773782783848 1 1 0
2124 1 -1.2 9.649478358825853 4.571171317981117 32.84677988505147 0 1 0
1552 2 2.4 11.040359073818276 5.074069072123748 33.23630362781898 0 1 0
996 1 -1.2 11.2584392351595 4.775009878679006 34.94218152292337 0 0 -1
513 1 -1.2 12.430708036155483 4.399173196608478 32.31878733733925 0 1 -1
831 2 2.4 15.770004642674538 4.573688633185936 31.794532801200578 0 1 -1
977 1 -1.2 15.889450797468447 3.295774457359495 32.99809336934126 0 0 0
661 2 2.4 16.518565241918814 3.0301616429183262 34.60825450219434 0 1 -1
10 1 -1.2 17.957468563188648 3.7581307751815287 34.844922386416286 0 0 -1
987 2 2.4 20.244813875218615 3.666763570131411 32.44055442108784 0 0 0
1235 1 -1.2 20.29067974064601 3.5250645362646584 34.05458781684778 -1 1 0
1125 1 -1.2 24.190355425121822 4.441303301536701 32.77226095738926 0 1 -1
1123 1 -1.2 26.311688062930212 2.8485544198631425 32.323491471615014 0 0 -1
603 2 2.4 25.751170865182576 4.389044162338168 32.42316923862898 0 1 -1
1057 2 2.4 27.95197219937226 5.6561666697442 34.56705495203627 -1 1 0
625 2 2.4 0.44552106059345253 6.642876339124287 33.8305068273011 1 0 0
1615 1 -1.2 0.617496414125008 8.058174338115116 33.016176207373626 1 0 1
1512 1 -1.2 3.371131567229897 8.08734211079459 34.11844254576069 1 0 -1
1469 1 -1.2 6.4303312454675865 6.145454568727853 32.86997175607397 1 1 0
1225 2 2.4 7.053860682734157 5.900121600830807 34.2616932894341 -1 1 0
394 1 -1.2 8.055601350890656 7.160110108418891 34.40133451031156 1 1 -1
191 1 -1.2 10.654848633154655 6.5768412216905885 33.391536974661676 0 0 -1
2139 2 2.4 9.465877158757905 7.624458728608886 33.675772195950906 0 1 0
80 1 -1.2 13.94772282691502 8.106927790191813 32.79874753420192 0 0 0
1330 1 -1.2 15.464779355159937 5.9440452282869005 32.61401130272282 0 0 -1
553 2 2.4 15.334656890970136 7.339047913763115 33.43833991882733 1 1 -1
487 1 -1.2 16.617534406967383 8.414174680885631 33.3741506068455 0 0 -1
2148 1 -1.2 21.188053894539284 8.67687265282629 32.388208020396064 1 1 0
40 2 2.4 22.425214586248522 7.70680397225314 32.972081185927884 0 -1 -1
1260 1 -1.2 22.452823558435483 6.869175499824319 34.48979572936917 0 0 -1
58 1 -1.2 26.993162392430396 5.387978257393727 33.23597527848913 0 0 0
2025 1 -1.2 29.186451128366226 6.676327610673274 34.04347478984746 -1 0 0
495 2 2.4 2.1180390661770123 8.81644013722871 33.377078943792185 1 0 -1
1062 1 -1.2 1.3338938771139286 10.010594213525305 34.19425940052755 1 0 0
225 1 -1.2 10.114486768512808 8.703683312412599 34.70972908360676 0 0 -1
44 1 -1.2 20.678139315351814 11.166763862351452 32.37917543377458 -1 0 -1
383 1 -1.2 23.17646267552416 11.223080846510825 33.117966807645494 -1 1 -2
1297 2 2.4 27.42408522530299 10.187389399082296 32.724727087958755 -1 -1 0
463 1 -1.2 25.744530234536608 10.264317864608756 33.11219767215418 -1 0 0
681 1 -1.2 28.03537999432184 10.043784890220453 34.26440652437803 0 0 0
1557 1 -1.2 0.7807293290099042 14.020082313588155 32.00642534567135 1 0 0
1551 2 2.4 1.990397776523978 11.447941125699872 34.71822997646236 0 0 0
624 1 -1.2 1.0118824200482293 12.868631529584762 34.39905035458857 1 0 -1
1264 2 2.4 0.012663981825403313 13.764653790729197 33.46344619069026 0 1 0
1018 1 -1.2 3.369136665631618 11.958272729888254 33.89747267651587 1 0 0
1011 2 2.4 3.9043153366704595 12.549972558368697 32.566367632005566 0 0 0
1091 1 -1.2 5.487503367199572 12.203680530525707 32.5602424041071 -1 1 0
1936 2 2.4 6.759725799480866 12.66491098435796 33.565165244449446 1 0 0
336 1 -1.2 8.108101528331062 11.940874691576141 33.10680335010309 1 0 0
1843 1 -1.2 10.701206495675624 11.242477803136898 33.1913911866986 0 1 0
622 1 -1.2 10.042223252353095 13.499014745669285 34.408898435521266 0 0 -1
1706 2 2.4 9.469405760984845 11.962388985742782 34.07168028276628 1 0 0
333 1 -1.2 12.863791784438842 11.704120989583306 31.849886158528893 0 1 -1
1901 1 -1.2 15.182061082518604 13.047284316827383 32.40907943441381 0 0 0
206 2 2.4 14.23921015979619 11.73422019381212 32.58528454197142 1 0 -1
1377 1 -1.2 14.322911045607098 11.291361436965012 34.284950522809154 -1 0 0
1081 2 2.4 21.715280112849143 11.710595772551706 33.438382709122884 -1 -1 0
881 1 -1.2 21.83353032686705 13.340421294568856 33.00114966383887 0 0 -1
1087 1 -1.2 21.290810501274084 11.586037364652041 -0.029326183172855735 -1 0 0
1405 2 2.4 26.87862427722114 13.35164656445724 0.06621701641227734 -1 0 1
666 1 -1.2 26.245665028271357 13.412158192176216 33.72711926882585 0 0 -1
1154 2 2.4 27.430591218676074 13.289144153524841 32.49748193816479 -1 0 -1
2143 1 -1.2 28.914662932743415 13.040662488550693 33.149091656964124 0 1 0
1484 1 -1.2 30.2051408870644 15.199495638377755 34.24979382549238 0 0 0
37 2 2.4 1.1686645145851515 16.20152334030107 34.45840532172514 0 -1 -1
215 1 -1.2 1.9175523702573583 16.012324151399067 32.971439903775185 0 0 -1
12 1 -1.2 7.128349559099098 14.38062431108858 33.52121389698618 0 0 -1
2031 2 2.4 7.6745662604165705 15.958232816176992 33.53158562546398 0 0 0
137 1 -1.2 7.073257783401959 17.08838401066286 34.63135155979035 1 0 0
1573 2 2.4 10.194634053048583 15.05944543196776 34.8286880823355 1 0 0
799 1 -1.2 9.297259521192553 16.05858928158223 33.706842963309136 -1 1 -1
1815 2 2.4 12.9945568718699 14.709869922194581 34.91793834345377 0 0 0
787 1 -1.2 11.711496072491373 15.595695697006352 34.576356288497564 1 0 -1
1050 1 -1.2 13.695765461687136 14.306550723472066 33.52700088063316 0 0 -1
842 2 2.4 14.765068165708042 14.632019760023388 32.301758938680564 0 0 -1
393 1 -1.2 16.16927593373545 15.326046235168873 32.49857582816961 0 1 -1
1578 1 -1.2 18.927486407296936 13.726788877234425 34.749419627217364 1 0 0
1945 2 2.4 16.78211256983895 16.539520426022296 33.49407178037901 0 0 0
1023 2 2.4 19.29125545145501 15.236748226526686 34.403323248965584 0 0 -1
1380 1 -1.2 19.951557639856038 15.370418442988754 32.9545975178183 -1 0 0
1965 1 -1.2 23.16606851729151 15.553142352509385 0.06191759485422342 0 0 2
749 1 -1.2 24.44513573897811 16.5735907539269 32.99756934619899 0 0 -1
1160 1 -1.2 0.8226203117633195 17.869489381925174 34.47119352986527 0 0 0
2007 2 2.4 0.22960704235385102 19.173556439408237 34.05144433841388 1 0 0
1436 1 -1.2 15.480862837209866 17.351505171787828 34.48191568843515 0 0 0
1116 1 -1.2 17.77545647805501 17.543343175450246 32.721032235528774 1 0 0
2081 1 -1.2 17.87770292958205 16.159349177420374 34.601695345502186 0 0 0
1069 2 2.4 23.974742664932556 16.749971485444814 34.47679055569916 0 0 0
779 1 -1.2 23.210776562047336 18.118402255924174 34.38676050184829 0 0 -1
1085 1 -1.2 28.989564513936912 18.821862961203333 34.35750590725101 -1 0 0
1449 1 -1.2 0.8369552134163706 20.121693169883656 -0.05662124807060283 0 0 1
1902 1 -1.2 0.8029986041522124 19.514304669396733 32.62297562295565 0 0 -1
755 1 -1.2 4.8044327903191135 20.852647252433268 32.0457416391727 0 0 -1
239 1 -1.2 3.1592810604040094 20.082545108904995 34.219738221960995 0 0 -1
230 2 2.4 3.939106986387992 21.34538024590793 33.358454212280435 0 0 -1
1016 1 -1.2 4.873699372573468 22.064834134647544 34.43306228260672 0 -1 0
547 1 -1.2 7.480279627914987 21.434778529995143 34.61872223556123 0 -1 0
634 1 -1.2 12.581679262266324 19.423242014719612 33.89601939990725 1 0 -1
1382 2 2.4 12.862693414828312 20.462640108189404 32.62679359844947 0 0 0
1890 1 -1.2 13.555640485969757 21.828757633441583 33.132108465365604 0 0 0
1424 1 -1.2 14.147029832389393 20.2045375975505 31.562018376986945 0 -1 0
1797 1 -1.2 19.561705053748494 19.766041582372353 32.417677422223555 0 -1 0
1394 2 2.4 21.139651994445707 21.834376427451726 34.68255834477443 0 0 0
411 2 2.4 19.817382609899656 21.441486122481997 32.136076697137106 0 0 -1
1845 1 -1.2 20.303574410134694 22.422429610903666 33.383190978258156 0 0 0
346 1 -1.2 22.30788099674776 20.694100606198077 34.466062828031056 0 1 -1
221 1 -1.2 24.60709263994494 19.941018586968656 33.080606103149165 -1 0 -1
711 2 2.4 23.61519140257011 19.730097424706116 34.42783968789279 0 0 -1
1439 1 -1.2 27.138501378435087 20.182603419604742 33.285293391051624 -1 -1 0
1993 2 2.4 28.160408937183867 20.246098982035956 34.527188669483586 0 0 0
117 1 -1.2 29.20267565300836 21.541085693557704 34.278841561997936 0 -1 -1
212 1 -1.2 0.6318140698019444 23.64532787857177 34.23817207659094 2 0 -1
2136 1 -1.2 2.8222392910082945 25.00598276612564 -0.047184696503732526 0 1 0
766 1 -1.2 2.9443835767913047 22.4081766458803 32.48108362784437 0 0 0
1020 1 -1.2 6.554094577241414 23.469692357960017 32.86883868829919 1 -1 0
2149 2 2.4 7.46870211757804 23.025277067088194 34.21191200105859 0 0 0
1621 2 2.4 5.980954630528218 24.81609919727777 32.41702564163943 0 0 0
1387 1 -1.2 9.123787967700512 23.411184792453312 34.14387149576642 0 -1 0
125 1 -1.2 11.66901888661777 23.503122539845474 34.44281794673361 1 0 -1
2078 2 2.4 13.149795144933481 23.323359620394662 33.3451658179965 1 0 0
1654 1 -1.2 14.49830861823908 24.208218882775203 34.039726496203386 0 0 -1
1122 1 -1.2 18.40167781464835 22.143671980060773 31.950052790090545 0 0 0
504 1 -1.2 23.62331635283059 23.80663186956973 33.69818627795384 0 -1 -1
1585 2 2.4 25.254074424542296 23.837742585885646 33.40813474452072 -1 0 0
1817 1 -1.2 25.551819754166118 22.293015111459777 32.98645535175956 -1 0 0
366 1 -1.2 25.958730893521764 24.780397975636372 34.44250776435916 -1 0 -1
43 1 -1.2 28.521605631383757 24.238175334061175 34.893758463006854 0 0 -1
220 2 2.4 29.50351498193153 23.115704047527707 34.02501150835 -1 0 -1
1447 1 -1.2 29.231902579246064 23.377352425204826 32.424877793698286 0 0 0
265 2 2.4 4.1119251245558335 26.02629898243168 34.736067694399054 1 -1 -1
391 1 -1.2 3.50663311018627 27.340812598310805 34.1915386792613 0 0 -1
1194 1 -1.2 5.053524283326208 25.190177892281252 33.71928205077212 1 0 -1
958 1 -1.2 6.999659564684898 25.91478321328211 31.782125001075425 0 -1 0
1855 1 -1.2 7.322199677057834 27.598794102002614 34.502157144659954 1 0 0
1632 1 -1.2 9.955952987915268 25.66791737441506 34.445125253878864 0 0 0
1086 1 -1.2 9.170501645237685 27.69075117902162 32.61588316514622 0 0 -1
2029 2 2.4 12.767879156691345 27.210053658963062 32.10988843497457 0 0 0
1801 2 2.4 10.930716246690594 27.042054405726272 34.71681219182547 0 -1 0
35 1 -1.2 11.821819157596417 27.266254206497866 33.38475354519764 0 -1 -1
826 1 -1.2 13.81705541562177 26.002953370484843 32.28413205863917 1 1 -1
782 2 2.4 14.749750683774131 25.800093394406407 33.62094935993216 0 0 -1
919 1 -1.2 16.345233289692178 26.23557982009592 33.04762036082262 0 0 -1
149 1 -1.2 18.547580462872762 27.109429826343938 34.58168963553631 0 -1 -1
1975 1 -1.2 18.851293263082187 25.0068394358621 33.10218537840557 0 0 0
326 2 2.4 19.077163243633887 25.56853625209312 34.67160156185575 0 0 -1
652 2 2.4 27.3018801237795 25.43638815440447 34.72908210504925 0 -1 -1
1644 1 -1.2 28.01244137653985 26.02001628712198 33.29731410581896 0 0 0
1251 2 2.4 1.383399156629836 29.08896200320265 32.41826970117074 0 0 0
1231 1 -1.2 1.6868393543074514 29.109019626488678 34.035326845466074 0 0 -1
1988 1 -1.2 3.5736316135101314 29.989028227863336 -0.07925759896271443 0 0 1
1072 2 2.4 2.7875799000988914 28.59693451323976 35.03797655743601 1 -1 0
1914 1 -1.2 8.521640183808639 29.948316010535745 33.93134298897339 0 0 0
2077 2 2.4 8.861075604520897 28.262603380923892 34.10684815815831 1 0 0
526 1 -1.2 13.260537311162693 28.55537252096787 31.500631590673276 0 -1 -1
568 2 2.4 17.987907891821898 28.570128182283174 0.189702306099651 0 -1 0
562 1 -1.2 17.03805078132879 29.34878257065936 34.32884534620901 0 -1 0
1187 1 -1.2 19.437348090042057 29.4935017760361 0.4238736502748299 0 0 0
2085 1 -1.2 21.684948205833905 28.26372813841578 34.25566368300775 0 0 0
1870 1 -1.2 22.693782155327952 30.036439264875053 32.537748845315484 0 -1 0
1488 1 -1.2 24.24593060588218 29.477836970028402 34.619776151350095 0 -1 0
2127 2 2.4 22.602679103790386 29.59340250981977 34.13939852143948 0 0 0
783 2 2.4 27.818775203363995 27.400130941264447 32.54857554823463 0 0 -1
426 1 -1.2 28.33384589136576 28.582939717584576 33.52509151075782 0 0 -1

Velocities

684 13.915478029457205 4.23966676922183 -4.726358259737465
1864 7.485355213186283 -2.6385871658825693 -5.307740666937057
2018 1.494635621396932 5.131287111653619 9.561431360399581
1921 -1.8388475117589829 3.3826598112756145 -8.531851735917304
425 -10.114411716590478 -4.809125035466551 -2.374800297559436
658 14.936134036777599 -2.3274462183138227 -3.781719404601741
1140 6.832329790164664 13.28907380239026 -2.316667667272947
1657 -6.918261704516306 3.347080023851094 -3.672661148740697
1134 4.822303485282295 -7.275846658063146 -5.420841142600003
678 2.2971681330296034 -9.420500729219835 0.322594919269189
485 11.256602633609495 5.209095992262058 0.7930989262768889
134 11.579749366662542 -0.4018607694140371 -3.991067858520822
240 -6.550919928750421 -6.792773818989259 -6.3272009854462565
963 12.73210981984956 -5.708481460892715 -0.13797411813172142
2074 22.84915035124225 7.527604355989304 1.855884692192931
1828 2.194273379427202 6.280521834215198 -1.5608048718292267
1677 13.765926358381178 -24.24504028836633 -2.140907149586275
380 5.092295260817158 1.5528492090308625 -0.08768398387729971
1972 0.32825482396037886 -6.625468707346811 16.019909974329828
1156 -3.9883755941171612 2.8451466468342863 5.097933728366961
1317 -5.9781446184147295 -12.467143112792357 -7.35827288292925
1561 16.930195937675773 13.003037203496717 -9.391350040765495
1867 2.342623268764145 -6.727968993926748 -9.732629090591702
66 -1.2757182551017598 20.632461195075543 5.990771918006592
1384 10.089184448722055 0.7897099192980548 3.432665873542119
1879 2.612120183904831 -1.926315491605803 -0.21762112836507652
1671 -4.214105746624843 1.579040136163147 7.267055712209514
1593 4.200053000639524 2.6434106821203898 -8.220097613699448
129 -2.4516275292337726 10.883948636218097 -4.597641703452579
857 -2.1907430970115485 -15.3323943892461 -1.8337633627861658
1281 -4.4808484125202535 -2.235747645980177 12.483391992129757
1711 5.34618592975908 -10.806547066255579 3.2951917996727818
260 -10.054632939448952 -15.457933271706574 -9.348738625438498
161 -4.256395033302063 4.740226467479664 0.5024033252775334
470 -6.343878172120359 -9.226462081620552 -1.2944840289684019
2028 4.063366413529493 -7.56142906442693 7.45840703075031
145 -7.967669158443011 10.685635682508833 8.291341403831183
180 8.350025338068255 0.24445995126237594 -0.3765981893904607
1270 9.630495712876204 -10.605038780338882 0.677948596765158
1984 3.8095263684538287 -6.495787742478668 7.184014407106372
2093 3.578532071213201 4.161984305190889 -15.87321510729758
1475 10.334870850562373 -6.182188621966261 -10.102745600120526
140 21.318648332762358 -2.187485825987437 -6.081276488815869
280 10.561632124898932 17.05921950075439 -4.025593463392263
1438 -21.39968145435112 -9.151383715439884 -23.29584525964158
432 7.396410676142554 14.836640143857302 0.3119259540779535
615 1.5587738662057773 1.2142047229513928 -9.409081289864943
515 3.919486506174717 -3.2923091492762384 -2.590704997713757
702 4.041855557350153 11.607619260008091 3.2966805741913996
1456 -0.1786128769504141 1.7755104518930236 -6.645673978318055
444 -12.351263047247436 -7.096329226576438 3.9740567659461883
1558 5.842580452566925 -10.967229895756306 -2.787013182277095
98 -2.3963497566908405 -4.071004998143508 7.692650761429692
120 8.536802670913135 7.262344942559294 -13.35567865720725
1660 11.336021335226315 -2.5655998245194067 3.935724844631104
384 9.784393036400377 6.543328214384342 20.804329504597547
516 9.777954627161055 6.131841723345727 -8.059007212750718
879 1.715887683914119 -6.018438379196008 7.9978321755354065
1752 9.786989098940833 -4.055379830814919 -8.894734835575857
1015 -6.532801170804274 1.7899225208434693 -1.7200073306673178
1010 -3.840252152146363 -7.665792959486496 6.636062125563959
839 8.703299754324533 -11.891404152939474 8.329068198244059
1129 1.2083440594570396 -0.9593915194410347 2.8615659293786697
1577 0.678696713344726 -2.336233543334422 7.003280945507575
1220 -2.907584156102915 4.987766166457268 17.438605437332303
598 9.912267671129287 12.283419302484097 7.596830821945606
286 7.909123666358628 -2.7582515060644175 0.984840689630161
243 -7.825281568499498 -12.87993599325419 1.5413563128007095
1169 0.5504672035487828 3.748247278113491 -3.247093980602239
1234 -11.005431686031221 -2.417838102507105 1.7155780017356763
618 -4.645295361564544 -2.5081279781352195 -7.107305944088883
2101 1.1282449532143124 0.2563924945390125 -3.956984348701843
1928 -7.453873790234691 9.999959977839518 6.476650902576719
1896 0.9974888867313322 11.803798983760343 11.551292479057114
302 -1.630922377387907 0.5283131534625174 -10.119708946564867
574 3.738761682320716 -3.267417443669163 7.8473736272771815
1702 -13.788221479249888 -2.7215080931080062 11.370842444216754
701 -8.174731230650485 -10.244762314761768 0.9183562587062822
991 6.327553517622242 -2.452648912331141 1.913098363069475
1094 4.397909927212824 -7.8358395480239755 -3.060048536314809
152 -5.0072151610880615 -2.6184889052669704 3.4649345452540086
877 -9.514384754161778 -0.41415236323630106 3.9590057206189466
1055 -8.691876697050718 -2.1103345511061637 -4.337799876250009
2038 3.552892342913549 3.4947435099624347 -0.012640333816337453
1696 6.388572221797046 7.053688171666935 14.758748677558167
1590 -1.3090581460532797 -5.0950465779447205 0.5304283364642028
1760 1.3748749094942279 2.459256989822582 8.08827017948823
1197 5.865979297912337 -0.4951371893728021 12.556162009560694
1457 -5.812496030170023 -0.19229016250243278 6.981764225982031
223 -4.043065956792473 8.182836629969554 -15.03707885231607
587 9.674550722535932 7.725090229392195 4.664815995574468
542 -4.478997594048997 9.240173065121624 3.2197251261829227
982 10.204004335757068 9.720016479602954 2.8951027387120916
1700 -15.391913914568256 -17.619892959952224 1.8910634312584924
1219 3.5619496389636436 1.0503897958113237 -7.561218300566665
1295 12.221546954016896 -0.9562107715397259 17.011117690802944
1444 4.4625546511089 -9.67271008326865 4.63568010354318
1006 -0.4741114680507054 -2.309038169145853 4.1289032247274084
1754 -4.872461984833141 5.165829200620147 -4.1117102429774315
1118 5.2634501147681165 3.2803289196871552 -1.1620422784431217
514 -3.8839574717770176 10.476880229468645 15.760411665109809
453 -0.6588848879160566 -12.585785277743671 11.41982779370985
396 -2.5130377413928753 8.145236385839212 -12.539561429744863
530 16.16512989047676 5.648081797461924 1.8776220730954563
874 7.530101986089937 -2.006697434635499 -13.132144440589183
673 -2.2361068048495554 0.012154338254775519 -2.206275613337406
1683 8.267976917378745 -2.7575181283531363 9.15336281566381
200 -8.359852543758617 -4.721162070403576 -4.603630134281249
1024 18.227559221943864 -16.108078828115197 1.7637744934920787
106 12.43140036614538 -5.113648075037561 3.1002409956863684
353 -12.385264713668263 0.11495529830999884 -16.776457990465204
1885 9.599975880467063 -4.999955689370765 -9.50050325475859
2104 16.16153331171588 -4.079649489215833 -3.9017266958307197
1306 -8.715678084832806 0.47893469240553704 3.61429555181076
1391 7.123936676878611 -10.631777806949058 -0.14299765611682147
1070 -4.239106887377153 16.685615805185734 1.138753100216679
703 -4.771360109369239 -7.848102261280948 -2.3790433721099085
2090 -1.194092899868532 0.479897307078205 -13.492553131185417
1698 -6.6733890868075125 10.491519012992478 18.585611933863348
1607 15.407115462230143 -5.5381569063514435 -15.676381892544693
1274 1.48458012957438 3.597066180757448 -6.357974696497013
1846 1.6567418928363074 -1.059736332142442 -5.782930816653334
1560 13.866994630873192 5.208706487435561 -18.573246490094284
1189 0.1214973469477319 -7.314201154210126 16.024396890845
2001 1.5848549149817706 2.6389799560712506 -6.238642880810771
1583 21.061022983952874 1.797449218386247 -0.4646549369989486
338 11.547040209281777 -3.7322965197514866 -13.947426684998765
245 -8.977510515889572 -0.5871255932144359 9.910090846686533
1892 8.237837623698637 -12.315669173864668 -15.248764106710542
1111 13.339684840942475 10.374617174445483 -7.204628093731523
1250 17.760067089704012 -3.2390262958034413 -1.9777800132802839
2112 11.03371206579674 0.8750510761481545 -5.967519093403377
1860 2.625849710794725 -6.519679711916355 8.7879867772919
682 14.199910310048649 -3.966001383760175 13.454793701991449
2030 -0.625460847775001 8.639777218227914 -0.3470006625028068
1105 7.213971911885495 -6.351789326907467 10.702053292484313
1151 -0.6679532162297594 -9.610283367653748 7.541588770105634
939 -7.837366859104212 8.387011657362201 -5.907262126015003
372 -1.3435576612049038 -8.219703741518423 8.225128274612153
1653 6.267454168369376 2.7595174592192766 -6.868310968576062
745 -16.76319682337733 7.715076131832299 -1.98593464559578
2014 12.656285562921294 -7.8823091059329045 -2.4329118116953334
1883 -7.017903167204281 -2.250440369932396 -7.494900796208874
1482 0.15922020148779012 2.2907522708877917 5.730668940082424
83 -10.967612128708907 -6.828316719597771 13.312740066709605
38 -1.4558595304997526 -7.478774339534387 -8.084136654546764
1228 2.501743309535456 4.2111742280049 0.722663913327966
16 8.904913547411292 4.885599839265823 2.441385442046921
1710 -7.871514914696367 -3.660288943250596 2.1597177637471043
1361 21.210327831811917 -6.723423039500654 11.983239212239553
1592 16.670600825022493 -24.452022024463453 6.9862188108061485
1851 -11.436062099697041 -0.5137181298794232 7.374623401512867
708 -0.651272209675145 -16.00290673666423 -5.514179059053917
198 11.14235892818213 -1.833425422712702 -0.22462309557708685
63 -5.618062599329736 -9.432398161986342 4.678726709837567
1422 5.88173383948014 1.4218786254495515 -0.6881436307381747
2142 -6.644809601791395 -7.643278472160834 1.1951843524492107
1703 -4.428895191326478 0.7568484862094911 7.1771074667657455
1145 10.570618931344802 12.618958257939603 2.9037741647998403
365 -1.3475405919814847 18.106240227608776 5.793889800158268
722 -2.052873513216134 9.327566818631068 -11.942009078120266
295 4.3977650555035295 -2.660113433331711 -9.901891694084458
1884 5.332715955220684 9.219859799259336 8.594773508866606
1048 -9.77035101724205 -11.736040706752997 2.112492597612721
633 -6.654150527467828 8.06147539796465 -14.493257496182105
104 10.817430528353283 10.498439181204153 11.771578790840461
262 -6.80408563086894 -23.847226695886075 2.9168835352285263
8 0.4125879149593822 6.315940594214586 5.42047384563614
1354 8.200832581447097 5.41818906498888 -10.317743687904914
1803 1.0707283065379354 2.4426484388801635 0.39861399262437464
414 8.867409627854457 -10.835516916039957 9.990305141780231
50 -1.2872073169378155 5.6651757158662095 0.23066421755707645
956 4.023070830791588 8.029045540554321 -11.991803712341232
275 0.5281576308545811 9.51233556744095 -5.287187242852559
2125 8.271901208291089 -4.190894645747977 -3.1328643046432467
741 -15.1784268716163 7.560693796073977 -1.4143655246629412
410 7.604924168024828 -3.2075168502166265 13.936116897191788
1668 -8.07431115108976 -1.2929548158347786 4.501614290141828
1782 -20.523461816487174 10.252479561404812 -0.5707560533921645
2092 -4.257788251739138 -5.22422285345319 5.791151321651251
437 4.074715675784011 8.313923639719142 -9.871150222951812
1521 -3.239743359240546 4.835964928387987 7.040513685871419
1912 -1.3044507274189852 0.3240284522387981 -5.421741037312284
898 -2.3339524450204205 -14.147091513924336 7.235757090835313
41 12.763420036122703 5.204449169402927 7.122833975700385
2009 16.434431072944744 -9.193133400979004 13.055753548177888
1386 -8.02202313941593 12.390082733523037 9.057000116069034
1940 -5.920534972190084 -0.5488884258327583 -16.838525579176178
1002 -11.043534766235219 6.4087834918674345 -6.751091752001834
229 3.7203564270332237 -3.512884286961674 -3.151905112412344
2012 0.15584185994963545 7.91609217680769 13.436368557038463
972 6.015052757481927 3.2867197576788936 -3.76236947287584
1262 12.917213991734299 1.7677600397747002 3.641891387194298
1065 -6.265829252067685 2.117068189432775 -0.6865270043474003
471 -4.5995413677909 -5.924180532705971 10.546416676320062
1043 -18.695290524406897 11.98830906839626 13.287733794656672
528 1.5187028700466103 15.158842809881207 -11.006022372223041
1464 1.5871633597565653 14.457418190783727 7.554663792963774
803 5.273260535218834 8.567059577938416 -12.099651705025947
1647 4.205775706604761 -0.9375031051535164 3.976380523638859
1304 2.052327451947089 0.2008647898988733 14.424746909154797
1453 -0.5815458257077096 -12.333229586292852 -3.7959682244713924
60 1.4055467437923463 -22.014283442239783 12.27585598897288
768 -3.012961743944335 -17.817938207786764 1.7105649734300317
1537 6.745448479018911 4.892609675024631 -5.102246839342133
1534 6.664119046366066 -1.6233734103309962 -1.7004691030387278
549 2.877428887423878 -4.1130319932629815 -7.724389216960133
2109 -12.093300859350151 -9.541975016823942 -3.9869533142608673
795 3.4943534166346306 -1.5295573267813019 3.3984884670947553
2063 7.82824988289981 -3.8301076454690444 1.0564362702283108
1606 10.205908298820967 -17.29073640426377 9.827141549613923
2075 -4.296919614474804 -11.801675858236761 -11.023978409396829
642 0.34635146039427184 -7.8294619198582724 -1.7334149616488808
364 -2.3931873035730367 -4.302593478889899 4.280093597024033
869 0.3783678152226848 -5.982687936072502 -1.2298605673703793
1837 5.875531918679688 -4.818844006639816 0.022948741028770564
89 12.698258917035725 -4.910409514608225 -5.949995404731791
155 10.564863733501427 3.7792590950224936 11.962566650047084
561 10.954818055418468 4.153212861969027 -8.365599749208238
1900 4.394846819263778 2.465064334532446 -1.0748860183111266
948 8.28532155976086 -13.857310231790809 2.2045844996933273
1506 -6.696541087419386 -10.474344713447408 13.219435910471066
1056 8.840083242427147 -4.983055469721167 0.13673113315543123
596 -18.32807473950922 -14.665617610035872 -20.433535377492085
1636 6.727294378790634 0.7115281116613491 -0.6335227933247913
989 11.51907778777749 16.984654035597 12.740017117652789
706 -4.2678837196498 8.065774021363486 -4.398415210327069
1948 -5.138305050211145 4.458724614164578 6.781370730130686
34 -1.3263619954836916 8.680394976415185 -2.1613665991503392
1040 3.7399375374254156 -4.359468765070652 -5.199824300357511
931 7.977791637821674 20.47567514128829 -10.202946204018405
981 1.6777912133525872 -15.339016219257212 -0.22510036580856413
867 6.299190762615978 -7.451612597396138 -1.2302481035570125
163 -3.0088316769713446 -3.2010778382775715 -24.5968017566632
292 1.3731503406354528 4.549863046774646 -10.639423747970113
1990 12.54402059408557 12.362500528924953 -1.2263732440287618
27 2.3585166238233137 -14.540702490212075 -6.3970690462004525
297 -8.269954141451029 22.099394447627937 7.273983956942196
1620 -0.5488239073121665 14.14230797742259 10.55931121537546
891 5.561440087232787 2.1450552523479076 9.498851577218439
1120 -1.704678081449239 8.192707237646871 4.878448197113007
341 5.270191759687017 5.325594316703419 -9.768425332931702
112 6.196168065907616 -2.2903147221516584 0.19814768817342368
522 4.329290790160412 -4.768353300210214 1.02877984044304
2111 -4.968820743282685 1.7001150505327833 11.188250227441552
1516 7.48448508919942 -2.5334911922418057 4.181321194411194
493 0.9581795143180245 -2.95954599943043 8.06935236579654
228 -4.183627045413575 4.357157156501424 16.372479443275925
1165 -5.47546955790898 7.275098612143473 3.709020449013505
1218 3.7052057091152255 -3.446489575011953 -13.143592153613655
1944 -0.014174539500129013 -0.0942175252841909 0.15293190905257956
284 -3.8237487202898115 -7.695259314502485 0.326458669622572
1182 6.889614059654247 2.857920989796261 0.8995300597044311
315 4.254480217015124 -2.1353352267782326 3.1927488630208347
750 10.705315700561158 5.956574352392563 -15.190731475449436
1826 1.1547733547820205 -10.840378284881794 10.015317243445283
789 -22.437720819847897 -9.425950395508517 3.9886566804497656
1497 -6.543077572117907 -12.212560894889199 3.624107329377143
73 -5.884860750903461 -3.637311987070684 1.86584452563627
1415 -2.051811643007911 13.466825292473143 -2.1891747470418093
2055 -5.637803372816396 -5.02655124659954 9.428782647594153
1799 -0.036556101128046525 9.03130537874054 3.1087569105668384
1728 -3.025145489390346 -3.231589767851133 3.471860869703575
21 0.25220074379245494 -6.946096286561489 -3.0744230345254757
1924 18.46973102088994 -3.6621425282754223 -4.719987910212596
731 -8.310755862894538 -6.652273641282214 -1.8425692665893156
1967 -0.039990605921340495 -2.2747920927333474 -1.4939087913412183
1186 11.417478646387341 -5.683807826505524 0.10913042494223149
254 2.7321832638474115 9.213272274459806 7.340438349449888
1446 -13.93400844030692 7.524124573678218 -17.327152318629743
1726 -2.6850972738383847 16.50164026018159 -5.675379009162711
800 -5.0982910339595415 -2.7713579292119066 -1.6166810874846012
1388 3.755632887575539 -0.01877802078091216 1.7376657977996672
2100 -2.193822155699574 -12.50469109771956 2.7994367953181665
794 5.830435286351122 -5.960764174148253 -1.3644059415342369
600 4.183609088610826 -4.968487346548663 12.398132845924502
2105 18.916852592388807 15.093448744358675 6.49922094988584
197 9.166388412008267 3.0170045708711855 10.506108435324455
301 2.818873531020042 9.11119682775187 1.5208747059498442
1518 5.669737925861358 5.539243875558039 -1.3753979485251995
96 -11.376369424840272 -7.490951958477513 10.261475301419368
421 2.6149217156240403 0.2058417968340771 12.064804525429752
1272 -2.712207410413912 -7.765953177371143 1.223188969792323
1329 3.784739113370677 18.48628097351798 7.270607707078468
1429 0.8310929766640955 8.306977745967876 1.5667073849232704
1452 0.31394525960366676 14.993574635454683 -11.431011008904724
257 -0.4547346930307501 -7.634881782987966 3.9620903848948763
1408 -17.650791841313087 3.9194161959942373 -7.228657474255797
1740 3.2900022673384295 -16.074715868559146 -4.242584699233558
1897 4.117145410464508 2.7237630483273985 1.8297907484889235
868 -6.058814633636109 -9.64529831038104 -5.459630443204895
392 -4.218157330765262 4.97714600331269 -0.19452539645749847
1427 -5.730486289333085 -1.4927977507497312 17.804784506810904
194 -18.862504334715 -1.4543927086868276 -9.823738581235125
309 -9.4537849739749 -2.8635386125746045 -0.8714929632699463
20 -2.644394771221709 6.6568554254768895 -10.011422835686092
1878 8.474843224829852 -14.27993106741128 8.784553172827119
226 -5.713000503745456 7.304976739468973 -4.867232770199417
818 -10.350623025200829 -13.02378459387126 0.4764873509098382
1685 -24.675708524584987 3.7747169256614903 -6.253825652987279
886 -17.58291408512986 -7.669826148020574 -8.210277602144185
2140 -4.467607587073016 -2.987631490972225 -5.575567371506858
1569 5.921166605945368 -8.523051934839309 -6.12351521535503
910 -11.013593188888423 12.224029683513406 5.183280541547153
354 2.112699406016743 -1.2381956332346935 -12.63824165969438
248 5.991845198399348 -4.625961553432266 1.1858579095838546
299 -2.335243720621356 15.729337042819063 4.2852602533698985
2094 -1.6069912659938264 -5.188021595745948 5.259478455093668
216 -10.609799333106688 12.891675088658966 16.282431009484018
1553 2.0837905127882417 11.981859633430384 -11.986753213261741
1381 -6.4582510333120355 2.343191901453063 7.673531640126562
899 -13.159811113241958 -7.557237698064996 -0.8500605025236858
1420 -4.718159178636661 6.582150145547488 -11.924905680187585
559 9.618203715781075 -5.516162481392525 -12.90660344800362
343 -0.46161038514847286 17.709329033819095 -16.740086093820647
157 1.7967535971932669 1.8594824705729376 -3.238855595908656
812 4.099700021059602 -4.752448069222932 0.7225492317434751
1166 -3.569410194281902 6.066084120430985 -0.7389655418091281
1787 4.518880883498017 -7.990469349988266 22.59204615647067
2151 -10.660029014051963 -1.0968260088083281 -8.524444734712812
342 -0.8953647800572264 -10.386384220359467 -7.474316819200693
1114 2.354068081156387 20.547663134624734 1.3147974055827434
1758 -6.359519992790436 -8.386355777847243 -5.113064918198666
1336 -11.260340542527215 -5.91360271482187 -1.4147037885196077
567 6.32756242483362 3.7993030491000934 -3.122950231222984
2062 -8.68969763651775 3.3822090775527998 -9.41451566795534
1611 4.391331957961139 -0.9595478829367937 5.063527257133779
1460 14.239827472404055 -5.022790554603192 9.412472783806477
1430 12.933202522649422 -0.9534327536142787 2.7413460980456437
594 -17.53489582411548 -1.7146455579096158 2.2576882414233372
1626 -1.3952670609927733 -0.5346027248920553 3.8884206839539934
1222 -0.8985724115695788 6.5570206156212585 -2.463811302850164
663 -6.657632497826014 -11.545789316258636 -2.2936125683517377
746 13.711085089543856 10.254235288177124 -5.621325065156663
141 9.133022756099383 6.808199470539958 -17.80149545155629
1806 -2.259607011523443 -0.8169404006941178 -1.0038295699810382
449 -6.747804612847681 4.780714599824933 12.19529113108824
1566 -3.248346218003196 -7.29139960677244 10.938575117594354
1526 0.2466307529978012 -3.574977341623152 -1.6797152156380153
1598 5.751931278291407 -8.353114897174617 0.617456981893712
1920 9.492551836484369 -0.9871013050668223 5.280608734764055
1372 13.538765762985747 5.728274605738398 1.4258060858148458
667 11.680563434083828 8.01621311422867 2.705337891771418
2145 -6.129688540354228 -3.1193835586450307 2.022948329386784
985 8.946548432321755 10.205614973193828 -4.281469153461925
1115 0.4787055074989402 12.522556761839057 -0.7456202859632358
407 2.534674276020699 -16.549121186016276 7.684977915354976
1214 4.2820245128363394 -8.484319461806665 -3.2548248215788544
670 -1.8413243244360886 -7.27930977147562 -11.197801242916949
1374 -2.5653676867378588 -10.947096259619956 -0.06832109799771116
866 0.5972264934222082 2.087393213311375 12.479730667742743
1089 6.976941645571154 -7.0093091142196196 3.687360401271547
1524 -2.399502529094231 2.894066593841934 16.991800569488134
9 0.7397028180232201 0.48693969546210497 14.625412218197116
1681 -3.718550922237972 -4.883854551152946 0.40960830002132004
1963 19.25226389523835 16.594521809554298 -0.6889099657696341
644 12.76555896120863 8.153312108319868 -4.165169037435253
399 3.4764052793169022 -5.82356174265706 13.969748689014944
290 5.971622691554042 8.095677314748428 -6.116916904413041
1337 0.44687571843324847 -4.35602501813538 -13.103872119375353
139 -4.510944251345517 -3.0182852549773993 -5.5816798702929615
660 -3.5999618880825848 -5.2573606980235414 1.5249707204781862
144 -7.4964709600764 4.158063493370441 -3.9148058622423383
481 0.19628215718392014 -4.108449908621893 10.896435131489595
77 9.543786004653159 5.562807277887928 -1.6002308861277301
503 0.814319278194983 -9.025160391074175 12.370083341668131
834 -7.228353794021884 -2.413252270750576 -6.967368443043169
184 -8.465626871737442 1.202947175025349 -6.614864538303856
979 3.8172364121548985 -14.294291481512872 -8.391907101899006
1097 2.7816990143213918 -4.5265817223910165 -15.43246629077831
1887 -7.817158042330165 3.5143071365250433 -10.49899542125046
1133 -1.1951153986053378 -17.838689768077 13.880024899117387
1753 -2.6430301200600663 4.442356425553913 3.7697142632718132
785 11.407914519204637 -9.177839281100102 -3.399454425645033
52 -6.270371904386351 -3.4753350411686132 3.7027863847652744
1318 -3.19965576450873 -1.100865764150648 -6.1688314521349215
195 4.320651657349532 -9.355882145628934 1.1897916153803627
150 -5.623983523380392 2.6591487417233033 -0.4167121215515238
1383 -5.984111520817324 3.9495848238511533 -7.835407903782979
2116 6.588058375341665 -12.05822695769416 -4.3949977436753205
1243 9.85237066502636 2.0658328408928326 9.057419574517377
2002 5.4897331189645735 -6.167141619106114 6.250147158102972
2087 6.166896842646628 0.19783326453219835 2.2775773129139645
147 -5.123469480905998 -1.2811406689059988 -1.1974021300133386
255 -6.134590236194176 2.0254817527923032 2.3981680798400813
1061 5.451522799679981 -21.316684610708194 -5.858155386703428
630 -21.70188146519536 -5.689491694414423 -16.84972031816118
1248 20.009641112541065 -11.935205162934146 -12.036765753071359
1649 -3.832810563839196 5.979083549401342 -8.083969849948573
807 -11.138389175340091 -4.133789028030108 -2.3631319770728965
409 10.055644503357671 6.934543955055662 7.507570850103439
945 7.654103619010488 -11.31748729651657 -1.6047384246686751
423 8.256097807996676 3.037526620663066 -0.29598300552230006
552 -2.7958463634212225 6.479404307301392 11.308138792187913
1373 -4.101609392347125 -16.029106494866234 -2.796090951808802
1981 -1.294397644148726 4.498799798447637 1.6449182995204754
1757 8.590731870558493 -0.25773583490332813 -7.057774768313061
2123 -3.792809844262554 3.0414575080067427 -1.4058044611382456
806 -5.798024810480955 -20.354304291862185 3.068555847411479
1104 -1.883773751088727 15.041342017699451 -8.86940751978937
56 3.936719064565743 -1.1155000767838446 -4.236508689420673
912 -5.505372364677194 -10.52608859696815 -3.7742747499794427
1362 9.358755593670182 20.278718639416432 8.485278596185099
136 -5.3068261896346405 -0.983986090695829 -0.88052466802388
1229 -7.055343150580374 0.48574025033419976 -2.65029984507985
950 -0.5904217108409524 -1.2185558758713113 3.9806799276374236
751 2.486942264981353 -2.412724946101011 19.15653435494904
954 19.033094490376264 3.2042038729686175 6.640702153602332
1555 9.276190513382401 -10.849932562360717 -2.8451798305625635
1861 0.503152704932244 3.4849194753430406 8.91794841112328
210 -8.753241892545752 11.00590813506414 4.836582358619311
791 -3.8011500333395 4.282545906594781 -14.85664720727653
1343 9.51565350440603 9.608182327062488 -5.711276937174117
1730 -8.43628006762877 -7.566794910239687 9.087194741216335
908 1.7927379385377253 4.092576412032142 -8.49991123281759
308 10.041268732477628 -6.860003570551277 -16.44175005906451
2046 -3.424432105260777 2.4851146254277556 2.035290093544222
466 -24.609330837839494 0.30087545827526957 -4.795529121126728
1254 14.076001809909092 -21.36039371637705 5.537577040526545
2005 9.459472340767201 9.731009689554542 1.1283421739052903
1244 17.768145354267524 2.1858995491486697 -2.208065864720868
588 13.691732919268283 4.900792387464681 24.488712886731115
752 -4.466378793667402 0.15423077844152547 6.281830404129301
1201 -5.087393667477796 8.293266700241439 11.89880400091361
1762 -12.631606505652291 -6.599993749355779 11.661748854990366
759 -17.48755522331769 -2.492535449924224 -5.234844485540187
1333 3.451712495404009 -2.3751012825568147 3.8004120930744367
1171 13.396423944566811 -3.6341523207723565 6.251025641567106
876 10.164022217465392 -13.447459209817385 0.40807536116360155
1715 5.7806653878077565 -3.4436017211996277 -0.04591850792800225
578 6.54751073054119 -2.9466358869539233 9.994290412533191
1877 -10.28285841521766 -12.29302214838316 -2.8273734944926483
231 5.381534383955276 -0.027795311638618626 -7.911078253962834
907 -12.546169247321092 2.4239524179225502 7.653470713149704
917 -5.67013674446262 -7.282556115358445 -7.7454334319293405
693 5.612727022446892 -9.692518585542054 12.598696602647092
1502 -9.510686371563983 -7.394837223342852 -0.2117530220511744
238 -3.8227270831540046 -4.329045416170837 -14.988167208717869
76 12.388446290659743 15.237824202345353 0.6029190059607489
1755 0.7383818624272271 11.384156327231482 1.6519460762924127
2147 11.828344431064277 -7.432521812880755 8.83072131632215
1326 15.65329899348435 4.235214380634997 5.122810652425726
405 4.227742056969965 -15.749846902754177 -5.69020028680353
852 -8.781953196150784 10.064868796695643 -10.008905382278893
927 8.94421226431007 2.381917858243105 -0.6612419825848356
123 5.250559030551985 -12.812866861062798 2.776304751021591
1339 -5.071888011952679 0.20440055023114215 4.236566712037757
952 5.739938529040973 -1.8624576291820742 -5.8109258705297835
2155 9.382793997099029 5.687886703503291 -4.998388902936586
512 0.3739794958237739 -5.471630072114665 1.1588279323364699
208 -1.7545221722225222 7.1003179333273065 11.272080887647187
539 5.1207901909466385 12.391428368860378 6.973354719695661
1853 -11.204060481047724 1.1848933312994474 0.945317036418865
1092 -1.2410499516210516 -12.894818159196635 0.27424532876533797
187 13.216700917631767 2.3891875821520685 13.447997791387232
174 21.499426095775647 9.141966801346944 4.4480668527703315
122 8.304977189418432 -3.795294515343185 -6.337915629446668
1033 6.920916536858591 -9.502762144548887 -3.5401790180388075
1894 17.11431011435669 21.672958065879516 -11.307203199670514
1257 -5.305876041267808 8.770993405618341 7.6596342995570845
1360 -0.19124637955200766 -5.342241744118941 -2.250221656744489
439 10.363903738827972 -6.894751100403298 -4.279630177973692
1658 -0.8946772572338759 2.063940109001231 1.1910286475231757
737 -8.678559632799923 -1.1076964769895932 -2.6085913459576364
1461 9.66721959237941 -6.930575118254205 -8.63940055080178
2070 -12.466211585920439 1.4421126199544163 3.4483795829144888
1289 -0.9893053916102098 7.117555464986509 -6.646913982360298
677 3.3918188320245 3.079722332037388 -8.037928838437242
72 3.7775284468917167 16.6862470740738 -15.219851197217396
724 0.14447631884762197 -6.547215985674033 8.773405733089255
859 16.939344364120295 15.780686434704798 5.5101580321439245
2076 -10.860383169060407 -1.0422107956032745 14.044684488653854
1724 3.086652952353964 2.241053606363777 3.195122857738954
316 0.9151699329042974 -1.615901112854628 6.464783065663571
734 1.3280037203863209 2.6491591095064875 8.198060281739691
138 -2.1856974430793414 -11.181526953428412 -13.319279999559823
725 9.851921367918697 -0.7331081854638468 5.610467871221472
2102 -2.8656457797602664 -11.223965049741173 17.762501110839885
267 7.2702745038102945 -1.380346236856839 -1.5956071947525294
838 7.186438557100464 0.803506828197983 9.278803067412879
1426 15.783279217897261 5.16964933762206 10.079656297674456
586 8.824905473316553 -1.7671794286257925 -8.278917665629443
651 8.907721661285706 8.836737154577612 5.143794553541043
903 -1.2356749672213965 -0.12974319775740795 -10.685401515622486
413 9.125867336554544 -4.364029021797866 -9.185201383123227
1158 -12.681436493555102 4.253181099582177 -20.82792664183476
1233 -18.60828238486244 6.911696267153398 -5.7483330556766274
1646 -5.469947323057881 -1.5542714898272618 -2.2028091560012104
967 9.17572306127319 -1.7045913046827195 -3.300666256228211
1957 -11.85770085717277 -0.11428879893957675 6.424526123013085
638 -1.7255600938729545 -1.908016340146618 3.6520840578790326
1625 -1.9063711271324546 -1.6743716415791225 -4.875097122436732
502 3.7989216349553536 -0.675443498069096 5.342164886257597
1471 8.221457225500806 -5.58311274920127 5.760601244876637
1919 5.96980881921129 -7.049776179067828 0.6784831895371001
1407 -5.99825277205751 -1.8490911456260832 1.7770132576012154
1445 9.866977314384625 -19.338561186144798 4.000321570489128
320 -20.979088800480675 -1.6393694039479652 5.150456073160906
219 -0.47016282997056974 0.6082707223834326 -4.85980168473305
2160 2.021653222887792 -0.18247577538134174 2.16510994733727
1256 10.74210972138316 -2.9376260415219635 -8.993230187859842
1224 5.709081517790733 5.195896623954295 -5.271254332614471
1084 6.082694805445908 13.424526957308736 -13.968900410199305
1305 -9.33063663796104 -7.1222447418068375 7.807720523356071
476 -13.517098142618808 -3.8937044859837817 18.70721210046897
233 -0.13114693782339273 -9.771524258419552 -11.432318701438039
1774 9.941419359505879 -2.8704674239982455 0.7725970175370546
2131 10.336770807676332 13.474057228688348 2.2386436299396935
1563 -2.065155369960191 0.6772194740525413 18.109330899765375
91 12.46598530700289 1.7648392574631606 -5.048518986843548
1193 3.4995674116111446 4.37586635298898 -5.9168919064194
1705 -1.442603912671236 9.692007082061242 -4.761776159623004
1490 -7.864958631409772 11.37509443523664 12.92180520681501
153 7.004886117332992 -15.952877105200896 2.9247114300718775
720 4.24973159688867 0.21718001626949568 -9.171125904389461
2047 -3.9639092104185583 -10.070264593496827 -8.79504289105632
188 11.613255136897044 -11.608305576901367 5.63849784841391
507 10.30387275480752 -9.560452958502047 -12.167254772259014
1162 3.9884195017116433 4.64278833449297 -3.267434696959456
417 9.436146204004524 12.97981017409635 14.091623356160259
1690 17.267849476394144 5.603684808653543 -2.709788180371025
1899 -1.2530321101377426 -2.7033087413549755 -1.5454575578905796
635 3.3611016024580618 16.319031982214668 -14.872817969540385
1567 -9.175285320536917 -6.009631012017958 -18.095747860463426
2061 8.130675332430645 4.560930265178298 17.656160237544732
271 -2.426175437023937 -5.9156814334944885 9.734713844593317
1292 0.9832548294181586 -13.682973741812738 5.2821361630370625
1863 6.515929426765157 6.603692240275826 1.166908638898627
599 -2.2893719416571465 1.1271403273074305 12.683499669695024
2113 -6.950141722728509 3.9367045948639796 0.5475172166445712
382 -5.525792180131744 -12.728718528231592 -6.75278965532549
190 -5.915977738579477 8.173766767198641 -1.7024839169465698
1 0.8347662135511742 8.980215139341206 8.7054554270019
767 -13.15769001326665 -0.7272157951071301 -3.9130847680282947
1263 -5.824608369844849 4.170209275232093 9.61180699309294
533 -1.5614636508692623 -11.72021946315399 3.371851136039225
1352 10.812934205188741 3.788406815514979 -5.842973819119238
121 6.557196570794705 9.202531271957714 4.629018858987362
691 -10.481007473389353 -14.08543740614229 -9.904898999409593
524 14.817669725896515 7.0366891925306865 3.430300926997798
30 -1.8516959224796974 5.696145414009302 1.7185916873840614
2033 -3.765867625961531 5.402974662965561 -12.405515002827475
817 -0.47014264165913827 2.6477490093699765 0.8095801077361456
1100 -19.241818607516453 -0.41743937586833557 -16.368915314669362
45 -7.663684863461587 9.177867268324652 -18.528664450239457
2021 -1.0440782684972025 11.68830069194332 -3.1159218676327023
1570 -9.27205240531629 -6.7822312099955555 5.6300927548691035
763 10.846404176469074 1.8297797978168922 -11.142087287513386
1519 5.110428201446141 -2.132624873146359 -1.3409356346476158
845 0.6344259695221196 1.634363380052164 -0.6525344117247206
327 0.28217004188467804 -0.7596068868143638 -3.440281855108305
1773 7.819162077307476 6.793841529503433 7.778491855430366
792 9.093775613613175 8.70213738947289 -3.4250287273301745
1952 -3.448101455809032 -12.856203418925347 -13.591434842052216
395 3.3138110450496057 -5.738932155597489 -15.138970029333773
1804 -5.413763657823954 0.34436859243675455 -2.3307536412903964
1185 7.630249949942713 5.104107887101361 1.6005256265087118
352 5.103168111920531 -3.430735474438927 -7.88279443988573
247 1.2091708669674595 13.078904080915724 -10.962099601772772
1331 8.591491226583324 7.80072106779067 -5.963754524956564
551 -6.773044576796594 12.377985606165739 3.3253468216387665
205 -9.52375851916892 6.889722474570196 -4.502121940804854
632 -5.4898632244094 -4.165582930721413 -1.9177970122519583
1368 -8.465220047886673 -0.2717592606567295 9.941609647271518
1933 4.303049749982156 16.183143361234162 13.243141438053192
261 14.779927336275303 11.006629860593609 -1.2722854409123499
592 -4.914715425953556 6.195447382345578 -3.187505462040075
1042 -16.792920304494086 -4.174797492839607 15.301899235021157
1807 1.0480599179993688 -8.17155257384415 10.326183388677654
278 3.426846113690449 -1.0224190913264226 2.0672106764543368
1241 -3.6543274573292828 15.142520409383026 14.892339231994285
675 -10.332347230850775 -0.45030221085564187 -8.592520334656923
728 -1.482664006471416 -3.714513239182633 -12.37013378303651
1830 -4.7560621067792015 14.989507131536701 -3.2673098276668715
1575 10.398089721368747 4.1576546690924046 8.054064324322376
90 10.62978782211029 -3.6832809293096576 -5.448611889948951
828 15.169219200871554 -1.706634164845268 5.932304639169341
1269 -6.435536626470021 -9.638044153635352 -22.96957113738044
462 3.8667124133985666 -20.87901797223629 4.262028709681352
434 -5.5598490416124475 11.37429073295037 2.7637483954188506
1183 4.738666477366425 -11.210284035014206 -1.9496266803892879
1825 5.924708322389073 4.986529097072077 -8.367825416145042
564 -8.660221533384389 4.189325798744914 4.844878819348936
319 16.923599975723555 -19.218196254889527 -6.610177381563682
949 -1.5151618646805594 -9.268901920302085 -7.011488802958739
639 5.1990147988991575 -8.304117143746351 0.5158317152127397
1226 -0.09362333771030681 6.001631378067676 4.810917109199133
1451 -6.536486100813576 -2.365001142281757 -9.153253863682593
1511 -12.082782484498145 4.694245271315243 -6.10565714767987
305 7.321624448549662 6.647341155332233 14.891794909732074
1612 -9.116992649120704 -4.689636559101364 -3.5539139816252217
1572 -14.880041052865227 3.9952754759573974 30.253557172107985
1545 -9.353871721969748 -25.131573630959817 5.469731465550661
1261 -8.7740118444026 10.540208721807264 -12.95424203478723
1279 -11.45501081079358 0.4343203029886096 4.4554625331950035
1514 -24.527018167154278 7.373724853723441 2.320205425518455
943 -1.352380918808655 -2.3211882518655442 14.609394563033542
1978 21.720572761350727 5.005335318512166 -11.848446786904718
2079 -5.089757327635468 -5.163770501148606 0.18839412250649695
259 -5.109116592637624 -5.574624934031919 8.872711461470015
1844 -0.7003765283102166 -11.039197002502545 -5.749068293905414
1076 -16.80965044498176 -16.152315762744085 5.279942726659719
1732 -10.650277828030594 -4.192785755020773 -8.66436669596751
849 17.8729105472479 8.75263292043751 -10.692300319571656
1794 -9.150914556618298 -3.56679628076354 -11.75637368611837
457 -8.706882883134181 0.0007586939180499727 -10.999849830908447
1790 0.34715269897023243 5.08220655707426 -3.663654147350936
761 -0.871749165432375 -1.9965721431914738 -6.916987735556801
1432 6.899814947709237 -0.09265968759995898 -0.9522855468232703
1714 -2.149462190990438 7.151999014297399 3.4023562192447
1027 -16.59738309026995 8.634435553352459 -11.193152629281274
884 -1.748085825045123 -12.250756666250957 -5.776316452032751
815 6.534023040874557 -3.8113064894941284 -0.6560662715015055
986 2.731940878199189 -10.238322874160403 -0.008476519789175945
1749 -5.174712544327202 -6.6855045499901244 15.284887524655923
1095 5.214796159706098 -6.485160449422602 0.02169124910667438
1997 -15.989720422913338 -3.331342489967511 -10.607555244914526
1144 -11.607773960045009 -6.1215884744179725 4.868406313981232
415 -3.473567560406064 12.980071766109038 10.796328123469713
1039 0.8691896668257629 -7.574567134235139 -0.2043939228991815
1009 0.5493470044901696 -5.6761781106012 -8.898836302925403
1964 1.9288046264451084 4.998273352980021 -14.592196154410152
1686 5.813245363720967 16.139977778019457 16.775107976747584
2121 -1.9114157799149765 -6.387232358914857 7.71055780562451
1172 -6.028002055884781 8.90581959080576 -13.50376883934636
1608 3.0334576179915085 -6.8192978416240875 11.705601913120077
1107 -11.70921662055468 -1.7233768225332762 3.5439112438847866
1051 -7.080052380432654 15.73610169281965 -13.861325090910206
649 -2.4927640497383714 -0.6369710133346289 -3.2840781365415626
500 1.5116941881763708 6.242882230253777 -0.6143331806187614
69 -6.498539989892665 11.492576888018688 -8.621061755126124
517 -1.7530854383827794 6.743168234099723 1.0674232034613393
577 -11.770120866680418 11.134918569839177 -3.1307003047107735
348 1.644094629840008 3.731525850803579 0.9255319958526133
282 -5.861921135259655 -0.6817604933751116 -7.886960805739651
116 -1.4860579563711254 3.9081580894466272 -7.255971945750181
1925 -7.484256511439651 -15.845990849322753 1.0317890075083453
253 -9.207926269611633 6.48239869368278 0.7540083151475058
1327 -1.952225512329239 -22.212164248984188 -3.977722594135828
2066 -14.110415877579152 0.346301337053364 -2.502065181027029
306 -6.147359664711595 11.128382956328403 -4.524512458612716
65 5.102300450315859 -3.5633760661739267 -5.4690161297328075
1433 -5.881093881103346 -2.916046878713256 -3.543590052054747
1852 0.27549822982099176 7.90150622372868 -2.0778729420253343
1271 6.966324454989381 -10.89737576791641 3.6206535851487636
88 1.2071675232559718 -12.56646850642021 -8.90316789164642
403 10.064333271667865 2.2774222469417347 5.141703736438531
1150 4.6340814118701665 4.0599937877396615 -4.963068387745614
1131 1.9407335373884473 -1.1340094421255946 -0.5220593567197834
1258 16.055025943488044 8.283356596895867 -2.9625488615337106
1035 8.882937283589785 3.6948314939135773 -1.5608457377857547
518 -8.080020348762616 7.62594803440101 4.875347787883786
895 -2.8329442639252447 5.503083174605883 7.492380739460067
1161 -0.36455947610572587 -2.1853269954204113 9.215282657054821
1178 0.6289142155405777 13.211404122961067 3.918460132859213
1684 -0.07293492582125176 -0.9421544913813825 -0.5019187262026422
1980 15.147630843053252 -5.523950630103681 -4.24293609312625
419 -0.31230867700499426 13.647118286851754 -14.209336713731675
1645 2.735785521614387 -0.0227792784827833 -5.026003465628027
929 -10.439837137036724 -17.09374810573046 6.871876871254847
1663 13.549375261844439 -11.930990138978961 -2.39578550663049
1478 -8.228552007016733 -6.811601470197183 1.3888716853786642
379 1.9029679823707402 16.53588520330272 -8.858623424409451
2086 -3.8552586802015862 -2.491750319354127 -7.765995063259647
605 12.405612254720731 -7.675772320284909 -17.290832447848857
1370 8.505476238270026 5.400641496876801 -16.022748740968687
1223 7.426228809300548 2.2569812893862347 -12.630325298534686
169 -6.50334505440603 -0.056781285897606726 8.154369854712115
166 -22.02899079816996 -3.3285704479871403 -7.82539009140274
386 6.27121496024029 16.516666353347954 -2.2847734176826138
498 -10.316178484758131 -1.9631154243265134 5.7914387314914775
1074 -7.137140590364093 6.630418138112662 -15.183917376068843
2119 3.009720185253975 -6.093120433451055 -4.0018290856941325
2008 2.2961625174559455 -8.197822853077954 3.2441372893891156
1783 -10.421023444834361 -5.560311091868477 -1.7305697785401302
773 0.07044269304861296 7.525509909060922 -1.3086697303337136
880 -4.339710942023536 -1.8917880794035051 -3.3005063655508864
22 2.4363536638953227 -2.7921080737144375 -7.724223012786505
170 9.578529150477591 9.110237828130607 -1.7886567872534416
1987 14.259542961312423 14.992513730584893 8.331889751921864
310 -15.517396010743687 2.628375200993485 -12.369141786768168
1119 -10.354525366803264 -10.097341196646502 -3.613825685781536
1536 -7.928463282208347 -1.2323904051351502 -9.413269834443938
201 11.096613091300691 -9.003921456119373 -4.963029479330076
1455 4.7251362120647915 -5.727640453191346 -4.879076339947132
2048 17.499240189827667 3.252090824658077 -0.24747125157769684
186 1.8157028747094894 -8.621816238576818 1.3451324994373615
1210 0.9456193845925935 2.649928903457303 -5.472235167878193
1203 -4.261976591907798 -4.2538148375036755 -6.164083464113659
1196 -4.822512437427021 -12.231015913153438 15.315997960313851
947 14.150617363369243 8.39628762288653 16.848469491361467
381 -7.404410802103056 6.991982714906252 -16.684006089852954
1345 2.249121136910373 -2.7559175011350536 -7.231046546233287
368 8.474389877958046 -23.236868213502667 -3.899522415868275
2084 3.92963537904806 7.166641621110464 -6.838172638380311
448 -6.610047110103644 4.894326689171712 4.146799625437226
486 2.17204553834735 -1.9943765533997504 -1.7076863983960588
4 5.969668800508284 7.545442767453127 -10.433233370066864
143 -11.222500539395009 5.185661534549392 8.367270830693228
930 8.16748803551609 -9.36888520138338 -11.987014606584932
1996 8.326032782625036 -1.3863379750177756 5.57810421770049
1363 6.922869334570911 6.473832952130609 -2.5496396507137584
769 -10.979104551947524 -3.7611970390581573 -2.5679610365254244
1307 3.4175154982840836 11.212102127105377 -3.1273229259166557
1875 7.5890433699464 -16.965796754670855 2.931467683668056
1977 -5.420875944054179 4.215873137151205 -1.0669989994338287
148 -5.814915118029399 -1.6987534021430775 -3.513377739520507
631 6.261810198550447 7.75725237707478 -17.643240666769575
2089 -3.686574757168828 -3.7240650195659266 8.872861093299585
1236 3.8554080773779775 3.045046646100346 -1.8850432782307178
334 -4.170086916649626 -12.138612797060345 -5.034239713664724
760 4.246359891684489 -1.9562617096556336 -13.413014375511327
1727 7.185237893902226 -5.195194763055255 3.8864924234006955
1276 -4.312238877782975 4.200130619461601 8.132498631963582
1821 12.814576115921595 5.9392989999752395 5.3397422092334415
984 -3.482964155328266 15.24711521991442 0.5761504233797137
1316 11.037820163524742 5.0637518937821655 -6.453440740556293
2117 -1.1270334832334454 6.656059617587687 -8.933050905209367
1635 1.7316599958262342 -0.7306702896100484 -12.806925254200005
579 4.869928352494756 7.283288076133526 -8.80859719060493
933 -13.462733189126675 4.2258876795321765 -6.365387657627526
864 -1.524926213946952 13.205935014852674 -1.0580066696897488
556 -0.22142051641072116 8.322621912022282 -2.3212985097768772
1314 6.180109681978958 17.387125375833953 4.461158565182125
1437 4.9115151979608385 -5.936410283437033 8.953770512071861
1364 5.928649382909612 -10.746833463200511 3.699952895073386
1014 -7.242830782072053 3.298816350281042 -4.099479306248541
1717 5.389178907899933 -3.974975723732446 8.725163913614281
1941 5.363381614502324 0.8751486280353958 -0.6079696962807727
135 5.202488117958025 4.1152296613841575 -2.2630248731346936
1532 5.352878622155996 1.8875077478195044 -13.320354792053802
488 -20.788590516262808 -12.614798349312997 6.3980766874068955
2138 9.44358413637939 -1.4258944656109014 8.494138929933376
723 1.513199928743437 -4.745817277666722 -0.014861401491785648
946 8.035911624356478 -1.1657999455103487 -7.943789878322798
1624 4.5223754449835525 7.963344603282307 5.555013243392641
355 -4.214714658938676 1.5348215517634458 -4.194426609140026
591 1.938782122428348 -7.009561046813216 -1.0511291350583145
1841 -9.660592560699229 -7.977117270417175 3.8783578763801723
1462 0.48920990163048667 1.9975932649057766 12.097498009400303
1751 0.19105297819912795 -5.5959982159208375 2.032075507086408
780 4.404871134161612 17.787196273783632 -13.189471150966915
3 7.926846146825395 -2.5658713898899514 -7.361662543962966
892 7.34969883964671 4.077750788613044 12.773358654955308
2022 18.373415854417 -5.2745919723664985 -4.721743585607105
28 5.153780101875017 3.2826051979150246 1.310877611892144
33 13.836530681906382 4.667568676733341 24.365365613296355
1164 -5.919011065509903 11.650327515693817 14.936690451256846
19 12.067779008782905 -10.897304647153787 2.7772944116414444
717 -10.530169179757463 -0.7623789353296039 -16.667435784299656
550 -10.694972812367567 19.055417763089846 -15.028407627891971
699 -12.284977803759636 4.606394777349646 2.645075877845237
1301 -11.681402682558458 15.129148213640207 7.5824965598831575
1538 0.03480931760962381 -7.478707554577605 -5.4761818673109515
2146 1.192411973842545 -0.2991052757695491 -0.8427509424325903
159 3.1809194169556423 2.950589209897478 -6.030742017635306
1127 -5.3893663578918645 -15.857312352584717 -15.560257256889836
808 -7.207457833429593 6.6757012207931385 6.8263928937218505
1313 -8.508889497261286 3.425867817176778 -6.214233531489569
1836 5.182935638289127 -2.744065491195692 -6.903232171727927
71 -18.507652785738916 8.547788300585651 -6.967030372015578
1393 -1.1869752815763754 6.606596949392909 -9.020798140893174
527 6.27959111793146 2.427521565757089 -7.3499349497018915
1699 9.42176307889035 6.18370051101076 0.32320889169280975
376 -15.249894183773014 8.002275472814146 -4.740330882443559
67 3.8637764475887226 9.843204674032092 -12.889773914148485
2044 -4.185542875411829 22.574696930750083 -4.770779121735859
1793 -6.4918763291887585 1.4479864786663532 1.3941383545113955
1835 -13.406928107947499 -6.6049007768863754 -4.879539436401762
62 -9.083094709394274 0.4291631388372687 5.488285176225896
911 -7.647254062505963 13.445940764346204 8.246483089674834
1442 -6.212292371799014 -13.3249060757922 3.0218040860962674
1293 -1.1831801354955598 3.1759796446728896 8.090908102064931
1412 -12.749981888351547 12.007972492027102 -2.9759318833415267
1167 -0.7023848116008546 4.6848063078700575 10.871639239209722
851 -3.3515545643060243 11.439762101032374 -3.5322033447622925
816 -5.3082966927033 12.29837713687844 -17.695938344037863
887 -9.907948078894961 14.677743995168816 9.803810791675541
1995 3.9746619622836845 2.2878069855392793 -3.849594134805669
479 -3.586284698210565 4.863016534605659 17.026190505449073
1829 -4.1580005723249736 -4.898671557662115 -10.306836671637704
2016 -2.9281910610617343 -7.2407965597412405 2.1356268084824355
1523 12.750311962653733 5.233884409333934 -2.114826060341877
942 2.508431281109441 1.1498517732678288 -1.5661730897109134
1489 6.3509207868848465 -5.893930238912037 1.1322623151957973
460 5.598152816076999 -13.167617684079111 -8.957902812713133
1342 14.58117592179801 -0.08322157909419904 -9.740323741084541
1053 15.658843818024685 -9.202161464868446 -4.544184240200521
263 -0.5519262432117866 -3.7681287733607007 -7.972826357022442
729 -14.325821505129028 1.3650348801132228 10.6138115665168
865 3.8934732978911812 -7.556246144787629 11.96121882272466
1638 -8.601613903095782 -2.1835262566517324 -7.370165194124404
222 -9.207678762462951 -6.36600233441415 0.14389082009586082
461 -1.6213262036981768 3.7233675807128335 12.583327610807642
1481 -3.9991003589941125 1.0613384684637839 2.6917667971415193
687 -2.4529706503503683 2.432046777310794 4.129518987900771
499 -8.107442811906992 -2.375631937045631 -4.041679886922414
450 -6.827461042139262 -16.828690961529887 8.297897439523814
1346 -1.0924670388171125 -8.806846316221305 -0.4805409867238427
321 -4.734399254941211 3.2854977109603785 13.322297847065038
829 -5.470076732599544 -5.061629209218449 -9.882104966075362
2091 -8.154990820476938 8.286490359772943 12.359915139174834
2036 18.923213276782608 15.320610306948714 -3.2225165916185587
2158 -14.699841506267894 -2.7943601611363755 -5.191560624279219
1533 11.234993640362491 0.8365444948742546 -2.3216641375618603
1731 -8.32264970207785 8.21983733052201 6.242089560229779
978 -8.47878859806696 3.8924680372711435 11.845874262558048
565 -2.519120957027799 5.426234943321441 6.534942453696852
535 5.350970359894179 -5.354257632928635 -9.326499828612251
1124 -9.345027257495993 -4.122854317198032 -3.563934533416978
340 3.4053618683689706 -0.7073026152554048 5.738184054555924
1691 2.269608281419989 19.62477255538881 11.612911314661163
1664 1.176538754475506 6.295538059270781 1.2106443391445065
915 1.0769248701792244 8.126394081354174 -11.177288900330572
690 -9.205363705094795 -2.4920366379406675 1.5019171210370414
1589 0.9595731521739912 -2.0685675129022623 -17.08302079119636
1413 5.101186676886173 0.09198077523480987 -16.485499776363262
1721 -1.0819010707914791 -0.004249426612267027 -2.1389925282858195
710 0.5559017509221484 -15.315869731876464 -10.337197825093321
103 -5.13460835658574 11.37148930410138 -4.701097042399478
548 5.967585767112107 3.5316237674158475 4.196972061211005
283 -1.610857365669674 -5.0871075593005175 -4.726015689822544
489 6.5049972318359615 -3.266846556496973 -0.9712479163632731
388 4.657056959299293 1.1477060234482424 -3.9522503897885537
1678 3.716812144983008 -11.842843484564666 0.06970552402971462
733 8.10003805873981 -7.575959877084585 -4.454314557749659
883 -0.8117033273853346 -0.8672135513276286 -4.773079623931558
107 4.669511929805774 -14.140329112089915 0.667546693863563
1093 -9.59564569245085 -1.412394632202635 -0.8565557367067572
969 -13.629109885415373 1.2669107062402085 -13.426569755629979
595 1.4229149875165563 1.9299503777685751 -26.422997777266705
608 -12.093149758250089 3.06347280277871 -19.53848039257116
1932 -16.111150765557614 -1.2468238267369636 8.501072075310528
436 2.9399386490263453 0.6288386107031716 3.0372033010785446
2141 14.21229490855318 -5.089122377218359 0.23400753768249094
433 6.186674191245625 -24.602355562303526 -0.579257353154757
162 -7.9618314901797405 -4.801796815431501 3.7408988365716427
1483 -8.379998388528973 -7.367690575308075 2.7996560978838474
272 3.7437713656392697 -0.8146499104973802 -0.5666244336513171
1375 7.008250519374233 -0.9276339275704726 2.8947480060939723
1895 -10.981534483709078 -8.58397272536317 5.886172811758798
1240 -2.0956453493304155 -7.395572000705153 2.15189678917231
1954 -13.802454012300382 9.042060836599784 -8.28246330643195
544 13.131671254514828 -6.774073802683793 -8.95866138309384
1756 1.5846579204742355 -1.4495578491763914 -8.687023430326306
298 -2.852380046695365 0.3197006944240649 7.641428374873492
1761 -7.089528561515351 -13.60059325548645 7.9335304889985085
1216 1.8262705661956298 -9.31285278669899 -0.3823727511348436
1067 -7.741595607724201 -2.6633937498308744 1.0772721767881024
2072 -4.529235635151863 0.949710815953817 -0.7876587841631185
1596 -5.05890126192939 0.013217144203955818 14.69354488449849
1031 -5.10381991903545 -1.6320662845904714 -4.014110163257003
1486 -5.1054504100672204 17.44946420995558 -8.659175046249311
2083 -10.376575990846888 -9.886270528783399 10.42482837862661
435 12.165528969372556 -5.300190734310744 7.369269220403731
331 5.300867029710167 -16.729263626055907 10.711309272286458
904 1.7218374475581384 -3.875622079924851 7.355990611580869
771 -2.939887027695324 2.863464757718047 -4.0977432234187585
607 -10.546204212171755 -2.2788372962999746 4.499681799601348
1881 4.5286333443743985 17.005375638574126 0.9490184751470719
1417 -3.142446806219471 2.4340366686878276 9.633643451811155
1163 7.128231737090495 -3.699792317894095 -2.5741018114257126
400 7.257037677521888 -2.5440767834751954 14.2775406896358
1927 -1.7261249175819084 5.475578630093428 6.769849694830956
555 -3.159151574536695 -6.157551512193157 -5.764282767329054
1675 5.067166295339195 -1.757469117548372 4.325369546531924
1530 3.143098826557768 19.527892298408872 0.30711149503917945
111 -1.3520470566632576 -7.117490897428266 2.1702505982699147
234 -1.7919815991949632 6.698589753352207 -9.758098286231364
443 3.192967842472309 -7.3782976060339545 -3.8154928661529053
1312 -4.685380306308096 -10.214497867347493 1.9603051944371455
1332 -9.241493403035497 -2.897193338531971 -14.108364382362463
1689 -9.574092342999364 -10.159764776720886 4.4787250114525605
102 4.35395892448508 2.496385332304918 -8.061979812303814
700 -5.692964426346077 -7.390670649244156 -8.47627788032124
2010 -7.3990627457914195 -6.8664252563200545 12.939780197801364
909 0.4057126600793009 1.0714042555675867 10.373719144621639
1221 -12.117818849478592 -21.404228081091162 -0.45175883308745846
655 -0.7437339707308472 4.075829876133578 -2.5458157476297227
300 15.225942537247366 -3.4646657401864864 -0.968634072197973
1480 -4.960798879679749 -4.152824049805704 -6.931242094710448
801 -1.6424510671036354 15.824787560919845 -2.704061220276731
2110 5.533723235434411 4.4368364097534165 11.818745140090728
2065 -12.548340948863622 -1.2993650417456966 -4.387038988514195
2095 -9.249204484434765 7.854434037220204 8.752809637104638
1792 -5.669987447187603 -9.90490900446134 -8.712057189898788
1893 -3.1971923771346544 -11.905956800253728 14.850028104808278
418 15.976320486786324 -6.597342029844193 0.5068515673887988
1340 11.919969148257257 -0.004069473167991809 5.909204281330346
1780 -0.6427056902269729 6.485672896708725 -3.311255777836533
1823 -12.817727830173984 -4.555649794547337 7.2547953728296894
1351 -7.843094946942021 1.4651304087132653 12.336780792438468
173 -0.05456838514960179 -0.6400197009002202 -0.48449503389910414
585 -2.3388547206885724 -17.092676407896363 9.244806799164559
1619 7.71269062994347 -1.6791930008963318 -4.300174218604965
901 13.73327034480117 -7.252859725012714 1.20463105543176
671 5.7336740678737295 3.2571612969997106 -0.9492204724270379
1501 1.8105929231837452 4.083579726774925 2.968592007898795
584 -1.4223166023922846 -2.235322002907153 5.953608166922416
940 -5.2061412275093115 -0.19579537843941452 6.424256443629852
1041 8.959815102599986 2.690158245021809 9.839453228703954
1347 5.364218934423785 -11.4875749332337 -13.190423459376225
330 -6.3085764568680665 -19.656239701413686 4.732129997414509
1290 0.13158964383129043 -8.379395673494688 -3.788936316677312
511 -0.7573977744470175 -3.8662768487935324 -1.075193823011934
469 -5.814179217148248 9.336947213949413 0.024132728621181897
606 -13.40937652475817 0.7048391332812031 -16.97857325562179
569 13.223083289436408 -0.20084246634497382 -11.009022721682616
398 14.488319290963812 3.353865473793774 -8.85337391773004
850 -9.688099190682735 -4.280242470347354 -5.363048526119767
1550 3.5595753204154126 7.033551217695461 1.3145530504315233
1007 11.306635324512932 6.381472237733467 8.016868248829523
740 3.787092689593173 -0.10616622852183363 8.382150665127513
709 7.416972233114761 9.726719484566873 0.3664299303959912
774 10.698210358136267 4.676613875027522 -0.20270270175587918
467 9.385060335374167 7.47036015398534 -3.594985330143054
1603 1.2012466721735766 -2.076348145125743 0.8060815287684621
490 6.120147667170425 -3.1738357323355615 -4.010791244297542
1669 -5.649017521081101 -5.443343418196805 9.227046431368278
1582 -9.766553419226147 -16.264289405842675 17.91466063162193
941 8.277546118778098 -8.232982851776404 3.850680456648758
2114 -17.58031410245422 -7.314802544182778 13.327825534571069
1423 -9.777666972303834 -1.7762136497888996 -9.964692520500549
1000 4.702474469372359 4.9592246593614435 -4.396936695494742
2130 -1.991562172173354 8.829348008846825 9.640439362397958
2144 7.876578715176965 10.246826202633242 -6.072493080443289
1508 2.069525816596634 -13.65536751539224 -7.4917971239183725
2017 -2.4611680762886947 5.731380100576924 -2.1589309301319153
6 7.33144848569177 -7.0723820386343546 -7.937030610931369
2108 10.75215240814697 -9.555437290661448 4.702978710554674
482 -3.1420667619437017 6.781410497195913 -21.42855122917846
1353 -15.928307229349816 8.318479078159365 8.467883791501388
130 8.703268554894253 5.139779330821946 2.5915379548640103
619 -5.418524537478291 -16.26388117519553 2.84672782917364
167 9.86952707957988 -3.5422515262368286 -5.52664295611307
2103 4.177327570506711 -1.9982784287374533 7.713636202622766
2098 -4.593994265232407 4.126248315560136 -2.3874423842784402
1071 -2.6932317469157763 -6.541476525127894 4.924167869954677
1474 2.752429817178711 -1.7989350772070267 8.817289065324841
1441 3.3170697814925543 6.053553697560591 -9.458026354427304
277 6.895937288542415 4.0848296887255175 -4.1924317085878435
1003 7.270029914659024 -5.457332736711234 -6.447666679548509
447 -2.9067764433963768 -7.0043449448976425 -5.374370282100149
1099 -3.6697216333266507 0.30009895579804113 0.4358648079135316
2015 -1.0818759944299121 -4.038039220363217 -2.0476829980717053
224 -8.179911915909637 8.677402909132493 8.128999220779962
961 -5.018346035191671 0.7700315459045454 -4.179431691512711
473 3.0304350844937256 -8.166583433865855 -3.8768352673843256
1106 -23.027261430576107 -0.9210014705868538 -0.6919085438959428
1554 3.829868395251084 -1.0692561100556792 11.617546805997387
236 11.842487592284632 -3.0372725242668595 -18.279061384520265
86 -5.6626755423356325 -6.120716692662848 3.2530304936717767
408 11.995540248814585 16.655087895965103 -12.646470013257156
281 2.48174968414205 -11.989376681105414 -3.8677691972823465
1515 -1.3385870977077226 1.6216595279850534 -11.21723521990779
1434 -0.40218155546400985 7.860173398886916 -0.25897814119439816
1341 -3.7491286319318338 -11.096372666158231 1.5022730296994908
196 0.5432847720388875 2.6048469869911925 4.621880216333744
1775 -5.46084072867402 2.6300892438854375 -3.082373133536482
288 13.159599026895972 -6.066637486163275 -9.062076492565263
520 -5.915565237744701 -4.40481853887275 8.689479598139828
1285 3.6055114179750616 -5.919466118183494 2.2822253261213663
1781 3.343341161466907 -1.0595981238104453 11.83787308912712
1716 6.830833691286449 13.264733877092256 -7.563783001467457
5 0.03876887600020531 -7.432675881208423 -5.776290836045574
1052 1.3909371105401094 3.6850525852491023 0.505437513825371
770 -4.776717655471758 1.8583273990578306 -5.446753869419698
2059 -6.341087381090168 -2.199246357227793 -7.52836421725346
218 17.36227065610002 2.5711060534177985 -12.69763513644334
1602 7.595813562611417 -5.810535220640225 -1.5672126926359458
51 3.0972580676245887 -0.7871315206920975 -2.5126680064591755
154 10.322469493557005 -2.9056380192953246 0.6533473402568865
1102 -17.31328277321718 2.5618751476287933 1.219892182912931
1733 2.761613325166156 -8.194289105535342 -2.8363728748462194
483 -0.9034038128130736 16.25437688769238 5.204409323086505
1917 6.740678298996793 6.731225162536797 -11.128496240134792
614 0.8106290035547296 3.923535501221024 -2.482550338134076
756 3.298080706463781 0.35063622015856993 -7.811340839091959
1334 -0.8426790840888343 5.595969837758566 2.70032251909947
1209 -39.14699271870602 -9.053733884873726 14.938200565868902
458 -3.173089866823089 -0.5367448273846575 0.3132476971240419
648 9.390052120285688 2.8035911175135118 6.064898170113505
1188 -4.33000672925919 -2.6994046341177196 5.760191368028554
1840 1.9578136134555721 6.776060357458041 -0.3894883477475566
1217 10.36228475687297 -6.4301572155234314 7.135565731658104
1529 -13.795755971268324 -10.092861214468563 2.1684088093572376
1670 -0.9608480662126436 -2.573017126293648 6.391297389813569
2013 8.127909948891167 -3.7459870943090503 -5.812770403612404
350 -6.745574143270201 5.053928233334959 -2.6053928588157236
521 -6.294672630412683 -3.379782704867584 6.4164656857351545
758 -6.222723740933468 -6.008534089576663 6.799071277338757
571 -3.900600896534202 6.033375699851383 -3.2182775467701994
1962 -15.235041046925431 -9.828574151724622 -2.293356249483126
1324 0.5277225809521012 5.299879580006742 -0.6766567161769478
1470 5.685391604421317 -4.094938558869248 2.7294286775101444
378 -0.19909341947910486 -6.831615380259898 -2.1843687318672305
814 -1.6536150167725592 -9.559823568275853 -6.946348054438939
1296 14.832182248397961 -6.227579332261626 7.088523037940511
1548 -11.29266153202748 5.825277208218018 16.107344392000364
472 7.144476686533513 0.404523301046808 2.7465905366662247
1629 11.09565400149956 -8.632627159304535 0.54415152903649
109 -5.451509903695559 -3.0130383844353736 2.57539311643182
1286 -14.831822639625795 0.06832377390429208 4.3928854388581815
1064 -4.444768572720929 0.032793216811195555 -2.648707498172469
654 -11.506409787460111 -9.716897117888486 -4.2807744512101635
1080 -0.08149452444945755 14.362873143482233 -7.9011281106898945
888 0.5585931183581445 -9.659770978825247 -0.5830682144824645
1876 10.034691966209198 -3.5691525211618456 -2.0873590970111273
1467 3.5256889123233166 -7.682324087888963 -2.865170892005193
252 -9.798794779104915 15.558522953370042 -6.930068943155061
1242 -5.553029387811582 -4.244069816165693 9.030483386355765
580 -9.537985123538753 -2.9667656102503477 -8.433467864028446
646 11.733720288378821 0.8344730415224868 7.415804469984623
590 -9.063105717089757 0.5158307234241021 -8.804957097480068
1764 -1.694269344123333 -5.145300151025321 -8.737589466454338
1278 8.229288261842832 7.513120951846745 6.229353386938281
1642 11.550981657118228 8.223444275139608 2.289453066999133
1994 -2.0134622820901042 -0.3183907985712435 4.925533190777329
337 9.923147423442499 -0.4487017979898462 -10.024856383751487
1148 6.782854714417077 2.431287163050966 -7.080886581656906
1389 2.8477193933054417 -7.063383006117216 2.0864339985023226
523 -8.145789156189855 -0.5861712150998079 6.30905227034983
506 3.234928172024565 -3.4867628198112794 4.722297597556419
1037 -3.2155441853095996 -0.44547939434265293 0.5210033630426303
1101 0.20192770751631864 6.273717434966774 -3.629628987062382
576 12.643072789228842 5.363003307477554 -5.9338231665212975
824 10.61773260536855 -2.078450283046433 3.5379769456166574
665 -8.471769393982253 5.974376644133545 -7.668464340858663
156 2.9695435561890067 -2.614852853888313 9.291194319676183
1610 -7.541535867283202 -8.819412163170021 -2.534876822301516
998 0.21549806223085347 3.5007647355784863 -0.47695947826713997
2118 -3.5291354987901724 -7.257893917404548 -4.080883709252096
24 8.508893526419023 -11.589502658978217 10.72168178684119
2115 1.6757673440474927 -6.104211997865692 -8.889236107007127
906 2.4708825911566823 -4.549778017078266 3.8758021546006236
1695 -2.5323148331972383 1.3043448486115345 2.4623189573340416
999 1.4421229436918614 -4.639723982601821 2.497754492754849
1173 -5.3281716114450415 8.933499343214244 6.7269174265629985
1366 5.9948905084572655 -2.376688677000835 -0.7897171406752211
1130 2.5757652280109973 8.418853168908493 11.095889223522722
1662 -11.878287267378582 8.82296007449733 -6.202286269660413
402 4.775547693924631 7.559282554585485 -2.6212361470562056
158 -10.647305367565316 -5.002074307320808 3.2139142305581148
357 -4.472364126754095 -3.256986231921637 -9.995969101199144
647 -20.043422638502072 -8.379900358053577 -2.906643037016143
1299 -2.8931439344476098 8.525631109721042 -3.7486979289056546
1989 -1.9921142700707615 -2.0392051431751086 -2.872245342172543
1505 -3.2720254943202733 6.044008620602502 0.8488967588371521
363 3.5059414597179774 -0.9244698173306246 1.826694186147103
918 -18.39688155792695 11.05923998926302 4.079562059954591
1542 -1.010671213651524 7.199854936502005 14.641797098318428
1701 5.950389392942936 -10.021083389294931 5.567837860677957
84 -3.778104893782953 5.197629474637047 -1.9411509445851685
890 -5.468223644166629 -1.3080956661112404 -6.026568739084446
2020 2.3322236371072336 2.0346965062171414 1.2851787296743582
168 1.685964965288914 -2.1409839721878656 2.1167511420180025
477 -2.4595282576930546 -2.630667871162843 -8.628415949670874
264 -9.758527442949038 -6.76604046235303 -4.722554115219541
960 11.9952002614868 -5.673440031149958 2.807645770744595
531 9.027790652589388 -3.4541326734821403 -15.692663793089883
1414 6.578368224679634 2.582418632395155 -11.353815725349985
1320 -3.457757087211242 7.95329111658289 -0.8796002009770925
988 -13.652283370780225 5.107481632313219 -5.378761161147674
1109 -17.072717287173084 -3.0664483144714554 -1.0372115435075542
837 -2.503644377658068 6.377640669766948 -3.5040220772647657
1416 6.105136865616731 -7.061772539703268 -19.29928528484319
1159 -6.9922041705553095 -5.494591302108613 0.4455491168092282
841 -1.6805080404947317 0.6099193724637927 -1.1216672331145603
2082 2.7032938163066422 -8.85441731563797 -0.6966429870357153
784 -11.169370840141278 -3.4140047326709286 2.159224457832533
1796 -1.6175501865972892 -3.011117740183544 -1.5501232496375978
1820 5.3512176928215895 9.523844037420178 2.164881264627665
53 6.545694265815941 -10.24406515533542 0.33714629324969636
1090 5.007352595443284 0.6545730851262005 -12.325302754666941
64 -4.589602069631865 -4.714128418592148 11.56340670061618
1371 -5.061383166285533 -4.566886347033862 -6.050882456331558
1179 13.69386629902834 -3.5485611932206367 2.686265084613432
185 -14.263493241825447 10.590465827255922 -1.681562624231137
2039 6.12309712386222 5.304715350037307 -4.449483965713125
1001 -4.775934891898505 -2.110217673966705 -15.22567534612441
1868 0.8625244246383275 3.233275641285475 9.332014679689424
1025 -8.56006553671001 14.279506255728524 11.763316046229415
762 -4.770493167710461 -4.677637571044717 9.573786258237801
686 -6.574969033335334 16.75638036803877 1.068049708010724
788 -20.39099726498325 4.775697200821812 -0.10430394284734534
293 9.660366815188702 2.7274669910177667 1.1888756424503353
566 -4.748171488139206 1.2764176132230645 5.091201793572209
119 5.438082474641684 2.0359136255479275 11.467591809553694
23 -3.435821472102847 0.3038664706470519 2.706449064548507
1791 -7.149205248589382 8.741525971279282 -3.422113641532655
1556 -12.415984938288517 2.1577326822922167 -3.513487659584177
836 12.282009534748306 -13.300476503219839 -0.29961157671025634
1030 11.012821337345525 -7.156404402946937 0.4629398195496603
1472 0.38709521506685274 -3.647652537477391 14.906147421734985
2019 -7.142476212940681 2.083859264669934 -0.45578436593871363
1544 -9.96584287294977 -7.52366546972784 6.842092600359744
597 17.588611405778057 10.15031573593053 -9.142247014543132
1026 8.763632238332974 -7.072261404515545 6.52243898458979
203 -11.255736033104107 -2.1941703757348305 2.1457067617866614
1142 9.823492664693529 3.448451567864499 -11.206014080805502
1013 -13.468197245302095 -9.499521438612826 -5.186278673038618
451 4.39347468022899 -1.5785530359011775 20.12846555416591
1310 4.468506287877229 9.188454244192325 9.182256723945661
572 -14.555683544010753 7.477988348478449 3.027446287452509
2037 -1.3452259341392745 0.8634806235377074 1.2667455593524708
620 -11.655143298298956 -13.654923050719333 8.242341223415734
858 -10.873345401367772 -0.4760954314593941 -12.928820663860368
1974 6.426175104465277 9.30405753026976 6.075836397950472
268 6.485131988727112 5.933228757104679 4.034303762277276
669 -6.554737399357381 -12.960010764535879 -22.625058813622925
1564 -4.696942692538103 -5.58796152264269 -0.7304508569371316
1004 -15.552291094410787 0.6924976849947162 -1.0161917077695404
2026 23.66720755754492 5.125331498941866 2.3681126474762673
529 -0.6308602327578208 4.692711767257775 9.76752121454728
1207 3.5789635315139448 -0.4266694120940417 -3.845583594110063
1970 -2.2767842636535516 3.4084887256220906 1.3572582196487304
621 -10.122671095076054 29.317799364149714 8.711109947409156
1325 11.20676113251003 -20.299285639093025 4.607501275801375
1600 3.9853284797604283 3.105293835676701 -6.240664136035248
1522 -10.774677927415492 12.661382366329455 6.042568589627645
747 -3.4622792155335467 1.440017166970038 2.4482428493686235
2069 3.7695376062013994 1.5613499450238875 -11.077072828761839
894 1.2824004884811935 2.8395217673362847 22.703629149068576
601 6.414517139739678 2.048613074428312 -4.875523287000297
1640 -0.669273142282304 -2.241474725499196 -12.741506593514407
944 8.007249856157525 -2.8310492963019938 5.27325315782978
1198 7.124573812906762 17.43683016332249 -2.739549020618844
1190 -2.57230738619973 10.022735360538725 -11.460139118200454
1913 -2.985338460427663 5.685130141546363 5.465705717529954
1302 -0.9239110808562322 1.1639079289377847 -8.071577632679507
1398 0.348129323481359 7.656309623842996 4.091616715853213
1847 -1.5826227515175666 -10.85943553444203 -2.433737354709283
2058 4.668997908893209 -2.6149091516919283 -5.397378235567541
428 14.212043422246369 15.011456179302755 -0.588447648702177
70 3.982345129778369 -11.46185587498482 3.468048224703677
1983 -0.6607502637284886 2.57843195089445 -0.05497479217216773
1128 15.290106756777108 3.1687106218211687 -7.769738649724773
1966 16.38931044351241 -20.371691254466704 -5.3740261260838125
1322 -1.9662566100064134 -1.9947292296153023 -0.007896182491354391
1227 2.2225680723958923 0.0886043100925712 0.47038850335685517
754 13.450317212598572 -7.187384648162037 0.02130099591997486
1951 -1.6881285858769561 -5.360067240962181 7.738692019949455
325 -6.915157724710824 11.069074269194536 0.33886365980497746
935 -13.728377266300425 -9.870156300310924 -12.100956988599421
1630 -3.5962794843369017 -1.1443576241730784 11.965176369660425
1012 1.2681065914061558 -0.011903400068370481 -9.170798022910933
1401 -7.351961882486437 -0.3584782449550439 17.909720621831156
938 7.085125874427696 -4.420206186353213 -1.5891978473056831
1498 9.864395304857913 -5.660230295679075 -16.76635086857921
2 5.4105398747089 -0.1045037969686541 4.381145443644404
127 3.7870978980539 -18.01525093675758 16.91163406343513
429 3.104337673844288 8.219329320590411 -11.0510859362806
604 -6.128518070596628 12.171971458736238 -0.9290700372782461
993 5.684127736551832 17.14148172604884 -19.3981353432117
1798 -7.250582120366222 -8.908567410350967 -0.07141352047563408
1369 -0.6740877766551568 1.7537363804384398 4.510946587819401
2064 0.40397743217678134 13.521317154579895 -1.3661480678276914
916 -7.023985555184977 -9.522862785370972 -2.7948284366598095
1063 -12.3591880416861 11.901047392753224 -4.69668509988941
713 8.447975618316915 5.167406997248285 -8.125328199693943
318 -10.079850460244847 23.52867844193886 -17.385246157579967
1722 -0.10776796364535254 -1.6002331535456564 -7.437493746912396
992 -16.451142359088287 -1.794909579667528 -16.57847657424586
2006 -1.0008736047628481 -0.1969680071985725 17.60206199114709
1979 -13.265137535067844 -5.24256120299103 -12.07516379473891
1882 -14.490580812132844 -2.5691181857092857 6.5022629905782265
1525 -8.186996373994182 -7.922165367531742 11.446690946197254
1206 4.28422270428527 -20.686770055031335 5.645929828616915
1277 -3.715320973256541 2.777955937461156 1.0024405729199952
1477 5.7111206550768125 -6.807775680869703 1.8311305170712673
688 10.201702960202574 -10.941880302873669 5.314647582685597
452 -1.7981964632674026 4.142801611592849 17.09996228984532
1811 -16.30104602113145 -2.5456582961988183 -9.700293179874642
1747 1.569221121390671 -7.832517983060598 -2.438837268095836
1191 2.4825286881646393 -4.2935599883321665 2.9304344885331868
538 -8.675379047384963 -1.5807111112579768 -5.390438189648417
1694 4.165038825952775 5.206815945514554 -7.325816985540763
805 8.97633620523876 -5.507560015454894 0.08674105571954448
1176 12.423318092712714 -12.99090109593157 9.726156668155541
1601 -9.157254225197413 -8.63703995924635 -12.738611866111878
1789 5.754162826810296 1.058866160405633 -13.213322939813729
1245 10.824048758760233 -14.450094328913705 1.2199026358667941
1113 -10.422200769573218 3.8652186157596207 -5.352647013447009
2097 1.5674273873793363 -0.5936531682275453 14.820230633887524
966 -14.509317708993033 10.019467848802318 1.3172961136491057
1126 -13.97824801363642 2.6199465835503086 -5.081599532724104
1931 13.825164181268706 6.213055282330649 -4.034674320666413
1971 -1.2871654738090605 11.07578716069868 -1.7224154510505005
1541 -1.5249845480969504 5.534395161636236 10.45458639181663
721 0.5840009800174767 2.754639972208041 0.9895672779263956
896 9.911574691688 -3.8606459847881904 -7.912427698346959
1152 7.98775838447563 -14.609228874858116 -4.297380716321876
1355 9.984456499855396 19.01506992734442 1.88463089038826
928 6.950084996502243 -5.797507447052207 -1.024507103895052
965 1.573721713007246 9.840497857993173 0.7530181381207761
1580 -18.38274323761257 -1.7860282890790364 -12.566721378746879
628 -2.698543127025924 7.2710544820306415 6.345462505436322
1077 -4.842552807045954 3.208381640581623 11.177019401511922
830 1.9016543022019723 0.6039246955815974 3.1577578790963243
704 4.519472614043306 7.641040927337296 -5.0489560396346365
846 7.305153713658568 0.16776418003757557 -1.0282176458764765
640 -5.417824461426694 -9.634564309326473 3.5623987163474515
1273 1.3915952826485434 -7.472508278724406 -4.143449346414814
1247 -6.186922703022867 -5.6895773428692324 -14.334496858951775
1907 15.183233670319092 -1.1087059418052507 -9.095577435674358
844 -3.2078580417724303 -4.648153051485219 -6.101631926922676
679 -5.281770699622095 7.754839806792507 6.282439063569482
1616 13.612672707570525 -14.26624013817673 12.575365460504829
764 3.411295259519914 -2.1486068406737897 -2.018023220280285
270 -6.160387130345052 18.646683973533438 -1.1656674085246528
541 -2.2759696606704543 -3.831813959188511 -14.794693596875002
871 -8.741485730893439 -1.3993737978020209 -10.936552204970026
329 4.074293031166441 -1.1576370446309943 0.5308777559174371
1622 14.908885450961817 -3.8012242703708172 1.6369262277193979
1049 13.45740809873026 6.249368874263309 12.224497004575673
1029 -10.775937104457514 -6.204002522342104 14.485675639026335
1246 -0.8885409054440572 15.281721080347964 -5.758510749804007
1315 6.766829538634099 -4.4708370014783405 -6.427655541914637
698 3.6019748292906333 5.182169042049582 0.5225844886030765
1112 0.5718729370873138 -3.8129356537006216 7.190738441009937
1473 1.1075861695688831 7.352432462924146 20.540104040154212
1718 -4.615059000118507 1.173768502952016 1.7626978346997866
1805 -0.10261808881773334 3.7147784495969427 0.27256683953132516
1739 2.0415730783633874 -3.417722729709061 6.229382118239503
554 -2.6795902699974206 11.282748738855833 3.9853984939116036
164 -0.19784312549694874 -6.317589818823892 -14.914082266871825
389 -0.367206650507731 14.449456712161048 -5.847687261733154
1239 1.9139190888967843 -0.3804407602445746 -9.21902029622244
1291 -10.078568522635058 2.556052211589515 18.09345940681873
1778 -4.0403612979338535 -2.309987976916998 -8.03862022634862
1459 2.553524317727379 -3.663859023642122 -15.251997736621105
1005 7.249849016735376 -5.086833012789152 5.846484695590383
39 -2.5035650378128604 -1.2673209060747812 -3.068861396049864
953 15.024514068542063 2.052397940438184 -4.878468495341436
1143 -11.68956732256914 -3.2717195804063177 6.5743999988484
478 7.320249400170487 3.591117186817276 4.651600360939406
491 -8.741315155240287 -2.69726888457291 -7.503755494892827
1396 1.2347011692967846 4.088528674725896 1.9124634836406114
209 12.760123011894349 -18.364896767656358 8.912920937636448
1410 12.680598428847215 2.6140806513233406 -2.2371009269442834
47 10.27932564575698 2.6720906893752123 -5.958602820207728
532 2.7329608954352214 0.531565445708454 1.4758361834247231
1409 2.1565625502130024 -11.892492856447035 10.174078198926143
1499 -6.334893419477162 -11.6639332044203 10.6006134590353
1911 -2.1887295763501697 -2.933039142211139 4.251960547822203
1184 11.445230086585715 4.2256210035267046 7.055310444193747
1858 0.6964509907496768 -0.8605614552131765 2.4294978530618576
176 6.078253562016303 14.413500690242309 16.244935396479363
1777 -10.344684398765596 12.725074400380315 -2.125325419851564
2154 2.69879822534069 3.0170202772344745 -1.125517718737447
2080 10.209575220608741 8.772127353508349 2.5533531335245536
2096 0.748427305561773 -11.552727085406739 -7.3861682614546345
1110 8.279926985461536 -14.71500979898846 -7.54709955427116
962 4.3707171905379 -7.126209522603193 -1.6857250824686456
1942 -0.16933752833572416 8.737059455572325 -2.2781154141182793
1022 0.7027990177056662 9.843885716912892 3.534474059569012
57 -9.132842641806734 -5.053575358180961 14.615782551224557
925 -5.034674810011044 8.926332872690368 5.6584005215173026
823 4.541502896906323 -2.1784466118982366 -18.291154071990597
1121 -11.8718604426719 -0.8354078136091648 -13.237312738769857
913 -8.662272363131327 -2.5966767078349258 1.4878755879609753
1365 -8.12621507719358 3.3764916917555228 5.075500176893689
914 0.7912671326698394 -2.113073561081933 7.443686558741444
1019 3.9323773442461833 -1.964736464806469 5.15613989633704
1079 -3.814299861602243 1.234913465792946 -2.9900759612426
1213 11.487903441492787 1.1398913133538853 0.07125140402087907
581 -0.452500579260233 -7.065829340481985 -9.676167403415565
695 4.205853422058887 -9.426022362531885 -6.404394258966389
970 -11.691999261835125 -16.151228565580134 3.821221223236365
1587 -10.038390325864686 -1.4694320398144396 -4.084000273274413
1349 17.467826802073503 -6.881826787342847 -17.849372777801527
1692 -0.39737264165641745 7.184194024497934 21.97017616323127
1655 21.001865633333473 8.957298986318627 -2.7147645975095474
863 11.821181008046045 3.1094706922980326 0.789813705003564
2045 5.212150714636157 -19.723353868508365 6.342930405384691
637 3.2131860840503434 -2.0793427537666007 1.6436543019114047
657 3.818665785761305 4.081639019340784 0.27882237077563704
1175 -0.7504343249966289 4.77980887869524 -2.118572816604143
32 3.4050606855151093 8.246987782209116 9.536160912440991
1788 2.860895386111147 -9.276747468510994 11.847028887032737
1659 -2.319853596870241 4.3535895351432 6.448093456592696
496 1.2429292621301724 5.65382377010254 -1.2894251757573123
860 -10.288268357386263 -12.365083154328145 3.7414444225110173
2073 7.961664153743008 -7.617403507452828 -9.764314345231973
1822 3.1253817941446624 0.702788103689728 9.884143256014438
973 -6.210817906552881 -5.101795057151918 6.530819921306613
1771 10.779701104806117 -1.444191212661264 3.463616777984019
1149 6.712394925912245 -17.272788928312867 -1.174783476659528
1910 -12.461616427198345 2.0473956664875703 12.606724599826398
1769 9.007212319404283 -6.323183844049527 7.209636672625407
1208 4.989920728589394 -25.834056675773933 1.0569318634016691
1656 0.66500808570439 14.878010377655222 -12.09513419985449
1707 7.789631314958857 2.006191398224141 2.5178368704702625
1066 1.1294564794709894 1.4239676187006571 1.8526826820007478
424 -2.944406733170686 4.424456755085395 2.283842118041239
285 -3.7959841072602987 -1.821824575125851 13.863108105436053
1765 -4.518854921442485 -3.897919283913418 -0.37114883902826545
778 2.31720435973025 5.9377562421994385 4.470254824969657
777 -15.544081352024477 14.530576141505009 -2.457235018955941
322 5.907277845400409 15.270395357286855 -2.879367088177577
1082 12.380294330617197 -10.625599015864546 -6.526341627671339
1535 5.0209493671261285 6.074196878651893 2.0100753684071297
454 0.9587753954861092 3.9204096794311387 8.205938127065558
1168 -8.76796208718513 0.2691233974535339 12.029108661806982
1406 -9.91307947283175 4.017401804732053 -6.474195379421404
1929 -19.24205153015942 4.661377207249584 3.8796315778218298
465 -12.359894234113398 5.530133205098504 -18.818785336224252
611 -9.607218064284622 16.776739455330247 -13.893637168670095
843 2.8066916285802734 8.605414029094481 -1.91659181682129
641 -5.969712379195461 -7.851540590866822 -12.111725009822086
1597 -10.774456890445947 3.831901944754138 16.071291577974282
1934 -5.71321456118816 -8.109308484889949 -9.630524139872014
1973 3.755508003749794 -7.26790204541624 -2.4329739495025806
715 10.63813319593098 -9.538548878379741 -10.72629891683457
885 -6.228197976828825 3.4666402685097344 -1.0986832048327293
926 -16.737931433766622 -7.260730493272735 1.196425261233915
1651 -3.8024093927430442 -5.873434683724172 3.871940067948042
1458 -5.209462213489057 16.49552833279923 17.51414201015837
1493 -1.0848285400891928 -6.440640058214456 1.6063790366546427
385 -0.3217457613885505 -0.7674868122583858 5.849754963985704
1378 -6.444012334451589 -4.294783728455409 -11.727983045283386
1463 -6.662314830168983 1.869592464296605 -0.286890692345074
371 8.94915085341071 1.892465115550869 1.516749203192897
802 3.2851915128645297 -3.3392631501860306 -6.798740564572567
1623 -5.054185948194668 -2.389710668147351 -1.3430927863606268
367 -14.069376677317008 5.249499066966915 -1.5841836784037038
1986 -14.137147982061364 -3.2463232827930586 9.732776395829301
124 -3.954733359861806 -3.937016467292934 3.0107332733231966
2156 -6.174597612843395 9.621362282374076 8.829131721588906
1294 11.190369610991828 -4.9073364420626735 8.485590809495328
736 -13.252781662613996 -1.324140566383074 -12.531757449983413
674 8.612354618539594 0.7281092837510044 10.189553052503443
1494 -7.504383625043827 2.5788054321461913 -2.0618316023774224
202 -8.6475129691843 -0.9741858886388313 4.873912324992261
1594 -10.818723524327716 0.9348607484214077 2.1600638003638357
508 -5.933234233168432 1.1108152205862616 -3.282838775584316
732 -6.03583881344901 1.364354235534528 -3.6450828518550216
1734 -7.5073239800399705 1.3761347127488508 -4.679365011867822
74 4.063909350915644 4.185680699050153 0.8682595223498116
2003 -1.8154530681882486 3.487917924243589 -0.12930330602983664
7 5.983211201283459 12.516196380179428 -5.490851057490811
937 4.286958356097237 9.057271267358226 -3.41596802172603
1404 0.038606361718383414 -20.7157606098714 6.879909881514277
1736 3.993629270470748 12.15517182437318 2.879178144641672
1060 -4.3242932697961205 -0.043562136201918934 -5.115261651611418
360 5.429770828485225 -0.408581014288429 -9.407450316562302
1212 -3.881602274623467 7.904892144609024 7.182967974209831
853 9.485793879027673 15.217274457832783 4.388857799378401
1854 -0.5986602787023292 9.542949127036689 12.961132618642456
2133 13.014191712655526 7.851509739832526 0.47561928116515867
2129 -3.0939999127400006 14.365420493878343 -3.1031406244681023
1036 -2.41076686293778 0.3751591700513149 -3.8412695321248784
1759 0.9691826984547056 4.148903706679333 -5.248373897938219
1385 -7.97542848082152 -2.3489661375761233 0.6645138664616487
49 -0.4763831944680312 -4.034524027974133 -5.723673403203105
714 4.223067581616449 -8.124617639317998 -7.87567829607652
1205 -6.920992904601317 -1.8056006014251356 -15.674577977755323
976 13.901198568783634 10.750055123824094 -10.927774030015545
1953 -5.894687975650648 0.4683246716894596 14.074352893967014
878 2.63249648500904 -1.3794307465034106 0.37333643821452506
1507 -10.752025482095338 -16.07473313830897 -10.059676890613675
1155 3.508456619751478 5.080626815283212 -4.176710460586595
617 -2.2206170545770427 -2.6783993986011954 4.441482995931507
2128 -1.8676180199887213 -6.016885125431838 4.260471595126901
1356 3.3208279278688173 5.432667229303396 9.984977055283874
1614 -8.567090469471394 -2.0302446990308884 -3.904219194175043
1448 1.9814700286775426 0.1088792989414387 -1.5526529623946508
589 3.6873615629914642 2.055650183909342 0.6416471010556113
1520 -5.461382762143416 -6.747589234646713 17.995623755770215
1283 3.4393576722481716 -9.16887016144337 -1.0950982974929377
1443 3.011198117816333 4.25550299343117 1.3582372994605887
1617 13.425443750775612 13.082587904794492 -2.8063053835004217
1613 -10.48337093936859 2.6826141577647724 10.191187803681698
54 6.959916197962188 -5.117088508992425 12.510748451916193
613 -5.403736218809292 -0.7235102970736411 -6.591126566847934
1800 0.23073746082301957 -17.039575151521543 6.8745453322519845
359 -6.174496156236849 5.819940410842808 2.968567231469515
1335 -4.13680967370424 -3.4816989437926744 -3.0861473234488086
659 9.919115465503804 -7.70883607489073 20.545711644079056
664 -4.298414428062966 -5.917155412616068 -2.080263656049165
1869 -1.2857738194902701 -16.557092015592044 -13.529711626319326
214 3.3941068221171977 4.0363922767910845 11.186721209431115
160 12.850708211999432 0.16794491144528906 -0.7403503118250756
1697 4.360230951629627 -4.832108181281309 2.2264554204795344
1958 -4.11346722584453 -4.029862302632873 -0.04282095424252655
1044 -1.3337219540191552 -9.230492143082227 -1.088922591020325
1153 -1.2499294151591518 8.31337722074688 -8.911995804786589
509 7.5179864273894035 21.365354886540793 4.356139254303731
1238 -4.880967814895769 -11.765379848901855 0.10429724861157094
101 -0.8338835760081592 2.5115051182828467 -2.606565558919091
1146 3.133008647196739 1.696049538246062 -10.30298509470402
416 10.77359356614583 5.2399509124923265 17.39907510798705
1676 13.572713362492058 10.499427256574673 -0.9263190214007664
2122 6.831817486213249 -5.018126957171311 -2.0223730816684995
1562 -4.086171853517072 1.7462425696255182 -3.6616292428840875
296 -5.861198851140585 -5.543330988765829 11.715936478468086
1180 1.080181120428913 -3.116687403495261 5.05813993811691
1282 8.615777644283796 5.003131956260349 3.708125141935568
81 -5.521659607660071 0.024922825291279545 -12.128652990598225
142 -9.441606900929552 14.598794890872268 -0.5780500360190983
696 1.7645734047899149 -2.2402970695499924 7.970042284413903
735 6.739193704174902 3.374386072399112 3.2980320616774867
934 6.610913525050533 2.127035946425966 -6.596706518551052
1135 6.708273030740345 1.7061304120354044 3.0712176421353203
932 -6.764982492515985 2.544457831015201 -2.2566585014091918
1428 6.341752557004859 2.189790662278674 -29.31335414689041
232 -4.695013716945856 9.881593920355376 -5.2212819074863415
312 -15.311245987042168 11.67897343547119 -2.3445883183389555
1528 -12.940611985754485 -6.761699263181961 -6.5798551342404785
237 7.541897218817031 -3.4645439521738126 -4.313818813625411
672 -2.307198973641183 4.955409539541162 0.2660227321203887
374 -6.307247093164195 2.5145141669109647 0.8149771440536154
776 -6.264146422367753 13.384802167369605 4.307679831272771
118 -6.703144932632226 15.050897633075568 0.26284648297049124
2152 10.033198068127087 -4.740517829823846 -4.148245040780683
1784 13.65439517954005 -4.506867559761846 -8.716743233098617
825 7.241441053350418 -7.065976076822004 -15.719088989284463
1838 12.16966754005135 6.083901512806974 3.2693586346607395
743 1.7684793363101101 9.668352375462746 -17.029849668138386
474 -8.85437477565925 -10.263104030485634 -5.828143565490331
1017 14.315514657225618 13.57056994065969 3.2433877175448687
1969 2.6834885050857546 12.481078291015633 -0.1085226217550652
15 5.192439472971798 6.218480582751399 6.18127960590755
560 -7.179144986791528 5.347117418701736 -7.53705508828756
2106 2.72811088923036 -4.9074282351367495 0.6305112502522411
344 -8.368766574155204 0.024234227666600074 3.106329957637226
811 2.0156606298185227 7.141223985675897 -6.833789214847935
304 -2.923559715714518 -16.506015261145482 -0.28530692548563436
1939 4.093973004844435 4.2134860523028435 -6.198802797310937
855 -7.249600440295159 2.256092532514047 4.596293829488103
193 6.354930202272161 4.251193604132454 9.470823287209395
1199 3.5946238652858873 9.338511616480332 7.168327293957288
126 0.030591300539309727 1.716836338859117 -7.647369094400733
2134 10.15672889071892 12.55027517329345 -13.00161867285234
519 1.1428813307566361 2.9325581355359565 2.414003720168298
1738 5.852106076278836 16.166292629822884 0.7036943155249463
2120 -4.492306999412017 8.87277907679998 4.610604728201016
171 -6.944157170848316 3.233384781205476 7.06702595511
1999 -1.7992955820127672 9.776929989165815 -2.5638998069294434
1859 -4.367506526958905 -1.027156626203767 -6.013100675421598
616 6.491309460945832 -3.7239297966995144 3.8118370065950113
1959 -9.114446429174087 -0.5901246798434949 -15.830337415215807
2051 -0.4040713327311466 -5.220992027342267 19.704159019148506
1073 -2.9402013877245374 7.0010480806981095 -19.864888404851143
1492 1.4769293897027005 -5.638353227435872 -2.075004088202435
235 6.502643969086623 1.3138809520674348 -11.1389365540708
1998 2.193475938244093 1.6034359256905102 3.141006918793401
1905 5.501332510923042 -5.199164560540888 0.9271521951501563
1834 0.4713221756263046 -2.678836422450244 5.141764335518536
361 0.3833046490469343 0.872066903802497 6.835048696211578
668 2.417084166590576 -6.020035399742317 11.478339098251972
99 -2.2472805725216967 3.3290684761630116 6.22176149312929
217 6.2983236493829216 0.0321081429369132 -2.9300037402328303
1411 -9.883285826813477 12.03215665637349 -4.535596631973655
151 23.54070558588828 16.415483430226796 -13.888275205182879
1195 -0.30057834360812896 -3.300363710213283 9.675040638728303
335 -4.355311232061361 -3.2773689681034144 -3.023425165281883
370 -15.576151344442788 6.30337273781331 -1.3960643404398516
1139 8.484717319540856 1.6095936424393247 -1.2436202355844475
387 -9.585615397393196 -17.096841423349346 1.6307384501527402
61 5.371623704322452 -9.065752056220479 -3.3008083169973976
1745 -10.222404232642143 5.498023449488283 -12.329288359576521
1141 -3.4632044137128988 6.570027910319266 -1.022173038043434
1915 -7.3323060217480815 -3.578914415527332 4.858921311508519
13 3.0873030339308682 0.3625723990452481 -0.9147267808138013
1908 17.60140606858048 -12.741406532635398 -4.270993934057237
1709 -7.202196588838361 -10.847904378364879 -3.9718395044133
2032 1.4929702488984962 -4.2856153818418505 12.16517918287073
1818 9.585808293805165 -6.200180636622832 1.6672224415873562
2057 0.18917444663033042 3.9980406845959453 7.372418125751702
1403 1.4933235414918995 3.7422131978582245 -5.130211494734371
251 4.587287192949997 0.6824767550979974 -12.111980719226295
2126 -3.6914514853278835 6.742951598517453 3.924058716985197
1450 18.40917892680992 -13.290510310489235 -9.314706226162043
1839 7.699224952366187 5.192522563737683 15.523266164361004
29 8.464844000814512 -4.518506275328138 -9.351518816328149
653 16.83706328170123 3.7163844672843105 -4.907076851649715
1627 9.207191302896206 9.169946540674449 -1.2519985324736886
1249 10.13152662327473 3.500089732086524 2.7193978259504106
2027 4.6392161365582085 -12.022050069260393 8.336495739434046
1938 3.4603237457359137 -4.428626568993536 5.424868728816398
1540 16.05977410106294 -7.60571586527424 -10.39017259019139
827 -0.16967617680889327 2.9224400947207165 -5.927425809150583
1816 -7.022528592319936 5.426003475620616 2.6344340311150924
1880 5.507287003235017 7.9320701935007465 -2.7487243062786777
1308 13.950974423918602 -0.6588411240965464 5.3909535682061325
623 -14.68172530638012 5.958546658502298 10.104970520352005
786 -11.244091400913568 4.231027447267109 7.669275709973323
1923 -14.392234571637667 -7.521407403827885 -0.8824984413970592
1665 3.41037264931764 -10.686389009648423 0.6106450851416627
1491 -9.773706598334561 4.194585764483787 -8.310993804951536
1960 7.190373651526872 -6.211730423252526 -8.605267183823138
1181 13.165938474822912 1.3577267731095823 -0.9238166993705742
189 -2.9238414247425686 15.357861267821868 8.237426310924056
951 -4.075272167018986 -5.988359142071458 7.819494710046316
1350 -1.169768556466945 3.5131305490612235 7.688790278125803
1637 2.097627318872769 3.322114456352731 2.520134852104302
2060 3.269969285610652 -2.6845653626532613 3.654110267561671
1103 3.942640048382893 -2.2109165948586087 4.53815012469021
707 -0.5952572758122968 -3.3042449800567417 21.983199385750954
1083 5.767247719818272 -7.872152063734976 -3.995415908943503
1487 -4.134030568105201 -2.0669916033280065 3.487714653447128
1265 -1.8056284129158375 6.827965162341692 -9.40507669445289
1768 -6.884475576102181 -14.36649848253728 7.475738738936385
1926 -3.0432176373793656 0.8874031153850305 -1.365898238734659
1321 5.073970207282194 -11.267632383877038 -4.987571197787004
68 -2.6264738316781715 -4.490148988323447 -0.7693976183887452
55 5.595305772954744 12.641204055930348 8.117327595881706
1819 4.454083603651663 5.641651476377989 17.898215625423486
314 0.6736133124747771 0.661889172882571 -5.568768997762941
1766 0.8721868973885387 -6.666854755914201 3.56816851060768
1809 -5.373185903543582 -2.4546157090454406 -3.101268845895816
1808 -11.899815224025778 2.5103719492177925 0.4742072211752986
1028 4.66785038770055 -10.560977830671552 1.0703651378329595
1400 7.539269073302401 -15.347308618995926 -0.613631443147775
242 8.589449432128701 7.317965119974178 2.404423171003039
1440 4.854326702087054 -1.7987987791783637 -19.538949566801197
902 -6.581849630759356 6.733970115566294 3.7516914905817798
1712 -4.8586882415241135 -1.9164203963896327 -5.026101642828315
2034 -11.856342990229106 -8.249607396334362 -15.33718501700714
1479 -13.570353709675103 2.1047262884507 -4.3850482812877125
1604 4.720196342616287 1.7669153188333824 -7.652504268836651
108 0.6396615555524898 4.409048279282943 6.6909747936309785
1096 9.589294753407016 -2.442928870519895 16.213003726666642
612 13.041471723479484 18.397977974594177 -10.335485386633726
1648 -8.219339807060273 -5.648639392832295 -5.11345382058707
1865 -3.077179136243669 -4.400024224490714 2.1407536967441403
1903 8.02771158828909 -17.50005616565085 -11.455681779729286
291 -2.5774642343260235 -15.321683089310017 -1.3571048033315511
1581 -8.702542624343 13.791839198621137 -17.52774232300936
207 -1.8481421056843423 5.1816509764743195 7.385881587320451
1904 7.158081308935942 -2.1397281844563634 -9.079413310552678
627 -0.1262887152644272 -6.381557805376044 3.5485296688387455
1485 -0.10369332772661541 -0.3241543780541063 6.366128402702899
1874 -1.7082341430143038 -6.327773707822062 0.4940630841062897
893 -5.330890555442354 -0.06625734819426686 -6.951284609974472
775 -6.437031905273136 3.707605954392336 -9.932184188426277
1886 -2.0946578240432423 1.6204489502155257 2.891652379745085
643 -9.842523759641686 -0.9338935585950522 -6.51679349121447
1038 1.7172901327109356 12.52783591320582 3.374478384063078
676 -0.05233885769442939 0.9827197042007082 11.36439497308064
609 -0.48694515891210216 -3.188578189344236 9.931458446384063
738 5.6510510172995225 7.41702780501776 -6.870274633578107
2157 15.692920080024694 9.852017976008508 -3.623019671831218
178 -9.36129994877676 0.9899792756842125 0.8135100009754324
1418 9.096816988688282 -2.961347725882235 -6.712817124981463
1680 -6.931913174612582 9.517536739358178 3.902088742489306
1956 0.8932992820517426 -8.104711692383713 3.321892926984447
1468 4.604278293819555 -8.68502267729313 7.077661545387214
1857 11.738744311947643 -1.052554158319655 5.204461512719682
833 -0.1810512305791761 -5.155380799378861 25.35179009158386
94 4.551166555155367 -4.987629830540158 12.293922206185782
790 5.248013116781601 1.1808488104801451 -7.772249100922209
1866 -9.045040848565376 -12.019191441104375 9.338177718535276
1873 -13.108268615707347 -10.297587819344065 0.47004965001515925
273 4.502958316675212 11.769543982790987 4.32184051899632
246 -12.873623092106042 18.170928268208662 8.591678833920326
401 -7.271574672508543 5.324368992709457 5.489310315104051
1309 -1.2530251505250445 -9.610019590780505 -1.9758618941715111
347 -2.123074793501176 -7.577310134537849 -7.085707167205159
1338 -4.6100992498599105 -5.32196431870291 1.3929000141022603
494 2.0425603283252722 -3.3909850398873416 -1.6478325578851316
2132 11.325288343034238 3.2935280907628077 0.9954819946249724
757 -1.4966591308374617 9.379278353966267 -3.912669295807925
105 -4.030389775072709 1.8377442504427237 1.2256326574142442
636 4.504064228001129 -7.847825035006073 -7.337738497034065
1513 -7.218570564295798 7.072121626359589 -1.517661514994451
840 1.546929497321174 -5.690622619184131 17.16698949283343
131 -8.525127951190207 -0.8619650058001164 -3.499199988154859
1735 -2.9015780869392707 13.346683619044333 -8.231583637740927
1813 -14.679061246856888 -2.618188861280442 -2.1950487285619706
2054 -2.221951961693454 -1.835105213098036 14.248687007724017
971 9.710634959679615 12.88226345263649 6.200826654373491
79 9.475800967766606 7.833086862669002 2.3110788418548807
995 -10.20520136762673 -2.989135205964428 -16.043124601311995
375 5.833920757940895 -4.965586847044231 -6.056360731017615
810 32.26455866953572 -20.7267883803572 -10.516162968493564
575 3.1858036534120604 14.255142447533267 -25.519521211437297
14 6.7443456360218885 -1.1138024361922236 -2.5981383365462234
1546 17.81404324160522 -0.47672584633499365 5.427001753238766
835 -1.7133360684785848 -3.8733568527576625 -6.208531802095811
1850 6.046269344877625 -3.2628229660039674 -0.7166081870490684
602 3.2134401031649427 0.3389551028734254 -8.125961451294566
431 -9.099924331045871 -9.911476358897344 -4.983020965468215
1976 12.938963395834474 -4.962462468884493 -1.6016377862584912
662 -10.474585554757914 3.803298368586904 3.283482575929652
274 4.861368286522613 -6.580995832448783 1.9741304763706915
1947 5.803147294035239 -5.645664703909363 4.145652076520784
332 1.6323878360773407 -6.801274591932082 -1.5424411192289438
1392 7.4153670616833365 3.5480250221588094 5.715205476612776
303 -4.45274033642344 10.078225408030642 -8.307638384823816
2088 10.634922416438153 3.930583674885128 -4.780090599877906
1641 17.09792561497395 -1.76954204488807 2.367692912251527
2000 2.1540261341987166 4.403323057836692 12.30714961307471
1737 5.128542644246536 16.29920104233963 -19.454240193513797
1968 5.781606632172995 4.726219244483516 -7.422586483030426
1849 -4.844143822258275 -0.3749845620182049 18.27729074971387
1571 13.176425014811423 3.19380768733134 8.548346871505089
1253 7.379415609159384 7.456032775597957 -2.7751927066210302
1856 -0.09612272981128997 -8.537431567748902 -1.7740169340516794
1300 6.632430381998392 2.8078237858837385 -6.520439282999711
1832 11.051273766796907 8.102600848912108 3.4746713165514045
1421 -9.931383878126491 -11.593870911499408 -14.540413145167449
1046 0.587022119194429 11.170553748930523 16.78096517348876
882 -2.3352696630065055 -16.014529891559125 4.836895975600088
1599 -4.057012229584342 7.129474071878584 0.8422862019143764
441 -1.4254721597935196 8.664244209142764 -10.868461625716584
179 -6.121433175647215 10.369422961830358 -1.0763115962911585
870 0.805127681588536 -7.198911431769911 -7.611108251572552
1509 -4.94517474561977 -19.370592569409528 17.563166925924406
2068 1.7701468292268767 -12.659391854298468 -7.618168432693904
1088 3.830490883077404 12.694848296593841 -9.015537606540155
1888 -4.605301324336367 -1.1316159940823944 -8.700990458408203
1687 2.754626711133213 -0.05158951591148299 1.4328128683929022
922 5.798890785009243 10.877926363420226 6.804249658102118
445 4.281626277316778 7.684765926398336 -0.4752546786665869
1268 6.137662956542106 9.36286464545003 6.808169133118966
1503 2.833764446101354 0.6460810025711936 4.786216683217361
1323 -10.905498675170826 -2.8663690839409597 -4.17781160020021
804 -7.879785376313471 -0.11374895985845361 0.4022674581092243
1547 18.092064237235128 -6.505010362208124 4.187026425894889
241 -1.3237088980956109 -0.20663928691946065 -7.987438040036034
459 -1.1209203059456716 -1.2689234671365084 2.649196274494677
2135 -4.0326526360032044 15.581836309119435 9.262699770110743
213 5.712808893983402 -6.925796793506229 16.145958075841595
873 -7.065204211355139 12.237737107935626 -3.5818137100173755
328 -12.30593551821694 2.6901643552437604 5.891343241908376
889 10.508309993884422 -7.940364807743956 -10.927536376294096
546 -0.9480311777410737 5.9276363834417225 -9.086490858956402
1729 4.765536275970374 -9.668583034064657 -3.592828869596002
1230 -9.99268698720786 1.840860170493614 14.67366843588718
1639 -1.3088953498216376 6.605969959581035 4.5650299248830315
133 4.8927275761546065 -2.677723348157245 -1.277983109694416
1719 -0.33175179467257493 4.492048003877052 7.078062814955155
955 -7.6809175946606105 -1.025140496682915 5.136571052417569
256 -4.067269756782474 0.377261496586821 3.1885086440319927
990 -0.6223823886325242 -9.897462743372351 -5.715260273042671
1930 6.306900092862167 7.0668420002465195 4.143545460775044
266 -17.989852477958 2.0333905082324284 -7.780712837833426
680 -7.171889254726659 12.618178787025203 -10.950141939917678
1650 -6.655317078376126 3.470503583992078 -6.572065328194799
1311 -0.19906528693010897 0.7762727336247363 0.8001449984074973
1748 1.4695241797068088 -8.938166748688708 12.493139366138434
349 14.133734145522578 -11.953735621336973 -0.762443168073292
11 6.225820889102714 -0.5517455837354512 -7.141313353295286
1517 -3.718368230051852 14.381578499973944 12.454956498061014
1287 0.8787187549364979 -4.965760092499177 -0.33194835858620336
2023 -5.847409394815572 5.409501147887668 -7.050835047571543
536 -4.268670304840296 4.414314507260529 8.158491827842107
1943 -6.925430848350411 -6.100292399597329 -10.292722815709611
1814 -0.9043451249587127 8.013939262674459 -2.25775254896354
1376 10.545059015034898 7.467670320409835 1.0121912322410087
2067 -9.302910213324148 11.431415120302812 8.05503596225866
1763 8.344114889587608 -1.1616990926548567 -9.404196193579418
545 -1.9135296861559723 -4.427731399549446 -12.848656075330533
727 -12.25197673434487 11.211912810233349 10.1657786952412
492 2.511393779490329 -4.734344747102344 4.074339077669693
875 -12.425194688623158 2.643780910011004 -5.407747257777394
1358 5.137411205642287 -2.148667941122911 -2.5382614694693193
1068 3.483574971772138 -11.270516414564776 5.476749171032521
146 5.690793957266808 -5.26098479561121 -0.8146016372559
1922 -8.331195297458772 -7.4995142122531755 -1.2679237750721473
1255 -3.315900962334506 8.025882419051594 -15.617886406597941
525 -7.227842138000586 6.286528913957019 3.8755811951314216
856 -10.312925464681522 7.00555754984428 -2.466796964928383
1618 -1.9499258862984987 -10.185046166207385 -10.299428095122732
897 -6.149463158519815 -20.564965251791346 18.39855296175257
1720 9.307234291219254 3.792350881565547 -1.4499982341366167
1918 -13.05678964950698 6.043165548993953 7.013224385129948
1059 -10.929641542658324 -13.131201941621105 2.430677847001495
480 -2.913920961580082 0.7758579087768543 16.41237950840634
1872 9.251288325904303 -5.542492135257045 2.89548619935532
959 5.277159244522495 10.10343455963887 5.736877869188335
924 8.691517778724748 3.363308819963279 -5.46343579324636
820 3.2235067897862497 -10.313259580765498 -5.028827887317072
390 -9.802762806420418 -3.9398470710984808 2.653762539524091
501 4.451783387689538 3.95769893753916 7.1381897687246845
753 -1.0701138783299609 -4.93269392067179 0.8686035885271036
1746 -1.085722488525164 -10.092391206162288 -3.622166485550809
294 2.4210561604141376 13.673596219377115 5.642459162886132
1395 6.117516243731023 -15.861786500680948 1.7431598228716996
1147 2.5723957625819427 6.080494608916794 3.7314771067543533
377 -3.6515370379700696 -12.643051190163389 6.07146568067919
543 4.061986970274079 8.05634510904372 1.9955841095057614
645 -5.003346688281024 -0.3705172821047197 4.738705937398721
1137 -1.490032472988531 2.0502632496045377 -4.619425665516509
1298 1.9033217910739437 12.560516499571618 -12.973393302817119
1425 2.2541805150112433 -5.764427929263711 -2.6644492071816126
1576 -14.517476113612636 6.240239266926945 -1.4660888735900612
920 -11.224027438521638 12.968229653463572 -7.652741166800403
1348 -1.0730580504219407 4.510411260058691 11.496352934414293
1955 1.3061611861549935 7.434766474582188 -7.4059482474683564
697 -1.5296316144779278 1.3741309610252286 -3.414508393400051
1961 -11.926576193991885 3.307892542503437 1.090621539883364
1982 4.10872006061346 5.796132145268684 0.006400253985244952
1723 17.87913688628778 18.675646835406816 -10.59237371338085
1842 3.543702581505046 -11.228374035534424 -14.06762475252256
475 -7.275684347256876 -4.808266985214566 -8.711828407716911
182 -10.244786879900934 -6.9886919153324305 0.016698173552861538
1559 0.3359652210260058 -5.8379158952254295 11.838018569571348
968 -2.0741848703620804 -7.139662337449431 14.003210071181028
438 -2.0982462635835732 8.378659459833269 21.548385337204273
626 7.3904453894861035 7.07882903894484 7.317669918866587
848 5.141684475691421 -0.640460230705505 2.152121093573942
718 -0.4193610288253796 7.524328515641991 9.012118377531223
983 0.05061029489793443 -9.158021883358789 -4.230466649591566
2035 14.040753169016398 0.11601548503024958 11.44115953988515
1527 -8.343878417567176 -2.163978463961302 -12.077985225142102
2050 -0.5926248835291024 6.846503654075374 -8.224352253030451
1280 8.707770402565362 17.60412906588179 -16.923136544857275
1848 -6.946652568849864 -3.689452260305659 -0.8073954461606427
181 -0.5118353702385215 -6.866202202752487 -5.370133946967532
1032 3.681994838234459 -2.5729464989916018 -2.0450729564017465
1465 10.41734700153815 6.768374368101507 2.069270435668465
2011 0.4872847308758655 1.3714913030907765 -2.9910090159350586
862 -2.817021441394071 6.4965090331220665 -3.11708113892845
484 -11.112646462095606 9.400448845077822 7.760426746205046
537 11.073671768859887 10.05854126127202 -5.523267428427275
1831 1.756829451079152 6.757943812270334 20.990998622160216
373 7.685079132396183 -11.88031715119017 -3.5833503072132804
1397 -9.57960047693774 17.390621642371762 -4.693513214975686
921 3.378882036095248 4.134332278807977 -9.017150948763875
1058 -3.799277265762351 2.6290425080015236 -6.0890756186115365
1435 -1.279086813072604 -0.5456680033332314 5.402393573609648
821 -10.803445281487384 2.7845835847715956 -9.855881795654954
798 3.930425627868311 -1.3285765702858063 3.3402651979480598
172 -0.9655082518944069 5.941889422026014 -0.8292645940591437
17 -6.796554480562095 -8.715597007206501 -6.543356214457109
1595 -7.853485369563592 -1.1969117909326652 8.091804072984976
1390 -10.598254957250983 0.4233737324049128 9.61840508992829
872 12.805871138333233 -11.106196051761431 0.09559962530603308
765 -9.127094297811112 -15.779721950832878 6.117133357931094
313 -1.9824055645244438 1.0843662885344598 10.508013919528834
369 2.2070170530793294 0.6269262647981042 -7.3871179319055935
2042 -16.781129083473008 5.0324903280599 5.305831128165473
1303 8.121773407238923 12.950848950401252 6.1692111799404925
25 5.462007617787792 6.315603734795712 0.8594481234863347
1891 -2.7843602356572514 -4.385461123550304 -5.755976339381353
1633 -3.081147050964685 11.577122937281404 16.428024191548353
1008 -1.3724825046954 7.419831352487676 -4.893851749258716
1679 3.2940171335361645 7.5877642547673645 -10.197602276955422
323 3.0858572247486444 9.076926923457467 -4.148543792896502
1935 -4.759686310001406 -3.999810283695475 8.358920252909455
1495 -1.5801786833834373 9.439735551560188 -0.9031955351391542
2153 0.45538182203790933 1.4757102357552918 -3.9680790987881838
593 -0.00034525977313915653 5.688105072219216 7.013740284398785
1584 1.0531577420915021 -3.9915006948644245 -1.0708943539776559
573 0.2898044147121187 19.080787766348468 -6.772759732528724
712 -0.7181667994729619 -2.65441093888711 -4.348028021979345
1776 1.1384812482130975 1.2231976172465528 2.093038251679608
2004 -6.391526050028568 3.7812322610213 0.754028242769414
716 -16.059177344737247 -2.1313158622278685 -10.639849843489618
685 2.4757104175018196 3.5554890036572693 9.73295665086588
455 -1.7312663518791997 0.8337756080023065 8.174735507119658
175 -4.065564271460907 8.270292944973063 9.345975093219515
2150 13.887742690179078 0.7617878197207271 8.21126248775483
650 13.9355450706796 2.097797885765433 4.36242968058066
1211 -3.130791461665225 20.35605925240634 -5.41549422163347
279 5.280999307212164 1.2451846886100821 -2.178115904512048
1108 15.99884831520936 3.547498776855764 -9.683555834263151
656 -6.016628176399367 4.871836893744092 0.25566990034540216
563 1.8434930721587222 5.593543166067781 18.264616591530075
1827 -7.907066762805741 -11.351841150834968 1.6299047149305166
113 -2.4398284934986894 11.563326413777602 2.3263198900068733
59 -19.912985592583233 -13.431554729682587 -3.6379089539543417
115 10.898285745191846 -9.38167291067361 -0.5196903795160882
1672 -0.12243190320011584 4.0089686755878455 -12.662885357391053
1634 4.136950415771226 -5.706253764232671 -2.1898920886099904
610 0.44635990226180583 0.6269255722115122 -2.7983480932351514
75 -15.027686128744419 5.331779540188978 -5.3593541335922685
583 -26.039588669387733 7.393564486458561 5.737113555983174
276 -15.157817734473099 -5.862709788526379 -5.4219026833956185
78 3.633826101817688 10.630200879420768 11.60847552561094
2137 -4.070181036809943 -8.528594411862544 10.80990437991227
42 -5.200954540843085 5.008614658036529 -4.014444928921828
183 -0.22708394524858314 -6.934968437489287 -1.9306446443450371
31 9.226606348141628 -14.235299598831197 -12.841249369575827
1357 5.123200287344675 3.961492053690819 6.075492357306422
905 -4.161257806752924 -11.199330579645915 15.953065396611683
1319 -1.4402314863815115 2.800601084815434 -11.115534307230439
1192 0.011572712793036033 -12.030873102058685 -7.062086864548267
582 -6.645110953733946 -14.977455148096421 -3.009014583010837
1949 2.6009607339849574 15.697292238914955 -7.523682667314024
1708 7.582186415889767 -8.79251956478659 2.0589094709148203
177 5.884730919068194 -0.6022886886313651 4.893125984733859
1215 3.7207881013919173 -7.509829187651759 6.794390553862564
249 -9.57130039044657 -4.339548527239255 13.809061786748645
1693 -2.4475726814899064 3.045500076668778 2.14940212193497
1785 -3.18436315499745 15.025950412201473 8.343725695914113
975 12.843515739563868 7.898600280531461 -3.918791753191679
1591 -2.4965996082975535 -5.158559738633488 -9.4529002857399
980 -16.213473829283693 6.73900985934468 -5.115826623034375
1688 -16.21810136217237 5.253217190567499 -0.2070121655853027
446 -3.599606878590847 -7.276338530944554 -4.602294446074216
287 -5.990000447191416 -9.598087654339063 3.8776959860554845
2099 -3.5841265245622664 -6.60654957495377 -18.399321549873648
957 -12.867236675584916 -2.026454640119995 -13.825536108415342
1704 15.810035450644293 -2.394883428951746 1.9969271359605039
412 -3.7068058187082715 -4.7119852188715035 7.096309879852194
442 -13.07988116017966 0.4244904503967796 -14.656359959497271
93 -5.252890827701931 7.811638061381935 11.439953875410742
1284 8.63112484835578 15.282897698559557 -2.1102770749918114
557 7.207842180272174 11.002647332944258 -8.667295063825827
1713 -6.119647471199519 -7.833122250498046 -2.8710172668698557
510 6.262477728563383 -10.363495379738012 -9.061138328674865
1742 0.3504402843147237 -6.769072430304578 -10.684131099037588
440 4.44521236604198 -5.1592670822674895 4.4043296802251035
1266 -18.972110075891145 -3.199347090405695 3.882212037471526
997 8.47078034056549 -1.938950020992658 6.18579799687255
307 5.410458834895562 3.4947394512740795 0.1551059822543383
1543 -10.639107502115145 24.166027053765752 10.62797898226109
726 0.6877896843446026 -12.87149768679432 -14.691658645203225
110 -4.75273275396448 -4.380374224513063 3.2168774701614353
46 19.243931935492892 -7.3242492080899835 -9.726302225788343
781 7.7670264790184165 0.21994801278069023 5.7309842380226375
822 -8.197367160808025 4.01207651738666 -10.908751115596031
2159 -0.5353367752752838 -2.262935531784297 9.034009820052413
819 0.13660318606460164 2.785574801211018 1.1809469329205173
1054 12.885026562105226 -4.211144234892149 -6.026657932781527
464 -15.188056192106616 16.42514058783992 -2.84386164781366
1802 -4.896868312583952 3.1626915886007705 -4.6371581088554965
1833 2.781131680831573 9.896227860662595 -2.88081144566468
1047 -4.44717093089964 0.680302155887681 1.3995012742048851
744 -0.9568156466332891 -2.1849863763654445 5.484775341253876
730 -8.89647427703487 -7.993599699908365 -6.954596554691199
1132 -1.1731018679964595 -10.17522182112174 -1.4800200181748102
692 -11.810234325136738 -10.99946635654524 0.2711478271022237
324 0.5193245629620672 9.485310122462739 9.421673824326355
1889 7.845225758488413 -7.599081004984537 -0.7335037996298823
629 -22.043238530816456 13.499267399787682 10.433588274993376
739 1.8408543459219178 2.16379843008839 8.090709186783961
132 -12.49674034344743 6.22717229307781 -5.62279902504051
1504 -4.867447777597111 4.8088130114659995 0.7287329927339068
1531 6.1955469642647545 20.39799326042462 -7.213575290575183
244 -8.155276394060431 -5.498462335105065 3.7151463306887447
1772 -2.6058425079912557 11.592751796278225 -4.77979068652721
1078 -4.56878861145758 0.5326742553246392 -4.90498996660591
1743 8.643207934578388 5.603779781210261 0.629401476946328
1810 -0.14419808378016138 -1.4974856000544419 -7.586253935029483
1673 14.287827736220628 -3.362752359613383 -5.2635174384942225
797 5.532284814080248 -11.512145074842865 2.127366745308711
1779 2.874678875021283 -1.31146520458462 -10.507039571423158
1666 -8.3090073915728 -0.6033735516293731 4.923216374223595
847 -7.960839751141185 9.139372958277452 3.3564514260748544
1466 4.494849780443664 -9.120517061089444 4.792767410880261
1288 -11.92891163457992 -0.016587694188673403 11.901992418451421
1992 -11.527904415617092 13.929032837241785 -0.8262730328557274
2040 0.6302741450880631 10.068375269726982 20.90238585695463
1328 2.4610125716632343 12.325867123950205 6.9701045359148
87 2.1781276251950223 -8.375417041666037 7.633248062998072
2024 2.580103131355925 4.47204591683174 15.167273464720521
1157 -7.983647917766597 -5.653038418488517 -15.670633021070612
1682 -7.99299531315941 2.4999921796241527 -6.087766494263999
1628 -2.5460731381906774 5.028711819444073 8.683122778188332
1202 1.3887613857167054 -1.5298871493811754 1.5955962998075073
558 -11.630730013941347 -2.0235390524330086 0.6535346042842779
114 -4.458160171199463 0.39375885449080883 1.4492754645883528
1795 -6.69651232542037 -1.231651318440119 -5.904872072586095
2043 -5.109828680596675 -0.485742026993641 6.4940955349845435
1565 2.860194678070605 0.40041371445344975 -18.181816380494407
362 6.872950359434044 9.44071819375914 2.320905570737904
1985 1.1268765705707013 -19.724933383081478 -7.40143427058267
1379 1.4146749579630924 5.705369576893231 -4.326167186688162
289 11.71063038508375 -2.8872636702729086 -0.8490237741931681
1750 -9.917561323100363 -3.8619963192945113 4.92461659433976
497 2.0623743604254723 -9.021035513482703 -8.587579090431387
100 0.47023634081742505 3.387292243402245 0.6871198296178171
1916 -6.746998575479028 13.71139782911645 4.421298014196443
1431 0.056699263481971164 2.851832008949633 3.0215116615503805
430 10.565403687089782 4.194096105309902 2.193490554545144
1588 0.6831819125408373 -9.210386592982298 -4.5015427255225715
192 17.718436925715707 -13.397854040117045 5.9438753651413005
964 -4.196279168008889 7.083402961294336 -2.011086782088743
1232 7.437725117842995 -1.264170826174818 -5.379545113797625
1824 -2.499296288226815 3.362587358920079 10.79411226090126
1399 -7.832348293942966 3.5380129218639556 3.771737171466879
82 6.549122559128476 -7.9762614879634075 0.11165305850920228
1259 1.1977271812913934 -17.653567860045253 1.5749708192026453
1138 13.350004564165504 11.9097544468977 -0.1433815130792452
1177 -0.024846591002076434 -1.4053785311731843 -7.280562888393705
936 7.082889846428139 -4.998248498854634 8.736221145806397
540 -4.692805865792205 19.194359175660455 -9.091684335620839
18 3.1539690651190315 17.118122910035567 6.00443081231804
809 9.012184539443325 -11.315861839570982 6.745171851725386
1117 -6.406608456325808 -2.9606669642844174 17.750359626354086
1367 -6.0313067546564705 11.711317308128134 -7.791044721691112
1045 1.2078620117257097 1.8883362081474402 8.979537503424051
1812 4.937923419796643 -6.009063057700714 -10.210161521353161
1909 -4.418432176684896 12.28092089982963 9.723126283826856
694 -1.3533610806589655 -4.476935652561983 3.1435762785942307
165 -4.089143113639933 -7.223278199476206 -0.7370828019293264
748 5.239114530110149 -4.953949932164718 -1.8365533807557413
772 0.7849338624815371 -2.2516114644515546 -0.33991633499265606
199 7.06181307727848 -13.088344962708659 -4.91770667503182
1586 0.2807274205136437 8.588216001190464 -6.6891692896354025
1643 1.0120574149622539 2.9610269822202855 18.354650374133257
420 -15.407744374261737 -3.473770899609785 1.5153773999570495
2052 -6.679924562716065 9.234502422331076 0.7448784726062141
1454 -10.194110198211641 -8.178577620944255 -3.0377073235663277
1946 -7.604028798599259 -2.7410511383911547 8.914134222959321
1496 6.155366458988753 19.276908031148803 22.658638869300752
534 2.1186875068272 -5.31666877644927 8.635949392787627
97 -6.248716013277902 0.7197745559757363 9.110674802668955
1741 10.004319545844282 1.7917410773610059 -8.19448006140084
204 11.786608611140917 -8.52128937128664 -15.135089163745702
1476 7.931024043359041 7.227722417081437 7.632027980916733
742 -5.196160318863819 -4.539513049304375 -16.23952928937333
832 -7.164345085142906 -0.5679852893387675 -1.9815183442605457
1652 7.73248544650618 -9.695759308123076 -5.46885209013
1419 -7.0558766484322675 -2.85345950971006 -0.5208001277764657
1075 -8.621321896910388 -8.351258682034949 -1.6147411988713105
258 -0.09972787799558398 -0.22104516323531745 -0.2721629152804493
406 3.327696346809096 14.596364416930514 9.718612197661225
1021 6.8323610081520085 -0.7651648949756866 6.906853814350113
48 7.377384090172632 -2.370217875557784 19.172633480831387
861 -6.617079966403114 -10.04323660897515 5.2498763019398575
1609 -1.6500501170533082 13.338626845827822 5.486836004988991
1661 -4.3892333329995195 3.8556281372248793 -14.09943224920402
974 -13.714117443055795 5.571942260286186 -3.322553077993708
1510 1.3928461825614473 6.567549464053687 5.1734008080682825
2056 7.948544096862696 4.1668498789926325 -2.6668589510233187
1906 8.656073648261513 -6.632443960577511 1.4349775437953805
793 13.192727177390017 -10.438476769916983 -2.7421354231638206
211 -12.135596627606411 9.32158616808761 -8.354010015926319
456 -10.772564348597303 -12.820804414453715 3.095904289433207
1237 -4.003307796182322 -5.0630830062689265 3.1914809458389075
1674 -9.2620757870541 5.805757336608143 15.8039127093826
345 -2.116747063849372 10.28330453103315 -8.90723393329671
1359 -10.810403457337442 -0.2596960890483536 -0.15191683584891877
269 -11.923296660098007 1.0588910942395144 2.680789714351747
570 9.637141085737134 10.057176718518317 20.021477066575606
1174 6.393406629495036 -2.32076043500657 -6.563588644177618
1252 1.2331311951897348 6.434095264047883 7.8388082055997454
250 2.429146311276662 8.530362489090535 7.704207574159338
854 -0.7777104223075949 -8.00817067775795 -14.221312981862614
311 -0.372038398086529 9.900392916897859 -2.300970684515047
351 -3.3460275945522158 -5.077590368485797 1.9490314052538609
1402 -2.8505490370278657 -5.1354604178927685 2.6467658881738836
994 -6.7113171496994175 4.087113131074662 2.448677059767273
422 -9.947994246063674 12.749982374848258 -12.764930013642333
358 6.990260794996256 0.1330059465466481 -9.612091273682415
2107 23.542725691421914 -2.8397264889222424 10.492148080745169
813 -5.628993895096155 -7.381376948427 7.080791483015254
1549 -0.17763942081758288 1.8287524164748628 7.330940042087058
1170 9.973668289811929 3.101635653176572 -5.382391734040962
923 -14.554481986187334 16.742881550703867 -4.122884738953922
1786 5.994603333841023 -6.532490945277203 7.517205836142948
719 0.6780075298720072 7.354487885302982 6.242855688897044
900 -7.230989866519429 -14.023600508553406 -15.32527866100782
397 -3.181850482579618 2.8580897439519437 -3.0529797504022445
1568 22.117409431538007 7.17165261049503 -3.702047436198308
427 -5.408176749166082 4.35822667975976 -9.781572170991442
1136 5.080405541501006 -9.813611338473596 9.003277611564187
356 -4.872795294356884 -20.151228476982524 12.067423862407882
1204 4.730623741753985 2.120946010978862 8.441111640743909
1631 22.326653583968877 -19.58735940515475 -11.325822885630064
1744 -1.738434381683557 -4.406359121722368 1.8741362381000493
317 -17.461026853578584 14.330183979175196 19.19093352777393
689 2.447064974908438 -0.5013007945050877 -11.496362312171097
2049 20.024578292764694 -6.568098965683661 -6.766857571912479
1275 7.3792638155200025 -3.0349445070478644 -1.0587825410949445
339 -10.857684821611215 -6.8854214052371665 10.853133389188658
1574 -9.823759228417261 -8.087624078068993 5.47135718797099
1579 6.551415929893776 15.590801701702711 5.556930687767377
705 0.9367664479319744 1.140399857653416 -4.8041896726956335
1950 -8.35079090727287 17.271302570286068 -4.152921992168634
1862 -3.6363365066875413 8.003167503036359 0.6204239738625114
1500 -13.092468081829477 3.5574153013830125 -3.5598320071383194
227 -3.7511082363628785 -11.845518709529566 -6.481055106158362
1725 -9.26732583022626 11.40198881879864 -13.709805092073221
128 3.2361292464447877 -1.0139392526107618 -2.2142624787221883
1767 1.2647096144489163 -10.293666104023464 -4.855868484583556
1871 -4.8481255396899625 -2.9838038241075453 10.731495293257963
2071 7.170307962238995 11.285355721649083 -15.920663731661328
2053 4.678959104029434 0.0696238706954314 2.0776733441322373
85 -1.5880913212928556 -8.815341733714765 -6.834904935110235
404 6.70924898416854 2.846037433235262 2.8109725157710415
92 1.161041893613414 -0.475199130911634 -2.048752934822609
1991 2.70355022377964 6.948994735020904 2.146555385259333
36 17.267798464817528 -1.2983741407272948 -14.687468580424824
95 -8.85973718178574 -1.3907121959211455 14.084598821582286
26 8.931965146663119 -2.57250319722266 10.831156572132196
505 -1.7125866098642846 2.5121105966743893 9.268073612291685
1267 10.447978655624402 1.6685479898507736 3.6787386460452276
796 3.0985410217428386 -0.4469860590760246 -1.7241475537195903
1770 4.252742226505856 9.198380642164846 -0.3836057763706065
1605 7.204226907939604 3.5833156363605947 0.07121677272923195
1937 12.987780105430081 -7.968976604346958 -0.5053337249746508
1667 9.302958502955615 -1.217990299841031 7.196552374749767
1898 2.8103176808725867 -0.6268555863646805 -5.988470637578913
1344 -3.743910270949937 7.124747974227615 -7.674927179157195
1539 3.4877949007923497 -1.526984721437125 2.762768740132499
468 -6.195232760475482 13.081549458750178 6.975933766210419
683 5.529956775965889 -2.909251748708535 -3.8672887203119966
2041 -13.418155278910088 3.2947397805087704 1.6607501627178294
1200 7.699116265095283 -4.780143445722341 9.115810464777418
1098 1.0899095826352876 -4.2170918878326304 0.06175978584919275
1034 1.2882930785011144 0.5466233943284405 -2.9844929759245926
2124 -11.351087679437068 4.110163167265255 -7.732913361791492
1552 -6.513788286103314 -3.7146140518969686 -8.862596263461214
996 -5.544494812445351 13.093135524640562 -17.26501710686614
513 -3.259834545174378 7.958091941684312 16.408688128723984
831 -0.4200555274066946 5.976761125514198 2.952960185132029
977 -4.342171056771992 6.656377468586565 -7.0454330638688925
661 -6.2586558827358685 4.253035488278634 -6.677720308327475
10 -10.28133157332186 6.108223644435951 -2.7199005728638497
987 3.6612685168805736 -6.791181679044876 8.36082139630957
1235 -14.432407891316293 8.470208286170173 8.235618244570105
1125 5.761169659995536 2.042265744815135 5.254105000330361
1123 9.399854699797093 3.5095662624186743 -5.733583267181379
603 -13.873894976716521 -7.94980594113596 -7.334782285277022
1057 -5.465378875176844 -3.290480001956775 -7.8718843446052835
625 -6.811112336441285 7.09462327112145 -8.906297559130225
1615 -3.8684690942430393 -7.730960995695639 0.8676242669009849
1512 8.512583157386064 7.532337232645695 8.628907340823572
1469 4.020447611739969 -0.9219879680511486 -6.413258372338805
1225 7.186620462695255 0.17405414543417458 5.828665909863507
394 -4.088841112423452 6.7255141498510085 -3.2977930083497418
191 11.631107652774809 -19.626824626850276 -0.5870960787851452
2139 -8.279473361583396 6.7317432132850685 6.2852340991106646
80 -11.02047046157454 5.603402759285362 11.301933205613972
1330 4.983139416833603 -7.763277291026204 -5.692505287788369
553 -10.3187387318489 9.339868139206828 -4.7272899752565305
487 9.178280375248184 -5.215129931227419 5.289673508916334
2148 -17.660118107866204 -7.064227081186628 -5.963527716116614
40 -2.7502104825960783 6.876861053770714 -6.53035944766463
1260 4.7390921373013075 -17.56518433320726 7.4743400806328815
58 6.544096085424343 -3.2687392773247814 -20.926414132803885
2025 -10.708343754830107 8.712025238189945 4.213982836611326
495 -1.6235555402119597 4.54903015961634 -2.678985796807919
1062 15.70194391091352 4.6260198005858255 -1.869803771256109
225 1.1707780554816571 1.483491694965307 8.567221793921602
44 -8.29173162161611 -3.9696640772409912 0.5854843381171774
383 3.6179570593840324 -13.735875724779781 2.7333091427568026
1297 1.1869510816359703 21.57435288550566 7.849865894760027
463 15.682690212421337 -19.066556912499554 -6.108805635628088
681 -17.457682952306897 -16.783857002061698 -3.2893773230127454
1557 0.35048608330352893 10.513113615465503 -1.2069767389295036
1551 4.627183453827846 -4.334542295203881 -12.223276564827918
624 13.118967937399297 -3.4490128241915854 15.760668031817723
1264 -1.391892875386148 -3.920252407737112 5.005009542516833
1018 9.955712929611208 -15.66999844101377 -1.075378296795964
1011 -10.272419758851 -7.5073601953888245 11.201471359472931
1091 -0.46218656685330745 -1.3026751984385445 13.784499942049694
1936 1.3532713607130762 0.8877820208119613 -6.804460599033323
336 -14.436530815779859 7.217707197524503 0.6045562886667155
1843 -1.6534295438077933 -6.165222567061999 5.907197667740844
622 9.596764425540938 -13.222488127487397 -5.750253668748479
1706 0.8833474270293992 4.299122202973949 -2.219849468119787
333 -10.166550225182837 8.345570832267532 -3.509389938937562
1901 3.310931094927837 -1.9282616271021438 5.623303394698319
206 -11.591459196927218 -0.9767138508570917 6.036921176568265
1377 7.301130566002921 1.7647855028872739 7.474912927594533
1081 -1.7565066918637124 6.555283286319141 9.852098450558477
881 4.047585211819062 -7.567063865444366 -9.595631280900747
1087 1.5807395523650822 3.2784171116326957 14.973100260898734
1405 3.9138718081572805 -3.77158422634437 -7.859577288827956
666 1.381713878934816 1.7268111984473808 -2.405801962207478
1154 -5.606839291761455 -5.627792640221482 8.270110270108136
2143 -0.5258953892221163 -2.8335434419200998 1.3934091606441186
1484 -8.168586297068124 -3.691834450282087 11.745263705494377
37 7.455373397810901 2.8016796878185244 1.6500532990089924
215 12.10695808192661 3.09508766969558 0.8130378199238648
12 -15.402431630020057 19.77895329555366 -3.452707102216621
2031 4.721890146420793 1.759776915980744 3.0818215378746943
137 8.00131404253708 -5.331469453514054 18.370192193304838
1573 7.188285806400018 -0.23392197529298744 -13.450244142078473
799 -1.007431922043448 4.808660822611097 6.1835529813724
1815 -1.254089315422186 11.841281271172143 10.291176581729006
787 2.751908447108678 -4.796583111433229 -10.98324795190302
1050 -0.838592867060895 -9.687128698106523 -5.343728715861355
842 5.007149195293655 1.5329407599536258 2.4576130961680875
393 -3.5750079933703782 -7.511524258497699 1.4424071253415482
1578 -20.71232288929486 12.223823121954997 9.081624305551482
1945 -6.4686991017292605 -10.043342613528791 10.52448669032165
1023 -7.867221254014682 1.206708112544455 12.538972123899011
1380 19.466463693360996 3.547483384430459 11.774108374025154
1965 7.0470987591276595 -4.98633373557229 -5.353879222327725
749 3.007467438294818 11.735044800375524 -6.613272198796249
1160 -5.396328469398384 2.4024924800209804 3.253262713388001
2007 -0.47491291617741166 1.7426059962603067 0.9481798523903489
1436 6.848613457952359 -11.833174006979839 20.330137756482152
1116 6.666634754397672 14.3110869936731 -8.373091080950008
2081 17.105665833748503 5.660733105826179 -11.31352347588064
1069 -4.918426320841106 4.688822084123643 -9.98016865405246
779 -0.5253622556711143 -12.11515750970458 1.1863712283047614
1085 -13.718968230762515 0.9307822670147387 -3.1766748776969163
1449 -8.037298680200083 2.145489498918544 4.501447047950331
1902 4.6103332477846255 -7.346691753835729 -1.9357783160561584
755 6.914456145395802 -6.830488991335876 4.389236725415462
239 8.076324165218054 -9.364060910313189 7.417809258787195
230 -5.504330452654694 13.110697381551631 1.589825356097652
1016 7.940897980714232 -12.020365804606007 -1.0812198371324446
547 11.731333486088783 1.5195942732587953 -2.6448195316582845
634 -8.52277053787451 -1.6504197858716676 13.48176513588119
1382 -1.208701228805441 8.402080169188968 4.578875287771041
1890 6.588263418906124 -20.208844811120837 4.371922761000431
1424 -8.841605962208583 8.64808666061934 -0.8215937618425688
1797 -8.934047184732623 -6.653800157926112 19.303727467799582
1394 -4.254454003032456 6.548233885960839 2.1046832274957326
411 -3.846333371996287 -1.5929521702732607 5.434128956744313
1845 -3.6563063386713694 -0.9181779977892354 9.297249246506984
346 8.35534912859573 -6.5652331248796685 -0.40686526782025006
221 -0.2803901470757468 4.681569510860365 4.280276827626626
711 -0.8341525603344789 -10.168734007238566 -7.442093558362361
1439 -3.4352175826138804 3.2478000469678747 0.5316501881848117
1993 -0.36759584781242005 10.447718000660641 1.3959620994221011
117 -9.242686224914424 21.103126096953975 -4.774177764815353
212 4.368264492726253 9.499825607561167 16.641258324620924
2136 4.908240923984459 8.795276604951507 2.881975978993262
766 -10.742319646927712 -11.154879560694853 3.3357532909822516
1020 1.7215181558539658 -10.888447381295196 -7.26750792250672
2149 -4.017405780327661 -2.50812328193655 4.247972297740431
1621 -1.78090653223251 -5.284456188865564 0.021692408250106387
1387 3.2810715398237336 -3.930014242710608 -13.94620034598132
125 -6.630030217968519 2.043000706049141 2.604996299553743
2078 -3.269729729378052 1.471461549945222 -8.940218002861375
1654 -13.073719919963727 3.2875645000832816 -7.388319848133779
1122 -10.429965951726032 -9.66640393348894 7.329143516876517
504 -2.169888181686949 6.249188487234348 7.4855842437700675
1585 4.953148956627694 -3.2000937592628955 5.976048024267917
1817 9.830306487793305 -6.189466641366032 6.580778939093323
366 -26.779857227010694 -10.794309813824606 0.10794010838428272
43 5.217284663908446 -2.183875529445734 -6.6438234031460075
220 9.920281143600068 -0.5313705198682727 8.134697501048342
1447 11.510018867070857 -16.858925538191013 -12.384586222239934
265 -1.5939976844453843 6.61380363962104 3.405511199041904
391 9.794898274347467 6.32538558033323 9.454377067151887
1194 3.0655578739938605 13.030516723393484 -1.7931180214541953
958 -14.08123844474094 -6.118104119029873 3.2052668111632077
1855 -5.514261947819015 -10.976796419719824 0.4402595157654353
1632 -5.522871836761078 0.5873097046152614 14.167068838716823
1086 -7.76789966436453 12.376807811656736 1.676474993500086
2029 -3.674623440258425 -6.479754355059769 -3.3286164261793587
1801 -15.429983616552034 -2.0059874011234573 -0.6490399997383018
35 -0.967634404551344 -5.183754272789111 -8.976350467242886
826 5.901313619446069 -12.60501058430875 -17.85505867083442
782 0.7273629973351357 1.3703191586156476 -3.3725968680461316
919 -1.2756809968202947 -9.022243707736061 0.8080904801318743
149 -9.22849716926521 8.846349812666197 8.547743316291498
1975 1.806422752766544 -0.36899516322073295 -6.404396864896572
326 -4.482173024604512 1.5546433723514022 8.838586700730515
652 -3.9673797350115643 -5.991426517053234 -0.2915970254155951
1644 -11.43563365719323 -18.963785500936492 -11.94034418139948
1251 7.538144812736873 -0.15743057592020385 -3.462908646162639
1231 10.146032617025103 7.6659972268201 17.163129990717582
1988 7.999130065387521 3.6688045720486198 5.278977271939012
1072 8.130620665645868 -8.159255628497094 -3.538285236205848
1914 16.590103558676226 -7.949186757261249 -2.5896840136329824
2077 0.7640084693494907 12.800699002006876 -10.50166548684955
526 -6.29337872690143 0.4624833860475034 13.235135008688873
568 -1.9477533110258483 -4.073231289211978 -8.918158021432992
562 -2.6928704679383397 -2.9198185790314497 -10.089558272849695
1187 11.05867941451296 -12.270782697596024 8.765128184674683
2085 -8.958063487212666 0.318634751568646 -0.7344923352801611
1870 -11.610629765566346 -8.520279633196154 -10.167812777130312
1488 -0.6317464959573528 -7.084225714999097 -12.423376310073039
2127 5.541262413017563 5.661220929435157 0.3023337351447458
783 -4.332558022551174 15.301754628419783 4.549112156275642
426 -9.175265397572794 8.338532627841285 -11.94236581414988
