LAMMPS data file via write_data, version 2 Aug 2023, timestep = 5000, units = metal

2160 atoms
2 atom types

-0.13095198564362853 30.269865365641856 xlo xhi
-0.13140961780978877 30.375648137808874 ylo yhi
-0.15165527673719126 35.055480726733364 zlo zhi

Masses

1 15.9994
2 28.0855

Atoms # charge

791 1 -1.2 29.469347806751355 4.347051856842742 0.05384888794749744 0 1 0
625 2 2.4 4.195724905456596 2.824744977735948 2.6559807860591893 1 0 1
744 1 -1.2 2.7800856069171407 1.2633123225047227 2.1937366246404304 0 0 0
803 1 -1.2 4.382074311521968 -0.015567889872735018 3.7690440970546333 -1 1 0
592 2 2.4 4.464430268567713 1.7974151964184946 5.2230648592188365 0 1 0
1782 1 -1.2 5.18528799586483 2.284545935040559 3.638768558943951 1 1 1
1667 1 -1.2 11.650297784641491 1.901164398378289 4.715125887866601 0 1 0
658 1 -1.2 14.65174001061302 30.32642066177165 33.730220343407005 0 0 -1
275 1 -1.2 19.268259259599507 2.910933818574532 1.8215846966921867 0 0 0
1725 1 -1.2 23.317022097478432 1.4394028003527448 1.6723480050537374 1 1 0
184 2 2.4 23.46863113089099 1.3726030433083898 3.2493829612860146 0 0 0
655 1 -1.2 22.11199915241951 3.2368309162188935 2.7213189390233845 0 0 0
683 1 -1.2 28.25056477848324 1.4208517655529336 0.47211698844682065 0 0 0
528 1 -1.2 30.13956260357251 0.3810418031368947 34.700297646025525 -1 0 -1
1837 2 2.4 28.55776219017823 0.4754869260565434 2.0591273642197723 0 0 1
1120 2 2.4 3.020623836769696 5.851987788005088 2.402234387322009 0 1 1
630 1 -1.2 2.7810069895235316 7.184908399268168 3.6913065073561127 1 0 0
394 1 -1.2 3.608610706897507 4.308800823502339 3.1927191168922895 1 1 0
1900 2 2.4 7.418891368251664 4.847314655660098 1.422310794495551 0 0 1
35 1 -1.2 8.713447818845689 1.5437733581388 0.05332208091772447 0 0 0
1386 1 -1.2 6.176479838771159 4.446209017274625 0.37014532031431774 0 1 1
796 2 2.4 7.738515769231753 2.311349767697191 34.02148504074457 0 1 -1
1464 1 -1.2 10.547764846704611 6.361880776709294 2.9403310677948418 0 0 1
936 1 -1.2 8.933556006280613 4.550457152464795 0.6379547665582935 1 0 1
1988 1 -1.2 11.267061236145219 5.050571749521797 0.41926951908398713 0 1 1
553 2 2.4 14.745894230411837 3.8876068806984265 1.9360109253902282 1 1 0
240 1 -1.2 14.078856312187398 4.879970186481202 0.9606803662557591 0 1 0
2125 2 2.4 17.53148764185854 2.492587964488883 1.8674175267788995 0 1 1
132 1 -1.2 16.250735772054288 3.2260079134622357 2.5392025045348583 0 0 0
1270 1 -1.2 18.65192022575912 6.661240480186234 1.3149494466248115 1 0 1
117 1 -1.2 26.33002433244306 3.734420590098485 2.2355229666875887 0 0 0
741 1 -1.2 25.55285362191105 4.030967172235644 34.95826779351844 -2 0 -1
352 2 2.4 27.29497144866576 4.117015221271655 34.44610464840877 0 1 -1
2040 1 -1.2 27.225373482261908 2.9712051441550207 4.75157189990937 -1 1 1
1821 1 -1.2 27.62191199622999 4.974522618713356 0.5650624885364688 -1 0 1
1668 1 -1.2 28.03277069883278 2.479231781770825 33.57118130943849 0 1 -1
839 1 -1.2 7.2525785624166765 6.491562990807975 33.67550976093912 0 1 0
1200 1 -1.2 4.430673608741078 6.843979051448567 1.8282506421329194 0 0 0
891 2 2.4 5.583358089033796 7.094143872513012 0.2797972797313807 0 0 0
1304 1 -1.2 6.950868104773917 6.429593341225888 1.2662946329963278 0 0 1
1982 2 2.4 7.257357264575492 8.859762594174539 1.5816298689242818 0 0 1
1843 1 -1.2 7.1067399219243255 9.383029106705964 33.37510055453262 0 1 0
2074 1 -1.2 15.195163015670037 7.805860981586783 33.42445560815963 0 1 0
866 2 2.4 18.98257574728085 7.046849228473545 3.0243231663283696 0 0 0
320 1 -1.2 19.25604247287882 8.550920562903597 2.269366150784445 0 1 0
1377 1 -1.2 17.557264376589814 6.3727354054737715 3.477050029460489 -1 0 1
768 1 -1.2 21.515693834881272 12.33910443366925 2.270696872553936 0 1 0
1545 1 -1.2 28.335506603853037 7.878717884927405 34.90804339364834 0 1 -1
418 1 -1.2 24.973520007098738 5.848187191249641 2.2362271760600896 0 1 0
409 2 2.4 26.390163738464786 5.377468964849431 1.4769005909480082 0 1 0
1534 1 -1.2 4.975630357201954 7.34795393352487 34.15773235392331 0 0 0
1295 1 -1.2 5.945740833171671 9.004338988064015 0.7638882149601918 0 1 0
225 1 -1.2 8.139287677569538 10.02963545942765 0.7314313506000758 0 0 0
759 2 2.4 8.99176095081284 10.475906431311218 2.1020285876836224 1 1 0
1453 2 2.4 10.817258142091529 8.544954512004166 1.9323673397469074 0 0 0
1171 1 -1.2 10.377641512980434 9.719164543241986 3.0387042835790643 0 1 0
1578 1 -1.2 11.290183305039118 9.553413980665706 0.5166373630625559 1 0 1
1274 2 2.4 12.999511982810088 10.019613033259702 0.6429190839827068 1 1 0
1169 1 -1.2 14.614866294760471 9.316937736943224 0.2669871181063911 0 0 1
1537 2 2.4 16.023752800924598 8.983530736512515 34.52692106068583 0 0 -1
444 1 -1.2 16.756619671631853 9.843585653548853 33.45365919311173 0 -1 0
629 1 -1.2 21.11861638588906 7.145067785160335 33.86192554035138 -1 0 -1
1330 1 -1.2 19.751083747362305 12.326780855319548 34.827453257645296 0 0 -1
383 1 -1.2 24.237524126622915 11.240014283279981 2.5364487071347366 -1 1 -1
2075 1 -1.2 29.285861055770702 9.849128321584063 1.0862938752517206 0 0 0
1484 1 -1.2 2.18460737470776 16.870788594068753 1.1579179861491267 1 0 1
624 1 -1.2 6.646884797307973 12.027703897738979 34.6625863436166 1 0 -1
181 2 2.4 5.355732137059078 12.521033400872687 0.7641041895855544 1 0 0
622 1 -1.2 13.547695946804232 11.280849451165533 1.7310246968974479 0 0 0
152 1 -1.2 12.062451350276342 14.882931200451829 0.386340504049333 0 0 0
372 1 -1.2 14.614003045095881 13.616166288327987 0.23798366060612516 -1 0 0
842 2 2.4 13.307536676501186 14.317263123585182 34.473548172124936 0 0 -1
818 2 2.4 14.370807652694563 12.822657151367977 1.622890746605937 0 0 0
1696 2 2.4 20.72082918767647 11.720793211153024 0.7905031104737704 0 1 1
1087 1 -1.2 22.10018196745554 14.654226358067124 4.177967115695595 -1 0 0
98 2 2.4 24.43461337042034 12.283239119412555 1.1309665561602704 0 0 0
561 1 -1.2 25.919200474227765 12.667407652914129 0.960388787631988 0 0 0
1981 2 2.4 30.127059185839244 10.252660347044118 2.403216847751593 0 0 1
392 1 -1.2 28.80601638679032 12.696139277675183 2.6850919376591293 -1 1 0
1024 2 2.4 1.618453680380102 15.361410629185466 0.24519616685410728 0 0 1
1085 1 -1.2 0.3211881994505475 16.17293437204615 34.80480493736419 0 0 0
1105 2 2.4 3.896164325658875 15.098252298825342 -0.00022627940238745606 0 0 1
2100 1 -1.2 4.970479973588758 16.355174604486404 34.58690808186005 0 0 0
297 1 -1.2 6.182782674264336 12.620345233853765 2.0828616360686496 0 0 0
284 1 -1.2 9.363347664417653 14.549341657346064 0.606697539304914 1 0 0
877 2 2.4 10.404191502222968 15.016103799589892 34.81593672310568 0 -1 -1
1965 1 -1.2 18.46649528714637 14.614635514120648 35.04692402225344 0 0 1
243 2 2.4 17.831140588690435 16.14369389781161 -0.12721931617732363 0 0 0
393 1 -1.2 18.472056037223854 16.655870832629674 1.4145869735085579 0 1 0
1457 1 -1.2 21.123374329331675 17.814812865051707 1.8171404170310224 -1 1 1
1993 2 2.4 22.519450174401904 18.12259652728238 1.2955677891603845 0 0 1
21 1 -1.2 22.488190709291846 16.527524988464666 0.6186483282889607 -1 0 1
1081 2 2.4 22.588239345093438 15.00785321223807 0.04623159159729214 -1 -1 1
106 1 -1.2 30.124283061033974 17.15232025973849 3.192073531569314 0 0 0
1218 1 -1.2 29.046862151967897 19.039406647241243 2.3723825424488423 0 0 0
1920 1 -1.2 2.7398256368104468 19.122706629984844 3.9087897992781246 0 -1 1
632 1 -1.2 5.234885870344863 18.25711112783768 4.037465647568853 1 0 0
967 1 -1.2 6.260750109229158 19.539061679729762 2.002941944669467 0 -1 0
868 2 2.4 6.16458886106453 18.006827627756405 2.3064420710866784 0 0 1
346 1 -1.2 14.010265299411216 19.343732396172996 1.1675269850395167 0 1 0
745 2 2.4 14.839878568595294 16.3426113606163 0.14241953010623665 0 0 0
1883 1 -1.2 14.302965314983267 15.51905154673621 33.92160309064989 -1 0 0
1643 1 -1.2 18.577678125031664 16.5788280072139 33.95229598140607 0 0 0
48 1 -1.2 22.266517729817505 19.394928793571662 -0.008948119613580472 0 -1 0
731 1 -1.2 26.66178304640972 18.421755618225212 -0.03210468768558987 -1 0 0
1021 2 2.4 27.637285339298835 16.838104636059807 0.4563821097614727 -1 0 1
2005 2 2.4 27.627442769701975 18.832441384509416 5.423896640049911 1 0 1
1381 2 2.4 2.0971343373042988 20.45998245799125 3.446104167605426 1 -1 0
1231 1 -1.2 0.37611091569052135 20.0936687162724 3.541313072584123 0 0 0
338 2 2.4 29.935967603735502 20.23525162589024 2.134877991372646 0 0 0
826 1 -1.2 2.256392663123816 21.09821100235649 2.069853400600618 1 1 0
2038 1 -1.2 7.481844947182865 17.211188044657753 2.3304552842669195 0 0 1
2029 2 2.4 7.024823247821807 20.82036932598718 0.9971397922402309 0 0 1
104 1 -1.2 5.732079472355755 22.03343846766804 1.6178769548017413 1 -1 0
358 1 -1.2 8.533388029571839 21.173699041038873 0.9336880404868797 1 0 0
197 1 -1.2 16.40639660014924 16.296117042113398 -0.060805441011868945 0 -1 0
587 1 -1.2 18.18447722490806 21.414312856599427 2.1426112045326233 -1 0 0
542 2 2.4 18.579736174840885 21.532699865462266 0.4514366959012107 0 0 0
354 1 -1.2 22.617958201619864 21.88362161248525 34.73819412603687 0 0 -1
1683 2 2.4 26.30214029677104 19.753399302933605 0.9162040761754746 -1 0 1
910 1 -1.2 26.21042861782448 19.698655701882164 2.592653811937765 -1 0 0
311 1 -1.2 27.112979675652007 21.176725938944905 0.12071145211771432 -1 0 0
221 1 -1.2 29.24429235671309 21.63374185534638 1.365177479350344 -1 0 0
1946 2 2.4 27.87792827827668 22.291445674447075 0.9358497555341928 0 0 1
1449 1 -1.2 0.5864830780217448 23.412782899892264 1.8586502950497792 0 0 1
2151 2 2.4 0.21002779784169867 25.09543120664051 1.4511982762393827 1 1 1
1336 2 2.4 2.0097712067806217 22.751889068033783 1.2295354241360041 1 -1 1
1957 2 2.4 8.427306848224944 25.995088181365016 4.656766065533316 0 0 1
2062 1 -1.2 8.618985927529828 24.505229162539706 1.0666744092231673 0 0 1
1536 1 -1.2 7.3068537953720245 22.00658927934453 3.0825169014330807 0 0 0
708 1 -1.2 12.346425570416947 23.99812578008337 2.7839819307374913 0 0 0
919 1 -1.2 15.30778255933456 23.18521395866465 1.7705879339736423 0 0 0
2008 2 2.4 15.946778483785467 23.715275048516236 3.4517524253899308 0 0 1
586 1 -1.2 16.959029746066175 24.967620819162065 3.1606880187318738 -1 0 0
711 2 2.4 15.653690399484622 21.62950475455802 1.357960334093723 0 0 0
2001 1 -1.2 17.978187067359286 22.939300726381152 0.2855554326268007 0 0 1
83 1 -1.2 20.296939510741897 21.687072924327495 0.7408097583643686 -1 -1 0
1189 2 2.4 21.4904002050162 22.886020621815863 0.1327304444429603 0 -1 0
223 1 -1.2 22.69254293778423 24.302801262970746 0.27749593991037125 -1 0 0
38 2 2.4 24.045888678607998 24.170229997191228 0.8674920834612323 0 -1 0
1267 1 -1.2 25.176984806542457 24.797361900827948 34.872567490328244 0 0 0
366 1 -1.2 26.99590080173211 22.05528336772483 2.146611745940855 -1 0 0
265 2 2.4 2.6848929436218154 25.77425318831637 0.06028496405032817 1 -1 0
1758 1 -1.2 1.5355735533958734 26.24933757510684 1.1809429648871403 1 -1 1
719 1 -1.2 3.8747337188153903 26.00770234626105 0.9311845687187261 1 -1 0
397 2 2.4 5.345078271658282 26.32506701503655 0.18548136055370096 1 0 0
440 1 -1.2 6.206261054708811 26.87911819691565 1.3980553454373617 0 -1 1
1563 2 2.4 8.697732904705644 25.98929371285944 0.8004079084243158 0 0 1
1627 1 -1.2 8.889000044725693 27.52093848268588 1.3296896287405007 0 1 1
1724 1 -1.2 9.89771812070352 27.35908269868195 4.6560945560357325 1 0 1
326 2 2.4 12.562061716628735 25.600889742246956 2.6384445208433345 0 0 0
1354 1 -1.2 13.054242475561514 26.173752678699028 1.294559048051278 0 -1 0
113 1 -1.2 15.212983582674994 27.992245879534916 0.2823034654969414 0 -1 0
782 2 2.4 13.530874634022709 27.78525839048232 0.29066897462410807 0 0 0
85 2 2.4 16.526687622067524 26.791037483987605 34.7527715777461 0 0 -1
2107 1 -1.2 17.662690495004163 27.819302220832757 34.325705962650076 0 0 0
365 1 -1.2 24.242334232658205 27.09298378402647 -0.028535979058488967 -1 0 0
1500 1 -1.2 26.209984477148588 27.088231667467564 33.758672732546394 0 -1 0
652 2 2.4 24.668199012076908 26.12047361225768 33.93381656260619 0 -1 -1
342 1 -1.2 30.02882052838952 25.481995498458303 3.101372084573448 1 0 0
1702 1 -1.2 0.2540091180059058 2.717863527626632 1.2150165374899118 0 1 1
493 2 2.4 29.57533544949544 1.9212036837350657 34.90122009769326 0 0 0
134 2 2.4 3.006232138809271 30.10505224937447 2.9432343351692194 1 -1 0
1711 1 -1.2 2.8793266751118587 29.789465943461426 1.1734953359848388 0 0 0
1802 2 2.4 7.533065075801915 28.571038615195423 1.6377708368855863 0 -1 1
2009 1 -1.2 8.761448950386676 29.941447482100582 1.206183408038389 1 0 1
1801 2 2.4 8.969169909657252 0.9537084760425291 1.481659882838955 0 0 1
1387 1 -1.2 11.420405296667822 1.193579217482151 2.0448978882999715 0 0 1
689 1 -1.2 12.677154093120791 29.360623723559332 0.5910793807989165 1 0 0
422 2 2.4 12.84964698256642 29.905893743716355 34.342067282457066 1 0 -1
503 1 -1.2 20.932878650719427 30.12803802038572 1.0642435033873108 0 -1 0
1490 2 2.4 21.440111955243427 28.78113893293121 1.9661743997605072 0 0 0
1422 1 -1.2 21.322067903126378 29.525926926063413 3.459803537737166 1 0 0
1243 1 -1.2 23.085118512119767 29.016740784991295 1.726190721296432 -1 0 0
1705 2 2.4 23.93675753707902 28.73222620809296 0.28405521638119 0 0 0
2012 1 -1.2 29.34819118577708 29.55698290332771 1.8550451498020746 1 -1 1
2077 2 2.4 29.30703798474589 29.433939081134433 0.008485302610394903 0 0 1
128 1 -1.2 28.084460749157007 28.71263970286896 34.6561122353742 0 -1 -1
1606 1 -1.2 0.885820817462348 2.7643037519318985 3.458220915015312 0 1 1
1570 1 -1.2 3.2055693724633767 2.7462318474414937 4.864517224353837 1 1 1
1898 2 2.4 7.281619140644732 -0.10780882748110492 6.9052718349564906 0 0 1
56 1 -1.2 5.458226204990177 2.194544031750044 6.286419150334104 0 0 0
417 1 -1.2 8.110870979045252 0.9776490353509095 6.530231362763235 0 1 0
1803 2 2.4 12.92452776709314 3.094378563845711 4.817432321371169 0 0 1
462 1 -1.2 14.497671284729632 2.3224862234196744 4.893816980504043 0 0 0
670 1 -1.2 22.817735095955385 0.6880023718939559 4.609469895418882 0 1 0
568 2 2.4 20.74992761311649 2.603162312174765 3.1652387053067783 0 0 0
720 1 -1.2 24.461819708655067 29.354753522702385 4.178904288170688 1 0 0
2063 1 -1.2 24.921210746005396 1.8485519243912076 3.6921652820517505 0 0 0
1251 2 2.4 26.599599104191874 29.734042743273164 3.531352510565794 -1 0 1
1089 1 -1.2 26.904887684179172 0.2903578573647287 2.6054224407074114 -1 0 1
1867 1 -1.2 29.688646713637006 0.7113286946758532 3.0788534074511986 0 1 1
1040 1 -1.2 1.128390630406002 4.04764404569329 5.853530236841267 0 0 1
1681 2 2.4 1.3452906499502282 2.9274174312550687 4.979299410003646 0 1 1
1042 1 -1.2 3.671956715948451 5.663580042632305 6.114721905971827 0 1 0
857 1 -1.2 7.658884002904604 4.8975289879536055 3.2602999395001087 0 2 0
1115 1 -1.2 12.442498439670052 4.318941329580088 5.4990096109006945 0 0 1
1948 2 2.4 12.51019889480037 6.386790510845085 4.987246613700349 0 1 1
1978 1 -1.2 13.275108174465831 3.038218450059903 2.46506996715665 0 0 1
1269 1 -1.2 15.228030247099813 5.225188966359431 3.432710167298248 0 1 0
599 1 -1.2 17.269601221640976 5.393636844397062 5.625608250316429 0 0 0
1187 1 -1.2 19.688789938789885 2.864213434155313 4.526471991283076 0 1 0
2021 1 -1.2 25.234600769536993 4.378268859049971 4.5033974209371115 0 1 1
1 2 2.4 25.837308786311564 3.122290173777957 3.757632987722072 0 0 0
588 1 -1.2 28.836234645509055 3.9641134095746198 6.363479376079114 0 0 0
471 2 2.4 29.780705638259352 2.456363811701929 2.68421885657557 -1 0 1
979 1 -1.2 28.96648395481252 3.57480497709826 3.1755037109826194 0 1 1
255 2 2.4 1.1983724615463183 7.684389780262441 4.128428031248662 0 1 0
1373 1 -1.2 1.4186390148952799 6.9203166531888645 5.6088885678857965 0 0 1
851 1 -1.2 4.908989326653787 7.480089891331694 5.216255492599474 0 1 0
195 2 2.4 7.489342606898678 5.807558595425158 4.580184276015656 0 0 0
1104 1 -1.2 7.017170969070754 7.417911191814373 4.160493143786021 0 0 0
60 1 -1.2 8.811357679009255 6.62538610440446 5.590434060580419 0 0 0
728 1 -1.2 11.241281527914309 7.345819819568188 4.798633610643523 0 0 0
1248 1 -1.2 9.965458118823085 7.402835942366118 1.1769709631057181 0 0 0
2028 1 -1.2 12.76916679320289 5.82261644116992 3.351181327257332 0 1 0
1372 2 2.4 10.23432640754307 5.744724303391679 1.4169683087641105 0 0 1
145 2 2.4 16.387205677019185 5.981194085857387 4.3892344542755035 0 1 0
1065 1 -1.2 16.391482971510328 7.639781501105545 5.249159358134455 0 0 0
2116 2 2.4 21.29456161067273 6.420825061991452 5.352500006330671 0 1 1
574 1 -1.2 21.654792897039854 8.299076500993474 6.292604942533843 1 0 1
2093 1 -1.2 20.105326398636407 6.055551421075724 3.452669397220798 0 1 1
1996 2 2.4 24.518480450103187 5.8915219559281695 3.904435848638056 0 1 1
706 1 -1.2 22.95707502461634 6.243157647091987 4.759902334002217 0 0 0
1337 1 -1.2 25.52551893736705 7.227643362118302 4.5766630720514 0 0 1
1928 1 -1.2 30.04565550034123 6.957112470757412 3.512632893031484 0 0 1
1186 1 -1.2 27.57996179751829 7.977109349943851 2.431435927259083 0 1 0
1009 2 2.4 28.369517829509313 7.124017008939485 3.7225721184568576 -1 0 0
981 1 -1.2 1.7872021617671734 9.560926964602148 5.184788967860639 0 0 0
1362 1 -1.2 4.976350238681895 9.247752685257463 2.8171643783115683 1 0 1
1612 2 2.4 1.507453510635508 10.75758913800236 6.176148805869609 1 1 1
1432 2 2.4 5.556029682001883 8.34156527271878 4.098628139858089 1 0 1
1762 1 -1.2 5.9758990702459345 9.732116109708507 5.141726235785925 0 0 1
989 1 -1.2 12.410332789027677 8.109224820330747 1.9981722120812913 0 0 0
2109 1 -1.2 16.283953362837583 9.968031220742985 4.349690691125737 0 1 1
1558 1 -1.2 20.46543507591911 10.441659520066693 5.3903513394522475 0 1 1
1984 2 2.4 21.892858141925007 9.997945709756454 6.533287161799008 0 0 1
1165 2 2.4 24.45419722088228 10.808289521266918 4.0882915840361616 -1 0 0
1254 1 -1.2 23.78248350720117 9.707112784487155 5.045203859088966 -1 0 0
1925 1 -1.2 24.35106856217974 12.07987553851194 5.205221955242503 0 0 1
457 2 2.4 26.270000395401865 8.888118985506715 5.286785698543055 0 0 0
1244 1 -1.2 27.693579198464636 8.42305586009616 5.382223117295218 -1 1 0
1006 1 -1.2 1.5137243952648218 15.159082402126309 4.637499592356835 0 0 1
750 1 -1.2 8.735350634310905 11.928214065670632 2.7220554183091443 0 1 0
1985 1 -1.2 7.9485875150026 9.324361445878198 2.9077291807767263 1 0 1
1754 2 2.4 7.595596804274328 12.90504829229402 2.85964140645177 0 0 1
800 1 -1.2 7.487455620718524 14.210888106428598 3.6602427754619935 0 1 0
1685 1 -1.2 15.51822794955525 12.074044657426807 2.6240811179513797 0 1 1
1715 1 -1.2 12.848391578957646 13.805197994955284 6.209071681457466 0 1 0
1023 2 2.4 16.644071719566618 11.6531790100921 4.156930490852904 0 0 0
618 1 -1.2 18.457544155292286 11.803376635765797 4.056420900666409 1 0 0
2055 2 2.4 19.771438486419164 11.767200673513525 5.568574309484933 0 0 1
917 1 -1.2 24.369182396020715 14.30585319883578 6.502951288466158 0 -1 0
1502 2 2.4 24.572307313377184 12.754278352247782 6.796312638198383 0 0 1
280 2 2.4 0.0031520949925173264 12.995682605803532 2.150485498885324 1 0 1
125 1 -1.2 2.6348792749539807 14.999504904747821 34.161215250515006 1 0 -1
567 2 2.4 3.454201555639174 16.36380905248102 1.933551622987971 1 0 0
1894 1 -1.2 3.8299032741124694 16.707363917245324 3.6037777237149116 1 0 1
1111 1 -1.2 3.5764544936201177 14.914443787511464 1.695385406649034 0 0 0
1033 2 2.4 4.610048626323693 12.689338812977889 5.788061885287522 0 0 0
737 1 -1.2 3.426638052200254 13.85574186284525 5.573729637914338 0 0 0
439 1 -1.2 5.428301550600057 12.496638520913967 4.524505720587691 0 -1 0
787 1 -1.2 8.842683356694398 16.14708139815768 3.848906359254522 1 0 0
1896 1 -1.2 11.205241389665128 15.632559784192745 2.4693038416062105 -1 0 1
1826 2 2.4 11.906613995865595 14.698850568941934 3.994184611213628 0 0 1
1070 2 2.4 10.278757717979126 16.40290923030095 3.4503653125015608 1 0 0
1878 1 -1.2 11.310495354812643 13.095025712450326 3.979051931768689 0 0 1
1740 1 -1.2 13.806046375035903 13.834364927508236 3.2798614965139437 -1 0 1
789 1 -1.2 13.354804125570016 11.110881590691388 5.188731874368434 0 1 1
950 2 2.4 11.922712389050927 12.269786811655756 5.448121995048569 0 0 0
1518 1 -1.2 17.60959915397016 15.172099715379968 4.893487478670312 0 0 0
1590 1 -1.2 20.39817062174934 12.860599373265115 4.703585866910231 0 0 0
302 2 2.4 19.897941556271007 16.622000007209696 2.123564253525006 -1 0 0
794 2 2.4 21.30761886099336 13.704683743077704 3.145581052027645 -1 1 0
415 1 -1.2 20.270791226180737 15.143484286571374 2.1730206791540443 0 0 0
1326 1 -1.2 27.7408970473121 17.287108034218196 4.801429726883791 -1 0 1
122 2 2.4 24.8413849341664 17.63192657867744 5.756198014847694 0 0 0
155 1 -1.2 27.47874159264411 16.75191625567939 2.072423654915133 -1 0 0
1897 2 2.4 28.555423668153573 17.48667139427358 2.983127355818028 0 0 0
767 1 -1.2 28.645122675697944 18.984014068893217 6.62379911459897 -1 1 0
867 2 2.4 0.624564528915118 16.46277710280574 4.268426332030805 0 -1 0
516 1 -1.2 1.13647880345205 17.787601964261842 5.151492911581355 0 0 0
453 1 -1.2 3.5284448733341 18.278701772614404 6.2791754157142 0 -1 0
752 1 -1.2 5.351491100291795 16.480113257067767 1.90733278095438 0 1 1
1691 1 -1.2 14.350403810044279 19.443431174996558 5.004007960620314 0 1 0
1653 1 -1.2 14.485378690582435 16.11445780859426 2.0279339461498163 1 0 1
1408 2 2.4 13.960384115700927 15.823084528390556 3.4046635455180634 0 0 0
1991 1 -1.2 14.173915563140495 17.00294038575995 4.419505907171927 0 0 1
348 1 -1.2 19.388930023749772 17.342254005697182 3.660717678736928 0 0 0
332 1 -1.2 23.15922373962199 18.952742508984187 2.6869003982076864 0 0 0
421 2 2.4 24.634917678033943 19.078685390529056 3.5000414761143492 0 0 0
200 1 -1.2 25.32583784406408 17.67120627450021 4.0643367064069285 0 0 0
257 1 -1.2 23.806777742444805 16.799588448250123 6.497372300695101 0 1 0
1250 2 2.4 3.7292278334523488 18.086264202179724 4.5036083542691365 0 0 0
1625 1 -1.2 2.9999359206468124 21.407882366478216 4.35465028354805 0 0 1
1237 2 2.4 9.039278555970407 21.62391542491505 3.7911531030076473 0 -1 0
1452 1 -1.2 10.151833087794119 20.948144965060415 2.6815605918828385 0 -1 1
634 1 -1.2 10.421764518509088 22.917391062210307 4.360399234764103 1 0 0
1975 1 -1.2 11.863211605304912 19.58830003762617 4.94864937424759 0 0 1
309 1 -1.2 13.087468705375425 21.938168317732593 4.258141306185175 0 0 0
939 2 2.4 13.172255241168058 20.546641019671476 5.275181412933166 -1 0 0
512 1 -1.2 17.18603990465461 19.77432416867924 4.224318853237638 0 0 0
838 1 -1.2 16.77882839128664 22.533486369101393 4.526633474734157 0 0 1
832 2 2.4 17.132760678459316 21.064916864557997 3.2853745189288794 0 0 1
2140 2 2.4 18.568045596663076 19.442043119930737 5.196104154047802 0 1 1
678 1 -1.2 20.14441151500614 19.906652152292427 4.73682012442668 0 0 0
1197 1 -1.2 23.790853635528133 19.305971754938824 5.084903836052987 0 0 0
1407 2 2.4 21.457204783124816 19.62326109655336 5.417310492865858 0 0 1
812 1 -1.2 26.68525872493354 22.463107185028253 4.429225328771429 -1 -1 0
514 1 -1.2 27.602887564143092 20.22577544164765 4.042996130492001 0 0 1
1611 2 2.4 3.6107400497212376 22.94352836346533 3.6613637008378137 0 0 0
1471 1 -1.2 5.1002105242921685 24.688009114937238 34.8235885715074 0 0 0
1553 1 -1.2 5.313157471260586 22.897592906930694 4.098163828640958 0 0 1
316 2 2.4 6.885643968706889 23.235519324536938 4.3654513051237895 0 0 0
353 1 -1.2 7.466281964159553 22.22770692106358 5.796704114837469 0 0 0
899 1 -1.2 7.84783270699405 24.435583971499437 3.9253085539616337 0 -1 0
194 2 2.4 12.158145882636909 23.133713697933086 4.467015108291209 0 0 0
2014 1 -1.2 12.36191786302702 24.271217205119168 5.551645069872098 0 0 1
1074 1 -1.2 14.439959379593212 26.292039316849802 5.975885058594891 0 0 0
594 1 -1.2 14.528662530599389 23.92605318821922 4.456631158616265 0 0 0
2160 1 -1.2 20.21215749387055 24.884445151784586 3.363619146771632 1 0 1
198 1 -1.2 22.65040317555002 27.37734468611669 3.918485357744239 0 0 0
412 2 2.4 18.764088850880828 25.23945035644495 2.8123658733483974 0 0 0
1700 1 -1.2 24.170178739953396 25.279838753577877 2.369781621754523 -1 0 1
1445 1 -1.2 22.68243470475256 24.45956643898114 4.576662316619591 -1 0 1
1228 2 2.4 26.25099893048193 23.212826111872715 2.7596445167479335 -1 1 1
1569 1 -1.2 24.844019106682723 22.861106065967686 1.9378611117838995 0 0 1
245 1 -1.2 27.248858412618873 24.33926677011664 2.7680721130061468 0 0 -1
299 1 -1.2 29.241938433635966 21.68865257137835 5.429100742590175 -1 -1 0
141 1 -1.2 3.061575403526961 24.304264172790564 3.9666777107162874 1 0 0
746 2 2.4 2.3342742591015755 24.958729195594294 5.140620145176545 1 0 0
1605 1 -1.2 3.1254440914171506 23.07683298531588 2.1827248332428937 0 0 1
559 1 -1.2 12.340508777170298 26.706193387513196 4.297978395520023 0 -1 1
2102 2 2.4 11.476425262690816 27.485077817572126 5.194860491638057 0 0 1
91 1 -1.2 14.833174675664305 26.785409811682054 3.4984215157854286 0 -1 0
661 2 2.4 15.216344435139394 27.539718886819962 5.020050533093667 0 0 0
1677 1 -1.2 11.684742242965243 28.995147289819283 5.615540117028293 0 0 0
977 1 -1.2 16.80377832996548 27.73493247390152 5.283178802077992 0 -1 1
997 2 2.4 18.109605216255463 27.540207581564214 4.501647650446335 0 -1 0
1145 1 -1.2 18.15330512375373 26.866537102825443 2.9646912266172114 1 0 0
1214 2 2.4 23.268837749408426 25.686107912383545 3.6917206718479982 0 0 1
1122 1 -1.2 24.746933831334204 25.992276679071477 4.6891989091353095 0 0 1
1114 1 -1.2 27.802373460142988 25.74403432048961 4.927550571263981 -1 0 1
2113 2 2.4 28.469600576696564 24.87462701160345 3.621745966335873 -1 0 1
1256 1 -1.2 29.11444733608941 24.12131710215799 6.217669200148665 0 0 0
898 1 -1.2 2.1290928673345593 26.512446124824397 5.078167920805776 0 0 1
1892 1 -1.2 2.5206822774717543 28.691563183219674 3.5678150982714834 0 -1 1
2018 2 2.4 2.6844096852723136 28.14291953468745 5.083133499556948 0 -1 1
1772 1 -1.2 6.871101139644029 29.146576219415007 6.019998431965458 1 -1 1
1647 2 2.4 6.2824586066567445 28.112592812213773 4.7592498909601035 1 -1 1
1361 1 -1.2 7.0105001781789085 28.842260778540965 3.294350771401289 1 -1 1
1851 2 2.4 12.247133701724568 1.6402120092028751 3.2317231858291473 0 0 1
1592 1 -1.2 13.707945104436767 0.3392655523694697 3.113218650895756 0 1 1
395 1 -1.2 17.9177332839232 0.955104519120213 2.9882267336196793 0 2 0
481 2 2.4 14.400161560812684 0.4080670002211435 4.4414904645298074 0 0 0
10 1 -1.2 15.746568475947518 29.97252263971805 4.510727323555684 0 -1 0
807 2 2.4 17.59438314159367 -0.04612603934066818 4.500092439599408 -1 1 0
77 1 -1.2 18.366895160832662 29.094961705638642 3.963017133287533 0 0 -1
16 2 2.4 22.725751308823554 29.291773278521124 4.6118097122087685 0 -1 0
2002 1 -1.2 22.79028693924511 28.779061693077537 6.219816528845801 0 0 0
2092 2 2.4 25.390168889534092 27.696337711639938 4.668619946526921 -1 0 1
1521 1 -1.2 26.02399103827068 28.340047484348176 3.2925492396617706 -1 0 0
84 1 -1.2 26.806251523206765 29.947809599463497 8.24867043975605 -1 -1 0
188 1 -1.2 1.414046368794046 0.042262831504368034 8.046975522623397 1 0 0
1753 2 2.4 2.058864367617562 0.3292226868771421 6.744094386453994 0 0 1
845 1 -1.2 3.664918485738996 0.737990845599202 6.767092778005415 1 1 0
1914 1 -1.2 1.8560781409099236 28.91171568683225 6.142317721431916 0 0 1
1072 2 2.4 4.78263403626409 1.4363236273554165 7.849373799022511 1 0 1
1806 1 -1.2 6.215178744129118 0.7896200849093483 8.18690161434668 0 1 1
9 1 -1.2 7.645634936592053 29.326203960668927 8.14049569135841 0 -1 0
956 1 -1.2 11.706557971057752 1.465019180659024 9.319713109509063 0 0 0
1899 2 2.4 10.155661927790655 0.9459496063300825 7.965640326056548 1 0 1
1632 1 -1.2 18.090291389867584 0.748498871365283 5.850262162083316 0 1 1
1430 2 2.4 18.390069401605036 0.7093295703035086 7.454249692318943 0 0 0
1100 1 -1.2 17.284866809671648 0.7096744232106784 8.598166677070223 0 0 1
190 1 -1.2 19.778295830783676 1.7652811288368335 7.068949309713176 0 1 0
382 1 -1.2 27.503880040163224 29.87319387633494 4.78883002350237 -1 0 0
795 2 2.4 25.777622677512117 0.7052963858629799 7.972995210599657 -1 1 0
511 1 -1.2 24.757583231129423 4.2625658268949245 7.894243441474388 0 0 0
552 1 -1.2 26.857939991083224 1.9329409163349256 8.534966742256548 0 0 0
1524 1 -1.2 1.0426243907143091 1.5353569843897146 5.790079281320745 0 0 1
1730 2 2.4 1.9376219645964898 5.466393343423999 6.276143388303221 0 0 1
1343 1 -1.2 1.4900863475034274 5.328445979505081 7.87064702059859 0 0 1
1318 1 -1.2 5.679673534914308 5.829397910218558 7.604033273306052 0 0 0
147 2 2.4 5.228175762607958 6.1970937454820945 6.0325427972896 0 1 0
1566 1 -1.2 5.942839430721427 4.978727777850157 5.171759278813405 1 1 1
8 1 -1.2 4.661158420654005 3.4761528333603464 8.521742754576596 0 0 0
2061 1 -1.2 11.23333941353901 0.2830459226889233 6.764505703172333 0 0 0
399 2 2.4 14.094472951806532 4.991161405417429 8.77739450972092 0 1 0
515 1 -1.2 13.391129592669781 6.73805277185802 6.1170538204152685 0 -1 -1
1773 1 -1.2 12.566361725992818 5.759322880272241 8.304834307761594 0 1 1
150 1 -1.2 15.26743224990828 5.056402349131246 7.295006153619448 0 0 0
414 1 -1.2 17.756612121262815 4.140660213695611 7.915632276998221 1 1 0
1624 2 2.4 16.868359950925054 5.348536806489388 7.4541848644926345 0 0 1
817 2 2.4 20.274449482007046 2.9305423698041593 6.0144630359517635 0 1 0
1561 2 2.4 28.374882946548247 4.113493670972877 4.983758995406941 0 0 0
1342 1 -1.2 29.51704642296669 5.668593187387964 8.912884285076446 0 0 0
261 1 -1.2 0.8571320884381416 7.505166097302228 10.340067473856145 1 2 0
1636 2 2.4 10.22786985376536 7.245100452838927 6.085065126159953 1 1 0
1774 1 -1.2 9.768971771976302 2.4508535435356307 7.500372767078496 1 -1 1
1061 1 -1.2 10.735564701780433 6.864726393672267 7.500398893538617 1 0 0
143 1 -1.2 17.0539610808939 6.899263244152229 8.066864658539394 0 2 0
355 1 -1.2 19.072904221874214 8.926716815491485 8.419793351818603 0 1 -1
1156 2 2.4 18.250460783961717 7.6300085743182615 8.92838062951237 -1 0 0
45 1 -1.2 20.05402669028112 6.436774966139357 8.024173985603408 1 0 0
434 2 2.4 21.24852577874425 5.8644823399700154 8.946992683352489 0 0 0
1649 1 -1.2 23.127879094312984 6.20507005030333 9.093692134292297 0 1 0
140 1 -1.2 28.37458827045716 5.641234374052436 4.596646647411034 0 0 0
1990 1 -1.2 2.858678760931573 11.640106854974293 6.860573117041939 0 0 1
1289 1 -1.2 7.778450691241546 9.969045335879754 7.138157302460816 1 0 0
1201 2 2.4 6.41931508417915 10.750219688802131 6.18965436395675 1 0 1
729 1 -1.2 10.056836980985684 8.871213154060614 6.081551340891833 0 1 1
865 2 2.4 10.700964117480522 9.833635746562472 7.054689100490114 0 -1 0
1172 1 -1.2 10.800697350050424 11.465109582267667 6.47580398046737 -1 1 0
887 1 -1.2 12.420951788151797 9.443245536809265 6.844193107971049 -1 -1 0
1456 2 2.4 13.703096615463492 9.537015769541046 7.702831599521934 0 0 1
1497 1 -1.2 13.70193683751783 11.018177713702762 8.582438748176234 1 0 1
1127 1 -1.2 15.230515416237463 9.769780154439193 6.782826216010526 0 0 0
598 1 -1.2 14.08062195340159 8.322640107525206 8.820907351810824 0 0 1
112 2 2.4 15.964609873847179 9.179345031298048 5.582555793787557 1 0 0
238 1 -1.2 22.17626616631752 10.282131629999672 8.396471297094077 -1 0 0
1924 2 2.4 22.913005677141758 11.700828962893471 8.299622995107079 0 0 0
1749 1 -1.2 21.921385329502495 12.648150354431518 9.569305946694874 -1 0 1
34 1 -1.2 24.512684558577035 11.349608602878076 8.508864428826021 0 0 0
1133 1 -1.2 26.066510167861736 9.052411909855508 6.989416589460642 0 1 0
1825 2 2.4 25.368870738330855 9.722755001717758 8.665063368103192 0 0 1
1775 1 -1.2 26.362567274818502 10.358416097124172 9.728562688580059 0 0 0
1446 1 -1.2 0.27873278080672653 10.864554990261889 7.248682631486404 0 -1 1
253 2 2.4 30.026555591450776 9.832432811278247 8.39246443295037 0 0 0
1755 2 2.4 1.5928448325181064 13.726770377251455 5.76212127654959 0 0 1
1039 1 -1.2 0.8986635533129218 12.266868331771123 5.581475614577678 0 0 0
654 1 -1.2 5.5313466032604275 11.818449746667978 6.9235335003048135 0 0 0
340 2 2.4 10.977510253260446 13.89693299420505 9.298327441357316 1 1 0
1027 1 -1.2 9.565177893855678 13.258193708183544 9.594557767018172 0 0 0
751 1 -1.2 12.06408518957196 12.894212072978124 8.71362203026436 0 0 0
1124 1 -1.2 14.465722981257283 13.802633426734609 8.168829512501906 0 1 0
73 2 2.4 13.80665424368709 12.442300783966939 9.098586192494519 0 0 0
2105 1 -1.2 16.631211260609373 13.25613244882995 5.156278290074521 -1 1 0
1575 2 2.4 18.477144034799185 13.319075834660293 8.06760572326117 0 0 1
180 1 -1.2 19.227817843738155 12.521812529889413 6.9690113592484115 0 0 0
2111 1 -1.2 19.876635574950505 13.509137124789602 8.982856769970807 -1 1 1
1183 1 -1.2 22.55804724068047 11.619208914294973 6.629353042449146 0 0 0
218 2 2.4 27.579580070252828 11.509138013287037 9.569144009883365 -1 0 0
1967 1 -1.2 26.118944734564614 9.987726618304025 4.131587135442007 -1 0 1
1794 1 -1.2 28.48741952834248 10.41043278597637 8.90039937103187 0 -1 1
1176 1 -1.2 29.61634235682134 15.82132603344437 5.5526262798999255 0 1 0
1997 1 -1.2 1.2675558975246233 14.377178275187855 7.084216237686913 1 0 1
849 1 -1.2 30.129883407866934 15.767471017904816 8.42036336473537 0 1 0
577 2 2.4 30.114389693487613 15.020286721274596 7.051845029942468 -1 0 0
1726 1 -1.2 8.480223465846336 13.201353139437087 7.079629484302746 1 1 1
1427 1 -1.2 6.202695790629961 15.275674045301713 7.468621675147257 0 0 0
1391 1 -1.2 6.734006970239832 16.12040875416289 5.137224660767376 0 0 1
703 1 -1.2 11.05123085914268 15.939952178308529 5.016545706260749 1 0 0
565 2 2.4 8.5835482233615 12.341509501036121 8.538181111981022 1 0 0
500 1 -1.2 10.517040141208499 15.214973254106804 9.631816755807039 0 0 0
2155 1 -1.2 13.277864235234361 15.956939295345663 6.931057534094826 1 1 0
952 2 2.4 13.941194457409031 14.611497406671173 7.037047288983473 0 0 0
1388 1 -1.2 12.630645759954769 18.202263705042107 6.590994614261596 0 0 0
673 2 2.4 14.154441900095948 18.022526899403413 5.90932354221774 0 0 0
1339 1 -1.2 15.30803780558501 15.32382364540916 5.982968221136246 0 0 0
915 2 2.4 16.529476710499353 14.428884361107352 6.122026572481086 0 0 0
540 1 -1.2 17.332664068814264 14.703443040266993 7.569456403791295 0 0 0
1853 1 -1.2 19.96333833078861 15.977994896795469 6.026039163542599 0 -1 1
908 1 -1.2 23.41610997923895 13.7734682969123 8.562969956671665 0 0 1
331 1 -1.2 21.962199421051064 15.607002104814821 8.138842239684541 0 1 0
267 2 2.4 23.371498316278306 15.258663244099301 7.578581209135115 0 0 0
413 1 -1.2 25.856484208367423 18.049761993628486 7.083749720148137 0 1 0
228 1 -1.2 26.294398634114184 12.897439181139653 6.728190700774143 -1 0 0
450 1 -1.2 28.939129502280338 13.94114720721968 7.286519369788657 -1 -1 0
388 2 2.4 1.9140692163136033 18.276474821917535 6.695016996077273 0 1 0
2070 1 -1.2 1.5696827258796446 17.84653266035735 8.242609578905023 1 0 1
1118 2 2.4 7.304956279839334 15.86752032412669 3.4614541403569237 1 0 0
1987 1 -1.2 8.307583497107188 15.440488721841854 8.479645009586848 0 1 0
2104 2 2.4 7.091231848913243 16.507631474352333 6.662043318838022 0 0 1
1812 1 -1.2 10.654227938798755 17.96735687711873 3.4979943248492305 0 -1 1
1094 2 2.4 10.521767769878771 19.478208258365978 3.946875537355591 -1 0 0
1182 1 -1.2 10.701919863153291 16.862384587453267 7.844355800519496 0 0 0
1415 1 -1.2 15.15054454760069 17.899547833615706 7.241638351474182 0 0 0
1607 1 -1.2 18.16899921323834 18.092283920150678 5.955806895064733 0 0 1
208 2 2.4 18.64982012350421 16.37215227472153 4.9050019253777855 0 0 0
88 2 2.4 20.88370885026925 16.899845012518654 7.2890713320147835 0 0 0
539 1 -1.2 21.244221830317755 18.34756587219558 6.415254574721155 0 0 0
1257 1 -1.2 1.949332151912308 19.91775975519393 7.0435948732316165 0 0 0
1035 2 2.4 1.5099993056388434 20.77658637382195 8.302563475964805 0 0 0
2086 1 -1.2 3.5893484881762645 21.96429488704984 10.125949270337061 1 0 0
876 1 -1.2 6.46133006373599 19.49353929436701 10.683216955255777 0 -1 0
123 2 2.4 7.903537168014469 18.455924423833295 10.880954153287794 0 0 0
874 1 -1.2 9.255134069601956 20.360417775542736 4.923514186590947 0 -1 1
22 1 -1.2 13.63366387890878 21.287809576062376 6.663020077452767 0 0 0
1852 2 2.4 14.602615042434739 22.276142018899574 7.547347939071199 0 0 1
1980 1 -1.2 16.14250430043921 21.84773574431789 7.515684647296046 0 0 1
1292 1 -1.2 18.678383934596013 20.18848674675939 6.688583607259024 0 0 0
1589 1 -1.2 17.153775108434882 19.198213581004556 8.28063466313819 -1 0 0
1420 2 2.4 17.15222989898445 20.672257137659077 7.757810596059045 0 0 1
1193 1 -1.2 21.59980968321354 20.93030727587505 6.338729040628499 0 0 0
1203 2 2.4 21.307109689211508 22.522701964795854 6.7942107481789344 0 0 0
1166 2 2.4 27.667775146418073 21.448684824906056 5.284915117485986 -1 0 0
585 1 -1.2 2.4915377138355623 22.02505038268112 7.741200706958631 0 -1 0
371 1 -1.2 0.3482742149135614 21.2603108655222 9.080578838885945 0 0 0
72 1 -1.2 5.277777365682861 22.37080811735452 7.6897489262708705 1 0 0
1887 2 2.4 3.764498116390255 22.920950737134017 8.667098169552022 0 0 1
724 2 2.4 6.957802859246694 22.814532480502333 7.4035307686745035 0 0 1
405 1 -1.2 7.318998565722551 22.075979408227738 8.780844388685388 1 0 0
219 2 2.4 13.864736426231271 24.816695359706234 5.806650448534018 -1 0 0
886 1 -1.2 14.642092363084068 23.705776991201933 6.814747604095509 0 -1 1
2131 1 -1.2 18.126534331164976 21.146837171484485 9.045366044950288 0 1 0
63 2 2.4 20.93667992837514 24.49234201641353 5.020699037294866 0 -1 0
779 1 -1.2 21.024437074212393 22.842397913301877 5.036476381949628 0 0 0
1860 1 -1.2 0.30700428857945433 22.48642151235965 7.200523541142126 1 0 1
1158 1 -1.2 26.565860234048483 20.628323221574387 6.498509974499516 -1 0 0
1646 2 2.4 30.109869563458858 22.937615195282707 5.848016892131188 0 -1 1
1224 1 -1.2 0.885519295732197 24.02288555911221 5.029011559912542 1 0 0
1366 1 -1.2 1.0871132908100907 25.412994841608654 8.008415529773858 1 -1 0
1895 1 -1.2 3.584182921610061 24.923700178075645 9.323350922236827 0 1 1
381 1 -1.2 3.4883683016215756 24.675170595867442 6.444128313359989 1 0 0
1360 2 2.4 2.8505347016822817 25.394101455343932 7.862962507258309 1 -1 1
677 1 -1.2 6.611419289782738 26.60149750593684 5.443073899208315 0 0 0
1037 1 -1.2 6.8528608714973105 24.33716815987851 7.298553332608101 0 0 1
1417 2 2.4 7.10472660738463 25.97116589298506 7.26717165775023 1 -1 0
449 1 -1.2 8.482927510738039 26.52318699485617 7.72089751126976 1 -1 0
1240 2 2.4 10.052418165328024 25.543612913171234 7.073259616991728 0 0 0
2076 1 -1.2 9.531405668464359 25.095660526854452 5.643006777534423 0 0 0
310 1 -1.2 10.532297058768044 24.07945000266226 7.986788129459136 0 0 0
498 1 -1.2 11.461698259478231 26.45421732518087 6.6602115503648465 1 0 0
1893 1 -1.2 14.911832583245934 24.505949345869844 9.368888887343957 0 -1 1
343 1 -1.2 19.21063485860307 27.032279204417176 5.339529116359145 0 -1 0
1703 1 -1.2 20.578587233729944 25.524889116610126 6.183766963507077 0 0 0
157 2 2.4 19.90745006241172 26.957436624431335 6.73624635012161 0 -1 0
1222 1 -1.2 21.17705891786292 27.039323441060347 7.86655682387878 1 -1 0
153 1 -1.2 24.179156657507 26.458816367768435 8.020300332037438 -1 0 0
379 1 -1.2 27.056969397021316 25.69264356651372 7.50957469838546 -1 0 0
904 2 2.4 28.29850287499046 25.56179494195483 6.6190469653934 0 0 0
841 2 2.4 25.662512491218436 25.610691916270557 8.392476088972735 0 0 0
2047 1 -1.2 29.697085298356942 26.559155158329805 6.78637484178491 0 0 1
2033 1 -1.2 4.636109414601353 27.918669249649934 5.2671104456207845 0 0 1
2084 1 -1.2 9.224546547279209 0.6759037056791881 9.35593575368867 0 1 1
660 1 -1.2 13.983755647450801 30.049746660244313 5.926928362755977 -1 0 0
290 2 2.4 12.526772509585681 29.947193139725634 6.851974233038476 0 0 0
271 1 -1.2 12.753615496263366 29.126611814850815 8.180548757378887 1 0 0
549 1 -1.2 18.56286327772196 29.396823732415122 7.602481655603469 0 0 0
663 2 2.4 21.947510750441033 28.592115242029006 7.775129023996122 0 -1 0
227 1 -1.2 26.582372956350998 28.31032025135099 6.0577396329630995 0 -1 0
1796 1 -1.2 24.957710100498446 0.8423130303260968 6.751983527939253 0 0 1
423 2 2.4 27.58161320347971 29.111426040374667 6.859223790531911 0 0 0
947 1 -1.2 29.421963856425993 28.881473320963124 7.707593403209239 -1 -1 1
1526 2 2.4 2.327650477974191 0.6520468417878521 9.409028996399536 0 0 1
485 1 -1.2 1.4956527051085964 1.8708182095397128 10.292992496342322 1 0 0
295 1 -1.2 2.5880936489279835 29.665342452548437 10.118947930342427 0 -1 0
1690 1 -1.2 3.7805627232527934 1.4179389056822274 9.281450880434015 1 1 0
47 1 -1.2 6.203140931134667 0.19960495524581526 10.107484813945906 1 0 0
233 1 -1.2 8.215391776834903 29.40655118438144 10.837519109005818 0 0 0
638 2 2.4 6.857297845167071 29.223552012065493 9.65696943056785 1 -1 0
2089 2 2.4 9.73033852983248 29.60314938319094 11.262153962473105 0 0 1
524 1 -1.2 9.908228360450513 0.7688763988849067 11.426043161676706 0 0 0
486 1 -1.2 13.814453826826846 -0.0775066033376812 9.793128508229977 0 0 0
801 1 -1.2 14.156017292877685 1.998018825760681 11.720708396144687 0 1 0
1480 2 2.4 13.926004161348724 2.074505418796546 9.876372759398308 1 0 1
1787 1 -1.2 15.46304239261653 2.082288420194662 9.378676353178458 -1 0 1
1455 2 2.4 16.465388129464756 1.0157546586312758 10.087069255391498 0 1 1
2110 1 -1.2 16.230772799251117 29.9801895576775 10.769718795922346 0 1 1
201 1 -1.2 17.562986143536502 1.8266617445485118 10.965420452210239 0 1 -1
277 2 2.4 22.324030375287144 2.326233149976876 10.552702783893423 0 1 0
1823 1 -1.2 21.066581313980063 0.8998362748654605 10.99879008435699 0 0 0
1331 1 -1.2 23.123136230799044 2.6902196758896424 9.08392608041747 -1 0 0
1262 2 2.4 23.246591348333318 3.7201371834094834 7.7811527354808625 -1 1 0
834 1 -1.2 26.921335779410082 2.3233789410630488 11.484778212597732 0 1 0
1316 1 -1.2 29.329546612223076 2.7131767775453843 10.657745591645615 -1 0 0
639 2 2.4 27.74328722867575 2.712301381417092 10.107004630388937 0 0 0
909 1 -1.2 0.4653580065227016 5.072828787440493 10.559570131358363 0 0 0
3 2 2.4 30.094092677329222 5.204530331391027 12.065165087978848 -1 0 0
1263 2 2.4 5.924633122098981 4.433806103915369 8.444090377383569 1 0 0
912 1 -1.2 6.347273681125399 5.118737367181093 9.967319865642185 1 0 0
1364 1 -1.2 5.967355904695573 2.897735748405471 11.855970595344647 1 0 1
985 2 2.4 10.348303870475199 1.826925938153232 10.285449936263255 1 0 1
2145 1 -1.2 8.869480825236659 2.6347573032735094 10.004415836342305 0 1 1
437 1 -1.2 11.033966561549553 2.9564031618454623 11.776186244462282 0 0 0
1952 1 -1.2 13.082163525474801 3.327649050838207 9.090012903352138 0 1 1
1462 1 -1.2 21.30373610037852 3.4593083459718055 10.904303768314806 0 1 0
1363 1 -1.2 21.901059377432173 3.3328016426107876 5.906616913388469 0 0 0
327 2 2.4 0.21479426073816327 1.1611755003317012 10.956189040540337 1 1 0
1555 1 -1.2 27.644373160180354 4.38623788866949 9.53369382410043 0 0 0
699 2 2.4 27.349740253788344 5.577409041778377 10.421371302895206 -1 1 0
533 1 -1.2 28.27732542905632 5.96675122546418 11.816107010218234 0 0 0
1732 2 2.4 1.4494896408838303 6.127597829468666 9.41361373139961 0 -1 1
785 1 -1.2 3.2791853653754504 6.74736456050189 9.568944741499603 1 0 0
1790 2 2.4 4.0782579806912445 8.074302173629876 10.559053608186243 1 0 0
1714 1 -1.2 5.350973707551496 8.629621741877266 9.726841224762321 1 1 1
368 1 -1.2 7.5698379201784105 3.9956672982907264 7.8685391408904595 -1 1 0
1279 1 -1.2 7.041658332701194 7.6023058433879 12.305358392555735 1 1 0
135 2 2.4 7.722607548908722 6.4482306289281945 12.956454404777352 1 0 0
229 2 2.4 9.172378878376156 3.5729292792678677 8.560698521551862 0 1 0
1807 1 -1.2 9.973155919695104 4.799475118651066 8.608653176233577 0 0 1
2138 2 2.4 10.810433237169999 6.140640510012861 9.015337890525164 0 1 1
487 1 -1.2 10.55432674378362 6.211513927888532 10.762292844205115 0 0 0
1241 1 -1.2 15.908004729758437 7.7728310279665855 11.30674247990988 0 1 1
1919 1 -1.2 18.42959000875147 7.238722790842269 10.565937739504147 0 0 1
376 2 2.4 19.853811325334053 6.701926561697242 11.185937088923465 0 1 0
1163 1 -1.2 21.173004936631493 5.797196833824805 10.535202733041231 -1 0 0
1514 2 2.4 23.72589228521667 7.370583147188402 9.993618014683042 -1 1 0
260 1 -1.2 21.444595483038032 4.46145263060946 7.8200394887363 0 0 -1
1185 1 -1.2 24.85530182584179 8.375289509577966 9.236860914164804 0 0 0
1964 1 -1.2 27.129377932217395 6.815679080190205 9.705236213757223 -1 1 1
1912 2 2.4 29.06576560593557 7.1839139403345325 8.444648711129512 0 0 1
2158 1 -1.2 2.9785535548609325 9.37076401502996 10.624755097815855 0 1 0
852 1 -1.2 0.2933532811129458 10.174651128693615 10.089278539153277 1 0 0
136 2 2.4 6.513000972733623 7.388585298578065 10.746930480318412 1 -1 -1
578 2 2.4 8.631382544821344 9.431798464652164 8.887187579931442 0 0 0
1301 1 -1.2 8.036727012785509 8.10119089494321 9.557916753883111 0 -1 1
1638 1 -1.2 10.156766985671684 9.475533616977701 8.626796160108762 0 0 1
341 1 -1.2 10.512388999316775 8.213539072064636 12.92060256293951 0 1 0
1167 2 2.4 10.804515180497557 9.836942633047755 12.604883920935475 0 1 0
675 2 2.4 16.31298073322248 9.251020087652115 11.346082139666086 0 0 0
488 1 -1.2 15.131427926463486 10.41215315284952 11.28861270140059 1 0 1
884 1 -1.2 16.953260172847376 9.70128089040872 9.89959003671956 0 0 0
159 2 2.4 17.40919731454321 11.20682641226521 9.889608387878534 0 0 0
408 1 -1.2 19.253667484141406 11.028323060464828 9.679812862300405 0 1 0
564 1 -1.2 22.787567878550362 8.637709075888072 10.485010404467447 0 0 0
1107 2 2.4 1.3922060180120603 8.935931946141764 11.031858463251506 0 0 0
1437 1 -1.2 -0.05296826519798559 8.068312115975784 7.660597342436439 1 0 0
2121 1 -1.2 8.158583326746017 11.068569924938185 9.321695171908553 0 1 0
1261 2 2.4 7.24235318894552 14.580535878752315 12.239871690504055 0 1 0
1847 1 -1.2 11.971461947698158 10.168281414028527 11.619879352812518 0 0 0
1220 1 -1.2 13.94928840599461 13.046562220236941 10.684317738130725 1 0 0
649 2 2.4 15.038028477563962 12.031742315958972 11.422587614862124 0 0 0
138 1 -1.2 17.520595094317304 12.368742093458469 8.85023412333688 0 0 0
466 1 -1.2 16.849238366310647 12.071113268826934 11.075346092242839 0 0 0
1516 2 2.4 20.60821942940964 11.969964145486935 10.249373918004634 0 0 0
1799 1 -1.2 20.445855762522623 12.997110069767809 11.772917258608862 0 0 0
1368 1 -1.2 23.890048039403062 12.56875884973582 11.263585399388747 0 0 1
1128 1 -1.2 26.572353492494397 13.104396347704299 9.43043945791079 0 0 0
288 1 -1.2 28.003674110238812 11.505374190794491 11.446145345363332 0 0 0
1429 2 2.4 7.436651744580373 14.365876592208563 7.988901644148686 1 0 0
489 1 -1.2 5.474239391757054 14.027243188763958 12.759704084109512 1 0 0
816 1 -1.2 7.219338571353562 15.259603776443043 10.773232768136594 0 0 0
1721 1 -1.2 15.579001486982293 15.35497232289702 10.982281007196852 1 1 0
231 2 2.4 16.85258257966579 16.07899110959611 10.959821179822494 0 0 -1
282 1 -1.2 18.44980517654534 15.306366050081268 11.583312820618513 1 0 0
436 2 2.4 19.712632800302917 14.651522552137871 12.467367097552502 -1 -1 0
226 1 -1.2 20.958526877868298 15.749934249674823 12.031502250247483 0 0 0
1346 2 2.4 25.830550498592217 16.710028910065677 8.375451297508283 0 0 0
1150 1 -1.2 26.80829280891668 15.369867519548155 7.802354483441124 0 0 0
1144 2 2.4 27.07509024854043 13.843554182847893 7.923988779091574 0 0 0
2036 1 -1.2 0.7247904170460615 16.116307148697818 10.51437752349704 0 0 1
254 2 2.4 0.28675868909651736 17.0509522805567 9.108996496521643 1 0 0
1272 1 -1.2 7.601262275790597 17.895055333444468 6.940463997373084 1 1 1
1608 1 -1.2 7.00104999886185 13.418832209859277 9.041240428098378 0 0 0
1329 1 -1.2 8.94077060746745 17.76907236088277 9.686007570375335 1 0 1
315 2 2.4 9.30895280557971 16.705637110429496 8.683830363712758 0 0 0
1333 2 2.4 12.321782877278963 16.910616140356318 7.658150920329039 0 0 1
1529 1 -1.2 8.819502976204896 19.35167793770814 11.657042651388638 0 0 1
2046 1 -1.2 12.420475835869137 17.36619194546109 9.510028269332683 0 0 1
859 1 -1.2 12.581433441838566 19.597839213408314 10.603256943855278 0 0 0
734 2 2.4 16.1807402776197 18.11846779069546 8.999231609054855 0 0 0
69 1 -1.2 14.884189363212814 18.612555202705103 9.629783840568976 0 0 0
1370 2 2.4 13.417277206038547 18.216573155762276 10.368297716025403 -1 0 0
222 1 -1.2 17.0949621760275 16.82368278797417 9.447640391415128 0 0 0
517 2 2.4 18.495746483545798 20.5797185283194 10.785591655796289 -1 -1 0
1095 2 2.4 20.245961481528994 18.11585892915742 10.218211762594706 -1 0 0
1271 1 -1.2 18.839922125709112 18.919059617286294 10.683310297457579 0 1 0
116 1 -1.2 20.3039330467391 16.968609597100823 8.781861823028809 0 -1 0
210 1 -1.2 26.988072906570224 17.219097470603163 9.49238271839418 0 0 0
954 1 -1.2 24.33150400154816 16.052367794985678 8.870186847550967 0 0 0
895 1 -1.2 29.404243267756932 18.23958348405815 9.192557393210368 -1 -1 1
1345 2 2.4 27.81279282799924 18.395204180301043 9.75303017595723 0 -1 0
1658 2 2.4 7.784948902456003 22.896025759340695 10.309091700482345 0 0 1
308 1 -1.2 8.401606803766578 21.99662733953927 11.324982666851238 -1 0 0
608 1 -1.2 13.84548003629495 21.608771445227063 8.981358441079704 -1 0 1
690 1 -1.2 13.110538217473605 21.362531159177152 11.708511970186706 0 0 0
1291 1 -1.2 19.917234978938858 21.26674463316531 10.437720045456311 1 0 0
693 1 -1.2 20.4424766255085 23.162033243758746 8.354944721501395 0 0 0
1210 1 -1.2 22.808064263463084 23.20974900402943 7.345084988666842 1 0 0
187 1 -1.2 27.152205960223952 19.81836701287123 9.102970103842003 0 0 0
1097 1 -1.2 29.963449372012196 23.367068186166428 9.863517639459522 -1 0 0
1678 1 -1.2 6.195073024554281 23.216750812588593 10.495009356688975 0 0 0
1756 2 2.4 5.609231848444679 23.300672498583896 12.008980139804589 0 0 1
1351 1 -1.2 7.167109982571861 23.77244588346112 12.28361425413903 0 -1 0
1675 1 -1.2 11.16000326883058 21.698798050316807 9.481008624025272 0 0 1
386 2 2.4 9.863894346692403 23.91585986107195 9.363842966971225 -1 1 0
1223 1 -1.2 8.45698369411953 24.497778797050486 10.034987603831881 1 0 0
20 1 -1.2 11.089044845531852 24.03729517022115 10.504808617165368 -1 0 0
111 2 2.4 12.659947819828906 21.084276317761944 10.090013571458808 0 0 0
478 1 -1.2 17.19793119040474 24.73628885449424 13.26315378369547 0 -1 0
144 1 -1.2 19.432341383441948 24.107912207018217 10.393696484531638 0 -1 0
1383 2 2.4 18.387545358715144 24.337273986313075 11.677453550007199 0 -1 0
76 2 2.4 19.482942593585342 22.376865220887986 9.335760336708901 -1 -1 -1
1596 1 -1.2 25.43099998957626 24.022757001409342 8.318186463122718 -1 0 0
1312 2 2.4 24.042096014213378 22.80089701111293 8.45512686224388 0 -1 0
2083 1 -1.2 23.268447171229678 23.26116803995198 9.731675051854863 0 0 1
725 1 -1.2 24.945758321829874 20.937293477651313 8.750433702504356 0 0 0
903 2 2.4 26.52555443411499 20.817398452358 7.98078291196935 0 -1 0
2147 1 -1.2 28.2580355691975 21.69060699685623 8.363893325008897 0 0 1
1444 2 2.4 29.67842944824736 22.32309446977388 8.53955186881203 0 0 1
700 2 2.4 0.14488457813889938 24.72932444348477 9.303065885787973 1 0 0
1751 1 -1.2 0.21847479035504166 26.02758512005321 10.346701062534207 0 -1 0
1233 1 -1.2 3.0463527365685668 26.95651270904035 8.597117417060094 0 0 0
1221 1 -1.2 5.776922698994246 26.59407390802109 8.031383124354099 1 -1 0
978 1 -1.2 9.426480686763545 23.731775275793787 13.668839097684627 0 -1 0
169 2 2.4 12.314517631365707 24.80484525347706 11.563318597347982 0 0 0
469 2 2.4 14.004561260999726 27.27538626219344 11.56724622435493 0 -1 0
930 1 -1.2 15.267690127550484 26.60957473411626 10.878370559940404 1 -1 0
1932 1 -1.2 15.740949081046395 28.064572228966217 7.676727596986679 1 -1 1
363 2 2.4 15.51053189185811 24.818117850828717 10.799357750932131 0 0 0
2072 1 -1.2 17.065781542450505 23.992304828118037 10.770083060465684 0 0 1
2048 1 -1.2 18.486978964279224 27.029651447290103 7.425585240802843 0 0 1
880 2 2.4 24.393800304546815 27.814901445810218 10.040612588609575 0 -1 0
186 1 -1.2 25.880601835450403 28.129479183121678 9.584574537993856 0 -1 0
234 1 -1.2 23.49944942062432 27.30758748918487 11.164034228374955 -1 0 0
1159 1 -1.2 26.46734551565077 25.98117260221375 9.918137360885204 -1 -1 0
784 2 2.4 27.22475271000391 27.288563135693668 10.361733563729867 0 0 0
1003 1 -1.2 0.8787893824512032 27.853932792697247 9.084332815124462 2 -1 0
398 2 2.4 1.157565475318462 28.794346909002698 10.388502967809801 0 1 0
1084 2 2.4 4.73085511288944 27.02549687037915 9.265150487278932 0 -1 1
477 1 -1.2 7.946077335988947 26.130395530556417 13.124935919481594 1 -1 0
476 1 -1.2 5.552344462560322 28.235197967892002 9.796791920543955 1 -1 0
1162 1 -1.2 10.93996463044627 29.200657070111195 10.42811602221963 1 0 0
4 2 2.4 12.48833101414692 29.409480978744288 9.869896833626228 0 -1 0
1567 1 -1.2 13.701041005866005 28.35926859502434 10.568145023774516 0 0 1
1792 2 2.4 17.336276335112842 28.405514545618917 8.042392675999746 0 -1 1
1940 1 -1.2 17.117349741340988 27.886976486653207 9.711483730161955 0 0 1
1276 2 2.4 17.55340149870753 29.041271678217246 10.873165744693974 1 0 0
2119 1 -1.2 23.188069101089432 28.713555588963164 8.90250191516481 0 0 1
1820 1 -1.2 28.58764105565471 27.249321175942537 9.55605054408513 -1 -1 1
769 2 2.4 30.05299743163177 27.04666743637851 8.376198798947469 0 0 0
41 1 -1.2 0.054840403540236685 30.13792114723008 10.267786500868104 1 -1 0
264 1 -1.2 4.543466061357644 29.80698748148831 15.710095120336284 0 0 -1
121 2 2.4 5.4405179804423875 1.6327544747859466 12.730990722611393 1 0 0
644 1 -1.2 6.258590529172633 1.133875006775745 14.439722718515867 1 0 0
1884 1 -1.2 4.720938530710403 0.34445295401563486 12.498211263605885 0 0 0
1056 1 -1.2 9.808412953718232 30.24043353379691 14.34169672027903 0 -1 0
584 1 -1.2 11.464486851723207 1.8943987034785803 14.13936911387655 0 0 0
1347 2 2.4 14.554739265540425 0.7983017663406156 12.985442043088582 0 0 0
777 1 -1.2 18.14949750208902 2.767892776959345 14.796701377768471 0 1 0
1863 2 2.4 19.932551539289857 30.374760301638364 11.859409673259046 0 -1 1
1582 1 -1.2 19.758327044051203 0.7320934552417566 13.452766168747697 0 1 0
2044 2 2.4 19.76048005527379 2.099533279359049 14.267905381651346 0 1 1
763 1 -1.2 23.869898767293442 1.5847142319102796 11.067151137686418 0 0 0
1780 2 2.4 24.920375448406556 2.4034581384603846 12.151023045241523 0 0 0
2130 1 -1.2 24.451942163947376 1.7159229146549158 13.491193619716013 0 1 1
911 1 -1.2 29.804198337151362 0.2782235043613929 15.945874295044366 -1 0 0
52 2 2.4 6.14762673507025 4.491596910120165 11.606051557363815 1 0 0
1757 1 -1.2 4.746712861006892 4.887623879188169 11.94488610020272 0 0 0
691 1 -1.2 7.4693469973936875 5.050940429964377 12.3306218110695 0 0 0
892 2 2.4 12.93113758177507 2.4043672104990965 14.63928889252671 0 1 0
451 1 -1.2 12.996820083940728 3.6248612610069393 13.536870605551199 0 -1 0
139 1 -1.2 10.599261306724394 4.359003639376017 13.832999027200726 1 -1 0
532 2 2.4 11.602050494112856 4.049035437835649 12.788266344910298 0 0 0
1532 1 -1.2 14.007762922476548 1.225988772458371 14.229189888298588 0 2 0
90 1 -1.2 16.182811217922982 1.6527375265082187 13.068342632399835 0 0 0
268 2 2.4 17.049444182827862 2.6917104839415598 12.243605340235904 0 1 0
1640 1 -1.2 17.499629074474807 4.209075213863397 12.4325087438819 0 1 1
2114 2 2.4 20.831643718559004 4.105647812437357 12.362067849241393 0 1 0
2144 1 -1.2 20.659336065536067 3.1792717879209373 13.560878740989727 0 1 0
551 1 -1.2 24.434442289162426 3.9492031458762793 12.29277215810976 -1 0 0
319 1 -1.2 22.101084537664303 5.241705788319987 13.31616717123897 0 1 0
1305 1 -1.2 0.5295209460570522 0.8249657656315941 12.720898147955877 -1 0 0
869 1 -1.2 0.2339443109863655 3.6409393696420036 12.835159999092872 0 0 0
579 2 2.4 0.11210776531237744 2.1381467490970776 13.46488254564396 0 0 0
1004 1 -1.2 1.0315536828642111 2.779562333476388 14.592006549963008 1 0 0
2022 1 -1.2 2.5997770465309036 6.947097180491814 13.38433987636402 0 0 1
1941 1 -1.2 4.902768114103514 7.7855996700224095 12.134330365156982 1 0 1
1717 2 2.4 4.045366421682388 6.42238395774465 12.915410734248422 1 1 0
1554 1 -1.2 4.819910852191968 6.163430336762664 14.391870280579802 1 0 0
596 1 -1.2 12.039971151899273 5.498816969991544 12.230073908512272 0 0 0
278 2 2.4 11.67448145268109 7.078649736651885 11.843100468669581 1 0 0
1727 1 -1.2 14.709161279411834 5.816836970889492 12.945877342031554 0 1 0
709 2 2.4 14.551797120857866 6.662696524455273 11.55968841603364 1 0 0
1164 1 -1.2 14.73728974959925 5.604879487198574 10.147821292635857 -1 0 -1
1423 1 -1.2 19.56006464893197 5.402490806949658 12.088251134981164 0 0 0
1861 2 2.4 23.648116863121448 5.344118059546583 12.663097769988797 0 0 0
1076 1 -1.2 22.63303955693882 9.052135011757947 13.157434367038839 0 0 0
1844 1 -1.2 23.949584065824357 6.4393234882791015 11.541899609002531 0 0 0
1314 1 -1.2 24.198790158857665 5.292576538399542 14.363851451244406 -1 0 0
1508 1 -1.2 0.3132014223123967 6.102465393445282 13.32364158587084 0 0 1
942 1 -1.2 0.4820261918503964 9.705806101098583 12.743353181587182 0 0 1
1572 1 -1.2 7.073234178714844 7.204622618059102 14.550913742354135 0 0 1
1106 2 2.4 7.562023093068223 7.965343014469817 16.204718041486785 0 0 -1
428 1 -1.2 6.950877338060406 10.90183924071494 13.786975235069228 1 1 0
1277 1 -1.2 9.53596453521262 10.776994524152153 12.54632982813669 1 1 0
996 1 -1.2 13.08834155800574 7.4571645903493256 12.036678085521684 0 0 0
571 1 -1.2 13.62312858118443 11.667395419115493 15.146768191766188 1 0 0
614 2 2.4 12.855436917808431 10.503166695374134 14.529942815516302 0 0 0
1209 1 -1.2 13.915876786830072 9.860390529769196 13.281952986152328 0 1 0
33 1 -1.2 16.710171692608952 9.897068704452696 12.79812328298663 0 0 0
2079 2 2.4 15.643092451464213 10.232375746046413 14.06908210566243 0 0 0
815 1 -1.2 20.5596370873758 8.229894368220414 11.956062784006226 -1 0 0
986 2 2.4 21.8103717347878 9.299479458822027 11.843875234639386 0 0 0
2098 1 -1.2 21.594004426036964 10.953952252136949 11.550714097764985 -1 1 0
933 1 -1.2 30.019264231764534 9.639773723301523 14.883520442672214 0 0 0
1489 2 2.4 29.97365407555531 10.800770264108527 13.654147159224957 0 0 0
499 1 -1.2 28.131982803580538 12.802420018678223 14.650512202981295 -1 -1 0
761 1 -1.2 8.48549942759258 13.22877079607404 12.574602096248102 0 0 0
1538 2 2.4 8.380342644548199 11.742275572124683 13.082848234105384 0 0 0
1052 1 -1.2 8.817728697392448 11.93859753242789 14.576505703855334 1 0 0
1995 2 2.4 14.653693705246546 12.895082860487737 14.511281698711674 0 0 0
1051 1 -1.2 14.827630792422275 12.70404754878807 13.030695789845797 0 0 0
51 2 2.4 22.44922456915758 12.529708384411547 12.233542599288173 0 0 0
1188 1 -1.2 21.527803126690255 11.921927876364812 13.84765782098865 0 0 0
321 1 -1.2 25.84329572290606 11.025016159896243 12.78527719438371 0 0 0
1564 2 2.4 24.969994162730906 12.38930237594859 12.357302009928054 0 0 0
1523 1 -1.2 28.05006291789923 10.691344349431901 13.70752568490046 0 0 0
556 2 2.4 27.27167930118536 11.802038084306378 12.76666662585002 0 0 0
1258 1 -1.2 29.800824822183852 15.202423955007884 14.456766480431156 0 0 0
1293 1 -1.2 7.3918320843553795 15.073977023174697 13.81265153646022 1 0 0
1798 1 -1.2 14.691808194054472 14.320693812977881 15.110023416281642 1 0 1
1481 1 -1.2 18.099677947208434 13.703940730814361 16.04424206190593 0 0 1
458 2 2.4 18.95591011474125 15.117670375498165 15.521934189789533 0 -1 0
945 1 -1.2 18.9987615658521 14.737051951730312 13.844413541694076 -1 -1 0
1470 1 -1.2 20.28959615959568 14.559078124931693 16.27446914179112 0 0 1
68 1 -1.2 26.224329332884647 13.461905361614596 12.346238294997734 0 0 0
1669 2 2.4 22.439710048431053 16.088468922022646 13.359713695012992 0 0 0
1198 1 -1.2 30.11872969975755 13.053617886878458 16.16678641540919 0 0 0
196 2 2.4 29.52217037787435 13.59500533766062 14.742407290070716 0 0 -1
999 2 2.4 0.7472601994632597 17.116359518041676 11.81262857781145 1 0 0
1483 1 -1.2 0.6462333245930779 19.388381245428455 12.058153362170925 0 0 0
1131 2 2.4 29.505672774940777 16.726297319232806 14.091725403691786 0 0 0
548 1 -1.2 29.630269939968677 16.61410077557684 12.398286143085713 0 0 0
1404 1 -1.2 1.9784247364720096 16.64392543718169 12.938359813391797 0 0 0
272 1 -1.2 2.836103604209201 18.5285289491154 13.94302510983608 0 0 -1
758 2 2.4 3.5135918822530927 17.069005172263616 13.213285740725178 1 0 0
1101 1 -1.2 4.185502383132754 18.056922238328223 12.062337997808806 0 0 0
927 2 2.4 5.559404895434125 18.99303807952898 11.89689769625653 1 0 0
966 1 -1.2 6.752502691847952 17.74287318298787 11.877293390977027 1 0 0
1355 1 -1.2 14.349658442377654 17.008591493330062 14.411897946553557 0 0 0
1080 1 -1.2 13.525988046625672 17.296662632321894 12.022761874879883 1 -1 0
1477 2 2.4 15.231205611092532 17.29002507787711 12.953314446656432 0 0 0
1426 1 -1.2 15.684284689008173 18.972744471368113 13.242144350542434 0 0 0
2059 1 -1.2 17.662311263591942 21.56796350499801 11.761674281466995 0 0 0
1413 1 -1.2 16.814708805955306 16.953092578254363 12.335597322469027 0 0 0
1334 2 2.4 16.812902571202052 18.892747480181374 14.508350991235671 0 0 0
907 1 -1.2 21.623511016520425 18.480471440526895 10.845292216046868 0 0 0
1629 1 -1.2 23.554118552155348 16.940474588474583 12.41963236922554 0 0 1
1548 1 -1.2 21.839971583162416 17.4671869374577 14.434223612418098 0 -1 0
1645 2 2.4 23.279217071189933 17.9333250575273 10.917425167708162 0 0 1
1092 1 -1.2 26.70856844621649 19.107675576777968 13.988850225950927 -1 0 0
1375 1 -1.2 27.886492299430135 16.690278359324807 14.063692266511834 -1 -1 0
1102 1 -1.2 1.1999347191575132 20.922612094938277 14.083032115505008 0 -1 0
118 1 -1.2 2.9230865394669103 20.947142148326638 12.255746342155327 0 0 0
433 2 2.4 1.6467774622791345 19.60366615759172 13.365613788497967 1 -1 0
401 1 -1.2 4.473774906053934 22.972401105377525 13.059538313941424 1 0 0
2020 2 2.4 4.110977435816149 21.32507999031238 13.261145286133853 0 0 1
1077 1 -1.2 10.710787149482055 21.235300251159206 12.436860309422975 0 0 1
2066 2 2.4 9.043822437474036 20.89064391975911 12.111758065047237 1 0 1
1684 2 2.4 12.059752303503394 21.15791567735086 13.022342932206998 0 0 0
1161 1 -1.2 12.935461595851793 20.217521553441397 14.21939249378863 0 0 0
687 2 2.4 17.92419986350587 21.590823546483932 13.310946420319908 0 0 0
918 1 -1.2 14.466137556765077 23.285541363262332 12.068570022867123 1 0 0
1877 1 -1.2 18.003718660758125 19.710575426883036 13.472912275329344 -1 0 1
1433 1 -1.2 19.443746063236237 21.52945300985215 13.966633414798174 0 0 1
929 1 -1.2 24.405739060361928 18.967750678412227 10.221539406505084 -1 -1 0
1689 1 -1.2 23.495442572732554 19.50046954551508 12.73449057208769 -1 1 0
435 2 2.4 24.540552424578856 20.109457221008064 11.536920880109815 -1 0 0
518 2 2.4 27.372065116059115 19.7505777493587 12.623149622782902 0 -1 0
174 1 -1.2 26.33807748741612 20.589370693652327 11.73476975505899 0 0 0
773 1 -1.2 28.121491034889694 18.521911832054393 11.397913330173289 -1 1 0
1783 1 -1.2 28.873486250331233 20.275824765591008 13.387646459650771 0 -1 0
764 1 -1.2 3.7649127977409607 21.007040307906333 14.875602272782249 0 0 0
1953 1 -1.2 5.3993591654071444 20.571427723897575 12.583031245886101 0 0 1
298 1 -1.2 11.863667035271822 22.170244513865608 14.298197159375777 0 0 0
1994 2 2.4 15.673600879216567 23.726790422234753 13.238331892268777 0 0 1
1542 1 -1.2 14.741084357809818 24.314315941190376 14.583173604682864 -1 0 1
1340 1 -1.2 19.18144988812545 26.072984363706603 11.756342733891783 0 -1 1
651 2 2.4 21.084199765005714 22.001631766804923 13.471138384020321 -1 0 0
403 1 -1.2 22.159456003724525 22.53884000295462 12.246458403253667 0 0 -1
1478 2 2.4 23.355589028917237 23.052761728485454 11.390342602950632 0 0 1
1663 1 -1.2 24.183967004341724 21.746989823831857 10.920938309872975 -1 0 0
109 2 2.4 28.574168826068963 21.622252851962774 14.385271191614336 0 0 0
1332 1 -1.2 28.373733285643794 23.43002218212624 13.648879677829937 -1 -1 0
1130 2 2.4 0.5280659167121291 26.241454163320988 12.12297450418176 0 0 0
1662 1 -1.2 29.371486869501325 25.84895155987621 12.725202503361803 -1 0 0
173 1 -1.2 1.9944241440231285 25.536861977738383 12.285216244645758 0 1 0
507 2 2.4 3.6462087087595623 26.16748615514501 12.476847595831016 0 0 0
733 2 2.4 8.09513848481694 24.487710092042377 13.591963695042441 0 0 0
1029 1 -1.2 7.9233573775864565 25.212426822425783 15.43844114029592 0 -1 0
1761 1 -1.2 12.764135985280324 26.026547342125284 10.780622752445824 0 -1 1
357 1 -1.2 12.222319529383814 24.622525418128653 13.2326404579801 1 0 0
15 2 2.4 11.607485180876642 28.586999292171864 17.083876277188047 0 -1 0
2065 2 2.4 18.450984384418252 27.10642334547183 13.257663544651622 0 0 1
176 1 -1.2 17.393235914105993 28.24863481365921 12.428081543444403 -1 0 0
606 1 -1.2 22.1989358366884 27.153307176274925 13.355385088081862 0 -1 0
2080 2 2.4 23.398126981000246 26.454227143637755 12.482053827419088 0 0 1
1143 2 2.4 25.95719440788422 28.128631085598975 13.211434684721725 0 0 0
1173 1 -1.2 24.94238636990234 27.01985268090053 13.65606480000979 0 -1 0
1626 1 -1.2 22.98454609853614 24.816691671701086 12.31497218424325 0 0 0
1307 1 -1.2 26.90646283722512 27.95613351988079 11.73576622857637 -1 -1 1
850 1 -1.2 27.112580916039455 28.197513167949097 14.47167974597063 0 0 0
1805 1 -1.2 1.1624886961930045 27.829035524508875 11.703341789653672 0 -1 0
1236 1 -1.2 3.312106719810224 27.81326463936145 13.497799331317195 0 0 0
1352 1 -1.2 4.028198559468882 26.647065103634255 10.687789409914862 0 -1 0
1610 2 2.4 7.684605426387309 26.616357737236342 14.601677832463201 0 -1 0
166 1 -1.2 8.370655550238302 28.07733794475332 14.782470905110848 0 -1 0
665 1 -1.2 9.825880482632181 28.324113316724354 12.576683117376867 0 -2 0
448 2 2.4 10.004544780575998 28.588309149540418 14.395379802221198 0 -2 0
2082 1 -1.2 13.14629618129103 30.051655806807283 12.721345298916638 1 0 1
334 1 -1.2 15.185683378768227 29.688459129957742 13.221152131410019 1 0 0
1213 2 2.4 13.965417683655748 28.718301257351786 13.769087388126765 1 -1 1
1858 1 -1.2 13.880409878567955 27.318244265889597 13.065552555986192 1 0 1
502 1 -1.2 18.94931093496611 29.873295145498968 10.281060081695022 0 -1 0
555 2 2.4 20.933847553597595 27.975344355800264 14.364966082983484 0 0 0
635 1 -1.2 20.61946919236194 28.930913999586874 12.848458628652521 0 0 0
102 1 -1.2 -0.0778107799057225 28.8696699151531 13.886913346549767 1 -1 0
836 1 -1.2 2.132973779916995 2.605930369472317 16.8813056403121 1 1 0
544 2 2.4 5.815592585895267 1.1091557180380365 15.897933804100342 1 0 0
1353 1 -1.2 6.647654892931533 0.5335711168072894 17.29683894242524 0 0 0
740 1 -1.2 8.745917683345697 2.4283162685290165 15.123012203178758 0 0 -1
1501 2 2.4 10.186035687514586 1.2299010849244616 14.827741739566678 1 0 0
1963 1 -1.2 9.864812581194924 0.7048645631129427 16.354971060052836 0 1 1
650 2 2.4 12.574543937228814 2.346896334640114 17.95688662778087 0 0 1
980 1 -1.2 11.58615512619794 3.6397088593901876 18.546631807138652 0 0 0
30 1 -1.2 15.998185290800162 0.686501325467825 18.474699488199153 1 -1 0
1841 1 -1.2 21.105727153184194 1.6622469503343533 15.19027006327457 0 0 0
946 1 -1.2 20.76572160707759 0.31523048732104286 17.54064864661349 0 1 0
723 2 2.4 21.540111361816585 1.7228670422598178 16.856804227278435 -1 1 0
679 1 -1.2 25.70594005456058 29.601297779857973 12.765866556481374 0 -1 0
1226 2 2.4 25.13078737445039 -0.01593822089020791 14.225912432656935 -1 2 0
1933 2 2.4 28.443433349830226 1.4554309279845363 15.184435938955053 0 0 0
53 1 -1.2 28.02085477627246 1.5793548050948807 16.73851746586517 0 0 -1
1472 1 -1.2 0.19976792963278123 28.40934869931085 16.902447896333406 0 -1 0
1519 1 -1.2 4.731263066398705 1.92589665297359 16.9941504297955 1 0 0
864 1 -1.2 4.331303359030912 3.9521422743217816 15.516564246784283 1 1 0
1969 2 2.4 3.609134278655532 3.1704469056195217 16.834256785750483 1 0 0
1014 1 -1.2 9.398057256886428 4.7520437854782775 15.751069209599095 0 0 0
1881 1 -1.2 7.0455038554586364 4.516630182292986 15.64285662690606 0 1 1
482 2 2.4 8.050329217366032 3.250072410313749 16.25004847989895 0 0 0
1738 1 -1.2 7.4385020618458615 3.3050974564892113 17.701099979452444 -1 0 0
1409 1 -1.2 12.737524612636308 2.8719481947684327 16.276037462123305 1 0 1
1830 1 -1.2 16.08164170182805 4.940472631748788 15.184589012847171 1 0 0
1603 1 -1.2 16.264383521687197 2.531870366695239 16.818365088357048 0 1 0
1000 2 2.4 17.097832095713915 3.6038461844534897 15.769237048520653 0 0 0
70 1 -1.2 18.791154977623602 3.142967763173277 19.086849468837517 1 0 0
1071 2 2.4 19.633124253028303 4.112518433451683 17.515092691415205 0 0 0
490 1 -1.2 18.058618385788304 4.389891235306221 17.130530729695888 0 0 0
695 1 -1.2 20.602626082386063 4.926718193381309 18.5270996372396 0 0 0
1983 2 2.4 24.055530693499126 6.2480100098286115 15.677402089045334 0 1 1
1112 1 -1.2 24.915163343654548 29.655872236110355 15.690093876143555 -1 0 0
1699 1 -1.2 26.74212741174777 1.057038157083695 14.781575137945817 0 1 0
67 1 -1.2 25.27165729382435 6.206905298333783 16.752223376771198 0 0 0
780 1 -1.2 28.947794177594446 2.626221899287754 14.04246961229281 1 1 0
205 2 2.4 1.024811704293808 3.7535786478338995 15.919561055182243 1 0 0
1414 1 -1.2 1.5747269362249938 5.181250401450026 15.575250401196069 1 0 0
148 2 2.4 1.5112096243472737 6.380936079874083 14.469829468006393 1 1 0
1875 2 2.4 5.6007492743823875 5.281806447112778 15.669118615733687 0 0 0
1868 1 -1.2 5.3173287207163025 5.862523312955718 16.97144684242585 1 0 1
808 2 2.4 10.33352484061655 5.789763618062852 14.701623047165162 0 0 0
236 1 -1.2 9.39116909062094 6.620209565791035 13.503914498969372 0 0 0
293 1 -1.2 9.715890644669015 5.5384323437987515 17.99862152097222 0 0 0
330 1 -1.2 11.323711577919616 6.879619353726319 15.48517324052628 0 0 0
1310 2 2.4 12.81780709757442 7.627958939481954 15.892965804398614 0 0 0
591 2 2.4 15.414325584743532 6.122082364861888 14.365242427308443 0 1 0
1013 1 -1.2 14.347381946253108 6.981372176227259 15.34853213040127 0 0 0
467 1 -1.2 18.50096517872114 9.273352018365882 15.680397617911426 0 0 -1
1836 1 -1.2 16.683364053825276 7.805769929712131 16.732951593500506 0 0 0
19 1 -1.2 22.50932600270904 5.924686783734824 16.390384765287166 0 0 -1
550 1 -1.2 1.3960754228440913 7.8342005550323535 15.569248306313503 1 0 0
2087 1 -1.2 29.571086687857864 10.322844763992268 17.801346490288612 0 0 0
1716 1 -1.2 6.663366625356664 9.625653551080912 16.040972650219032 1 1 0
86 2 2.4 5.761885670714037 10.508769627024552 14.949236025364016 0 0 0
1882 1 -1.2 4.2780524505352595 11.032546213189796 15.585017640904509 0 0 0
619 1 -1.2 12.786643848788373 9.311714234245091 15.599428050192182 1 0 0
527 1 -1.2 16.68097791551562 7.015219572983468 13.956762614865745 0 0 -1
154 1 -1.2 15.71569138118806 9.107465707328384 15.116214246576217 -1 0 -1
1393 2 2.4 17.00779511786403 8.460703054279769 15.319525268057014 0 0 1
1063 1 -1.2 21.210372975273508 8.528838450418968 17.73048926377388 0 0 0
1959 2 2.4 22.415241614451656 7.2051296442216755 17.59005704515325 0 0 0
984 1 -1.2 23.215851527978216 7.837372050493915 14.930666626121367 1 0 0
916 2 2.4 28.793335153048034 9.925679840674698 16.24851172549245 0 0 0
538 1 -1.2 24.865977818973054 10.166753585492364 18.102990814683935 0 0 0
1285 2 2.4 4.11012338178266 12.066625931511517 16.837951660529388 1 0 0
1412 1 -1.2 3.320157904201352 13.330546127516174 16.350096402884112 1 0 0
788 1 -1.2 3.6568812534988524 11.46898405021607 18.3115467084282 1 0 0
774 1 -1.2 6.133358816135517 12.167052504935057 16.814734773633614 1 0 0
1442 2 2.4 6.690375758847828 13.620552060154363 16.577469119119495 0 0 0
483 2 2.4 9.408847373562404 12.272802897799716 15.93983283656743 0 0 0
465 1 -1.2 8.472776861714655 13.467505121358206 16.454558957942698 0 0 0
1931 1 -1.2 9.562849974369454 11.066197403435094 17.211776506816342 1 -1 0
130 1 -1.2 11.281009699781569 10.176171840532866 14.18740781137202 0 0 0
259 1 -1.2 16.224974676391803 12.031458070760191 14.686382155914247 1 0 0
103 1 -1.2 17.994451091621663 11.266935553235667 16.40976881922462 0 0 -1
28 2 2.4 16.80883845439559 12.62205207367739 16.480193669895808 0 0 0
648 1 -1.2 22.503900934924093 12.659671705000726 16.31520082773635 0 -1 0
1765 2 2.4 21.179030003592484 10.077129109692613 18.535303555962653 0 0 0
454 1 -1.2 23.225358758283587 8.290245531494653 16.917729228812185 -1 0 0
792 1 -1.2 19.666246203109754 10.33277162992397 18.367593077194357 0 0 0
2016 1 -1.2 23.7054113427189 10.499932950134001 15.180545157869973 0 0 0
805 2 2.4 22.827200816202012 11.735235357313629 14.871018057933714 0 1 0
949 2 2.4 23.956027075179918 9.021059641406028 15.59346246799298 0 0 0
23 1 -1.2 25.830683634603375 8.965112609020286 15.815482520030635 0 0 0
1793 1 -1.2 0.09690217786094421 12.332118503934524 14.06172762288213 2 0 0
1781 1 -1.2 1.6346174850836603 15.165936514087791 16.956617420354927 1 0 0
1733 1 -1.2 4.340851675390155 15.923640487869923 14.06968002992034 0 0 0
605 1 -1.2 6.76809986908028 17.645964482037773 16.114516667272916 0 1 0
1601 1 -1.2 5.7185781904168 14.450540067009786 15.604310990253559 0 0 0
928 2 2.4 5.688785231531626 15.037977534239243 13.841065663235748 1 0 0
802 1 -1.2 7.424562991800977 20.08534180005948 15.886353649113657 0 0 0
350 2 2.4 8.311695670134338 18.62695370013488 16.85813616280782 1 0 0
1206 1 -1.2 11.017931301560669 12.652165429120709 15.880613951865408 1 1 0
24 1 -1.2 15.01131100674135 16.197782770762764 16.962247001302238 0 0 -1
107 1 -1.2 15.789282068123319 13.242331110016286 17.32464652998811 -1 0 -1
1697 1 -1.2 13.068144319587876 14.315921139598858 17.087929147238945 0 1 0
1093 2 2.4 14.642171465416741 14.463349291968196 17.002600629486146 0 1 0
1602 1 -1.2 18.54532748420241 16.527803744149782 15.110578781035878 0 0 1
1840 2 2.4 22.06432330056258 14.338803269903542 16.12983143258074 0 -1 0
1434 1 -1.2 23.862533978198186 12.754291785712166 13.936118622624539 0 0 1
2069 1 -1.2 22.783103670256345 15.17964112323948 14.789265352504085 0 1 0
1283 1 -1.2 27.401647498022424 15.501122236535487 19.63521246709973 0 0 -1
2097 1 -1.2 0.3780220474980191 17.325062809743677 14.727174347493865 0 0 0
2091 2 2.4 0.06795398769034099 17.913448339245644 16.372419538589636 0 1 0
65 1 -1.2 5.030668986881261 18.485361604450492 13.947318474348243 1 -1 -1
535 1 -1.2 12.239876419940803 17.687940958586697 16.207101593807227 1 0 0
1876 2 2.4 13.407218388459105 18.39792296529188 15.134287464555849 0 0 1
419 1 -1.2 14.405872920657586 18.705243692536555 16.69756711219544 0 0 -1
1178 2 2.4 15.821844040481446 17.796965690587232 17.03857511132259 0 0 0
1664 1 -1.2 17.013720913565287 18.280075229079834 16.047234130965816 -1 0 0
704 1 -1.2 16.5288296949134 17.805827937067754 18.389319705410056 0 0 0
1007 1 -1.2 23.401679299892848 19.576671523130447 15.21854655285073 1 0 0
814 1 -1.2 25.676193120467815 17.65227101813954 15.730921637053765 0 0 0
710 2 2.4 27.17031965189174 18.007285326280115 15.142765518737137 0 0 -1
1448 1 -1.2 28.67946692712941 18.326601808500698 16.007098788104138 -1 0 0
735 2 2.4 1.2664879682699905 20.932019113576242 17.40732147550524 0 0 0
57 1 -1.2 1.3032652743486164 22.026510813513976 16.284293234446682 1 0 0
1979 1 -1.2 0.9579023375387054 19.44750029042884 16.371912606335687 0 0 0
883 1 -1.2 6.395670495552338 22.26235756000878 15.170552122616607 0 -1 0
628 2 2.4 4.874773765421441 21.04015209456592 18.372813756770665 1 0 0
824 1 -1.2 7.736419761639361 20.79257653406047 13.260200071057813 0 1 0
937 2 2.4 7.89553653690669 21.482705669592733 14.952075226430834 0 -1 0
1067 1 -1.2 11.155855733124993 21.588377451886455 17.935801098341436 0 -1 0
1371 2 2.4 22.334280121318244 19.06575072803953 14.02731610424014 -1 0 0
1486 1 -1.2 21.525674569338186 20.385178171003588 13.808246853979446 0 0 0
829 2 2.4 24.585261959567216 18.825447935693877 16.265534741736698 -1 0 0
443 1 -1.2 25.263841896516553 20.342559601457594 16.594527275135558 -1 -1 0
2013 1 -1.2 29.322210080568702 22.494074952482496 15.565996529241165 0 0 1
810 1 -1.2 27.39113763789516 20.566456510171747 18.1571604304592 -1 0 -1
878 2 2.4 0.8665543643969833 22.54175458198346 14.777762538943453 0 0 0
270 1 -1.2 1.1563907915727325 23.910356395492823 13.904731051335988 1 0 0
1954 1 -1.2 4.58891313460937 24.383596757797772 15.238546069653736 0 -1 1
1113 1 -1.2 7.852527614661488 19.895230361518486 18.105701225745225 0 0 0
170 2 2.4 4.8092143616138685 22.741475875395157 15.737797743986157 0 0 0
1784 1 -1.2 9.31418956583762 21.833113834238947 15.583122439992758 0 -1 1
2154 1 -1.2 19.00925033941553 24.409991821108004 14.684710526545581 0 0 0
1989 1 -1.2 20.886450143864526 21.723243523517418 16.143706511034715 0 0 1
461 1 -1.2 16.1426606825147 22.35157193359648 13.76901172832851 -1 -1 0
374 2 2.4 20.316591062251348 23.615786973849413 15.287380367346213 0 0 0
2141 1 -1.2 21.057196323402632 23.55101381642965 13.90684160705439 -1 0 0
1473 1 -1.2 27.4580516131516 20.93038450352879 15.573495305867645 0 0 0
1418 2 2.4 26.62744313818048 21.193009329785422 16.97346344185945 0 0 0
1205 1 -1.2 26.41039244357094 22.923358084999442 17.126155355220117 0 0 0
402 1 -1.2 6.149246027046197 27.40483871466347 14.52654240245468 1 0 0
998 2 2.4 5.370410472183102 26.35946080551667 15.590177292507116 1 -1 0
158 2 2.4 10.85692805591882 23.543821091171054 14.124392535147644 0 0 0
671 1 -1.2 10.892281331600275 27.00258638021447 17.41032386050564 0 -1 -1
389 1 -1.2 10.967034004238085 23.961909269427842 15.693567318267194 0 0 0
1246 1 -1.2 13.128014136863861 28.348977512095352 17.54650496830566 -1 0 0
1911 2 2.4 14.46262732503205 27.808335659764765 16.55947760547706 0 0 0
2115 2 2.4 14.936536835362004 24.712449162282713 16.21593421213387 0 0 0
1109 1 -1.2 14.554285095784195 26.214001335413275 16.427324851051164 0 0 0
1927 1 -1.2 17.32627526476391 26.69682133919243 14.27079103296387 0 -1 0
1290 1 -1.2 19.55368966420717 27.143756980356063 14.424909808682616 0 -1 0
1416 1 -1.2 21.430072166697453 24.496508220650636 16.43868073922597 0 -1 0
1530 1 -1.2 28.52420245518931 26.89395686534354 16.394300469443394 -1 0 0
1635 2 2.4 29.87591239347064 24.598420718355246 14.067549868349174 0 0 0
2134 1 -1.2 0.7894637932311588 25.993188014699268 14.491711505220614 0 1 0
64 2 2.4 30.0663026402295 26.191553282628988 16.404239969621408 0 -1 0
531 2 2.4 3.5369607145626314 28.351444924728362 15.04089823511155 1 -1 0
1739 1 -1.2 4.022001541444309 27.03241461805759 16.01540353251382 0 -1 0
595 1 -1.2 11.123887303609772 28.2829143009084 15.608349240637958 0 -1 0
119 1 -1.2 14.043192035051206 28.72848498878066 15.292149104916417 0 -1 -1
2095 1 -1.2 22.02952883670529 28.452864060445556 15.624986409729486 0 0 0
698 2 2.4 22.26810553304829 29.2748372105313 17.010628124316383 0 0 0
447 2 2.4 28.21214449218733 28.226259187459963 15.590074450843623 -1 -1 0
491 1 -1.2 27.693304573424175 29.354199063076578 16.477754742909433 -1 -1 0
858 1 -1.2 29.315042454593584 29.847207125625683 18.596841280316315 0 0 0
607 1 -1.2 2.0594199987528543 29.51380273774938 15.593492329926292 0 -1 0
901 2 2.4 0.2223989466094806 29.767339550116162 15.226760335063089 1 -1 0
1619 1 -1.2 29.716679239266128 26.62668699949337 18.881653013679646 -1 0 0
1139 1 -1.2 3.836941388605847 28.93308296729424 20.822867819211744 0 -1 0
2019 2 2.4 6.770817831998848 30.345596149847573 18.732615577256286 0 0 1
185 1 -1.2 6.51756760600223 0.5276824430153435 20.320720965941693 1 0 0
359 1 -1.2 8.519008508692671 30.33952011344038 18.85649498219184 0 0 0
560 1 -1.2 13.969267520686646 1.664883348005912 17.87427261947529 1 0 0
870 1 -1.2 15.550294268686859 30.05561598941694 21.584262993012544 -1 -1 -1
1325 1 -1.2 19.55344550428619 0.9320658234863396 19.647413414656807 0 0 -1
955 1 -1.2 20.604305053798342 2.9481966891208766 16.96579760761138 -1 0 0
1788 1 -1.2 22.74937244096004 0.3266599331420535 16.23031815195392 0 0 0
569 1 -1.2 25.234045930331796 2.7765264868114268 16.885602723288276 0 0 0
890 2 2.4 26.269074769109643 1.4547634219440484 17.00850237007237 0 0 0
2117 1 -1.2 26.34120448129614 0.4229844049171817 18.472168554621486 0 1 0
1771 1 -1.2 3.361410233829469 4.202410178564013 18.051991863596484 0 0 1
529 2 2.4 4.42150563618428 5.533824476618143 18.210282193472185 1 0 0
657 1 -1.2 7.7578522962774015 5.636264165274399 19.94034490418632 0 1 0
631 1 -1.2 8.91304751327126 3.3174870065364863 19.917573267008265 0 0 0
566 2 2.4 8.613515327773289 4.264015006434751 18.636561339235563 0 0 0
943 1 -1.2 10.189530307670523 7.3383500173271266 19.736064029193283 -1 0 0
828 1 -1.2 15.627868681127897 3.0099996671605793 19.146478036619506 -1 1 0
940 2 2.4 15.471284146392234 1.9622131381513517 17.937614249667686 0 0 0
756 1 -1.2 19.85494535844723 3.1628292465417034 21.587606943594487 0 1 0
601 2 2.4 22.694615368020308 5.779827396493798 20.50887421170271 0 0 -1
1835 1 -1.2 23.386755151815724 6.565973313152542 21.4671426273069 0 0 0
1791 2 2.4 25.808393229562927 4.407216560328992 17.283295647951054 0 0 0
1451 1 -1.2 27.437698018543482 4.341350638015675 17.262729824112135 -1 0 0
2017 2 2.4 28.79776988564751 4.462637823294948 18.04368935918184 -1 1 0
609 1 -1.2 0.6964089179753743 7.421520484340463 18.779126946429805 1 0 0
1910 2 2.4 2.2978550783954463 7.521111766645894 19.149220051521105 0 0 0
424 2 2.4 9.422408398036273 6.985150454749058 18.380343088129003 0 0 0
203 1 -1.2 7.5830673776509565 7.186986903053025 17.790994364454274 1 -1 0
2045 1 -1.2 3.1701536004519575 6.477476642877293 18.02008483559249 1 0 1
1808 1 -1.2 7.977578855012499 8.08706807840595 20.928727340716016 0 0 1
961 2 2.4 6.471435214226276 9.226210951453078 20.46917050491081 0 -1 0
637 2 2.4 6.5862858742926855 6.6231428675805795 19.45233875672547 1 0 0
1308 1 -1.2 10.80627044853461 8.312689185665793 21.443432908716183 0 -1 0
1041 1 -1.2 12.971338666149958 7.5076137239153535 17.734718680830657 0 0 0
1597 2 2.4 16.848464710826434 7.122553225592331 18.37734571821422 0 0 0
32 1 -1.2 15.416989580361236 6.03312816523615 18.655607195625624 0 -1 -1
1099 1 -1.2 25.63060086572394 3.577074516651175 18.684680599197232 -1 0 0
71 1 -1.2 23.65589826138177 4.002124740390165 19.96225642015468 0 0 -1
2126 2 2.4 25.281013664397893 3.7198086760041322 20.32028187386519 0 1 0
1556 1 -1.2 28.580471235170315 3.322268133426705 19.436919824017075 -1 0 0
305 1 -1.2 28.89512115022691 5.823424756208347 18.433864825647166 -1 0 -1
1168 2 2.4 29.364948082653118 6.903692406005182 19.86991456803972 -1 0 0
778 1 -1.2 9.09434673105864 8.01416001267966 16.626274821679946 1 0 0
1400 1 -1.2 10.24650248199082 10.65206259010411 19.841310771299327 0 0 0
727 1 -1.2 11.953577861684145 8.795583862096079 19.559750513308508 0 0 0
1341 1 -1.2 12.423972810253854 10.82430425245692 18.258663545769682 0 0 0
2103 2 2.4 13.169107464724105 9.060152126091761 18.59411211653518 0 0 0
1121 1 -1.2 14.480996902020461 9.992231066497252 17.774559386228383 0 1 -1
1600 2 2.4 15.527923807575208 9.491993791486845 19.04585813144482 -1 1 0
281 1 -1.2 16.359043030016394 8.169932763295797 19.353136399078434 1 0 0
827 1 -1.2 16.873190238433757 10.538534352161264 19.249522651316745 0 1 0
1973 1 -1.2 14.519115204742961 8.935163790547456 20.035392217225084 0 0 0
717 1 -1.2 22.95687377133348 6.822199964140794 19.158050502389127 0 1 0
29 1 -1.2 23.678001249409153 9.52380798764101 21.144216952598335 0 0 0
1929 1 -1.2 27.076109053623153 8.972022936882622 18.817008051706978 0 1 0
1190 2 2.4 26.827712804753858 8.271726827225612 20.302027666355194 0 -1 0
944 1 -1.2 27.393684740888947 10.804412427086355 16.93932692862125 -1 0 1
1327 1 -1.2 1.0102395771344597 12.435449720626137 18.574996617535557 0 -1 0
520 2 2.4 3.342651069611417 12.52574336313371 19.596238258255923 0 0 0
1580 1 -1.2 2.4372508421707004 11.378625759182247 20.21726711656108 1 0 0
263 1 -1.2 4.821788148084433 12.91203794049186 20.08905648277518 0 0 0
770 2 2.4 5.900831178174291 14.303460331727695 19.51230352204258 0 0 0
2156 1 -1.2 6.960747162491848 13.157849032430082 20.29922178850518 1 0 1
1401 1 -1.2 10.784251647454996 13.297656419723214 18.2793803449305 0 0 0
1525 2 2.4 10.691134644614186 11.590360980042169 18.52278202646197 0 0 0
1962 1 -1.2 17.762312421666234 14.335631200333115 19.953549343898064 0 0 0
1515 2 2.4 18.227877206422104 10.984164729369006 18.02230731105319 -1 0 0
1498 1 -1.2 18.262313654566874 12.510136422397512 18.564568652695282 0 0 0
1265 1 -1.2 22.80247406231865 10.43476860054232 18.577109835022704 0 1 0
1926 1 -1.2 21.185917896811322 9.832931081215937 20.260773905224646 0 0 1
1768 2 2.4 22.768182306929432 10.572628691567331 20.392768559789495 -1 0 0
1493 1 -1.2 23.732889941849912 11.929167811841374 20.925823767835816 0 -1 0
1322 2 2.4 26.356044433674022 9.792222655635497 17.508670467641178 0 0 0
2015 1 -1.2 29.47210347842583 8.619632320722062 20.097333595336337 0 1 0
49 2 2.4 29.921385263488244 12.390489043052233 17.77138206575078 0 -1 0
62 2 2.4 2.412249328008274 13.932397697992371 17.422009450946515 1 -1 -1
1722 1 -1.2 0.9481420408897079 15.632489332439167 19.85889682877686 1 0 0
1053 1 -1.2 3.196664449586347 14.123285031911493 18.80814908001993 0 0 0
224 1 -1.2 6.421398537126852 14.479248491227406 17.97640875849059 -1 0 -1
1630 1 -1.2 8.043366523934322 16.516127420921052 21.05035349521301 0 0 0
1012 2 2.4 11.625621303275674 13.706805663831771 16.848675005297267 0 0 0
969 1 -1.2 10.967574453440234 15.610648485557615 16.50417784553823 0 -1 0
1191 2 2.4 16.862716733813624 14.993506732930879 21.01793530076814 0 0 0
429 1 -1.2 15.533796770059407 15.273553015592727 20.115687849720878 0 1 0
127 1 -1.2 17.59970925644168 16.568884244101206 20.838834878189566 1 -1 -1
885 1 -1.2 20.673922127183072 15.631934756655914 19.19076684538701 0 0 -1
1594 1 -1.2 23.431450107779963 16.55319687005812 19.597890985797687 -1 -1 0
676 2 2.4 25.14819414085754 13.052293212849547 21.28890500944783 0 0 0
7 1 -1.2 26.66430098629566 12.975036745067214 20.06186499359826 0 -1 -1
1217 1 -1.2 28.973593137043242 12.994166352311089 18.72820030169022 0 0 0
1576 2 2.4 28.00111373495237 13.868341361637475 20.05108669330413 0 0 0
920 1 -1.2 29.310412964037678 13.86864592764883 21.21224762540565 0 -1 0
1731 2 2.4 1.4668945984044086 15.874816169599033 18.48164675307702 0 0 0
1461 1 -1.2 0.7212636518858269 17.002386618846046 17.340778158741813 0 0 0
306 1 -1.2 2.8414344075851545 17.224874429414143 18.214382123970015 0 0 0
460 2 2.4 4.349919728166998 17.606432543817508 18.244858806654698 0 -1 0
1119 2 2.4 5.543859239534998 18.299277779976173 15.425088826933647 0 0 0
1533 1 -1.2 4.4764437821926775 18.13166167875316 16.581043250541608 0 0 0
5 1 -1.2 8.354882278105217 17.307067578393138 18.170358431273993 0 -1 -1
1180 2 2.4 8.909563558171929 17.462615846027386 19.675593444473293 0 0 0
580 2 2.4 10.692012380590795 17.24043524034323 16.774083628244714 0 0 0
846 1 -1.2 9.529866261838025 18.102907427349862 16.027202697297625 1 1 0
237 1 -1.2 17.834345133386577 19.789789646411162 19.724237138675022 -1 0 0
1369 2 2.4 17.680012897330602 17.71708337982874 19.565597065338864 0 0 0
101 1 -1.2 19.08532201865709 17.81179579022676 18.816897138711916 0 0 0
1385 1 -1.2 22.59886655828692 15.44791543696137 17.40960335822285 0 0 0
508 2 2.4 22.021323537074924 16.314494950201468 18.62679967048718 0 0 0
713 1 -1.2 21.548728269088482 17.73212827198065 18.205632190952333 0 -1 0
1286 2 2.4 28.227748613323303 18.699347406491444 20.178657755842046 0 0 0
523 1 -1.2 29.141145235423366 19.440241416326273 19.24103876395446 -1 0 0
1800 1 -1.2 2.09581097825179 21.21175322152905 18.696981333472632 1 -1 0
1670 2 2.4 1.5036368182364883 21.273108437687217 20.386215188971537 0 0 0
214 1 -1.2 2.705651945832313 20.90032630604407 21.179087742535106 1 -1 0
992 1 -1.2 6.130017283077511 21.063020700957562 19.222574134556446 0 0 0
888 1 -1.2 8.26864532311749 18.762081241910092 20.403917956542443 -1 -1 0
1778 2 2.4 20.188133608799458 21.929325624274796 17.93426736184036 0 -1 0
1737 1 -1.2 18.65576949184514 22.22144175856326 17.40327945501117 -1 -1 0
590 2 2.4 20.370917491928584 18.78133588448126 18.73892408345221 -1 0 0
896 1 -1.2 19.843380878691104 20.489741989300654 18.509775020809343 0 -1 0
1642 1 -1.2 21.33679452086182 19.224549198361714 20.376655000677587 0 0 0
318 1 -1.2 24.932053968337623 18.322296456830173 17.939004241268723 0 0 0
1562 2 2.4 25.3481045950367 19.29816410141101 19.22508250877924 0 0 0
2122 1 -1.2 25.40582189116503 21.068160990045175 18.71445005936661 0 0 0
2135 1 -1.2 27.56422331022144 21.53444839760719 22.044746931753263 -1 0 0
960 1 -1.2 5.028411053664027 22.280762039067575 17.338891353442573 0 -1 0
1467 2 2.4 10.43559389434317 22.681882572226744 16.91505907660875 0 -1 0
1049 1 -1.2 12.058731039500312 19.540837020059175 19.57017177978257 0 -1 0
252 1 -1.2 9.929399001032705 23.922785851865278 18.079680635397274 1 0 0
2118 1 -1.2 13.805088788887769 23.490898625811152 16.814742408213004 0 0 0
400 2 2.4 18.125767651509694 23.579506736750954 16.54775065513318 0 0 0
1764 1 -1.2 19.675706502239915 24.648963253773854 17.21238586501556 0 0 0
312 1 -1.2 20.6320897644103 22.975231902888716 19.32973965724277 0 0 -1
1695 2 2.4 20.651770771105582 24.63937914181467 18.397440689449038 0 0 0
1389 1 -1.2 22.84690634324061 21.762048577117383 20.26260961450176 0 1 0
965 1 -1.2 24.30372217697302 23.470233051040246 19.201549314786064 -1 0 0
589 2 2.4 23.96630179864273 23.004643592903243 20.700123909485367 -1 0 0
1838 2 2.4 25.56313145422134 22.609816490012577 18.66412031266632 0 0 0
296 1 -1.2 25.03350031219991 22.386185585843805 21.74601151365683 -1 0 0
162 1 -1.2 30.16452568734043 21.31813499147564 17.863203042415666 -1 -1 0
74 2 2.4 28.959384157375148 20.176225788668905 17.76454269443039 -1 -1 -1
1392 1 -1.2 26.430124903493528 23.210881779155685 19.987413481429986 -1 0 0
798 1 -1.2 29.850160601584783 25.149883633998964 22.328368941551734 -1 0 -1
474 1 -1.2 0.05678835410340397 24.91020836507932 19.657786788827092 1 -1 0
541 2 2.4 0.8774470632849402 24.656338435090117 21.14507248699929 1 -1 0
871 1 -1.2 6.336737615967052 26.1622198361895 16.972412349059212 -1 -1 0
317 1 -1.2 9.188192098924384 23.62368199986992 20.480586049892562 1 0 0
1022 2 2.4 9.359489750642291 27.465818959123578 18.36397067542635 0 -1 0
1320 1 -1.2 10.781141106895413 29.263359648241874 18.144229962991425 0 -1 0
2057 1 -1.2 18.10271240797011 26.944252047138175 18.655224562721703 0 0 0
1216 2 2.4 19.293566451179142 26.87482767646261 20.106301562318585 0 -1 0
581 1 -1.2 19.700663260777706 25.177350703467088 19.672195334080385 -1 0 0
1939 1 -1.2 22.265908709547627 25.083972313906155 18.844020246409222 0 -1 1
844 2 2.4 23.677695548141855 25.64686827377492 19.65050211482469 0 0 0
811 1 -1.2 25.39810786786033 26.27029631500813 19.71054450767103 -1 0 0
1503 2 2.4 26.591913188938925 27.27918093584344 20.431834867799626 0 0 0
521 1 -1.2 30.205329421731847 27.615911993093878 21.474508944955367 -1 -1 0
1090 1 -1.2 29.105123859931915 24.901731923917996 15.76255595142942 -2 0 0
1701 1 -1.2 27.956441572207773 26.303950422767638 20.57702818457571 0 0 0
1550 2 2.4 29.680372387194048 26.26343008363623 20.522947812129445 0 -1 0
2152 2 2.4 2.539968416776265 29.571288690523566 21.365513884298274 1 0 0
1631 1 -1.2 1.900558651154167 28.726474284761284 22.399088499569014 0 0 0
2039 1 -1.2 5.917065479684534 29.00751367076644 18.494367307297818 0 0 0
54 1 -1.2 6.558669901656847 26.847500238522574 19.723161407255894 1 -1 0
771 2 2.4 6.590174664216782 27.142717364823376 18.20899678735966 1 0 0
554 2 2.4 10.043639288426457 0.2378199305138337 17.81368907857309 0 0 -1
1135 1 -1.2 8.038216097338886 27.716270571093506 17.70250504067935 0 0 0
2106 1 -1.2 11.403991834533999 1.136924322766398 18.230187753844316 0 1 0
914 2 2.4 11.767285035004724 1.121024752423595 22.83294156059604 1 0 0
743 1 -1.2 9.23133749316712 28.38720056891765 19.869541263563974 0 -1 0
1966 1 -1.2 14.472622812096185 28.978958653441474 19.84548794665859 0 0 1
1196 1 -1.2 15.88174392786245 28.331644899408015 17.455725291113797 0 0 0
941 1 -1.2 18.36543886765514 28.912692104365725 16.709467042741633 0 -1 0
988 2 2.4 17.916147424684628 28.679726108954164 18.291550931010402 1 -1 0
669 1 -1.2 17.14409522868782 29.39078932279621 19.941514806532687 0 -1 0
1441 2 2.4 19.421875147364048 30.247124830260045 18.470400390752896 0 -1 0
2096 1 -1.2 20.511263338273135 29.11520677229173 18.936419220525924 0 0 0
322 1 -1.2 22.942450635597552 28.61665215220521 18.451310509219564 0 0 -1
1676 1 -1.2 22.716263429976234 26.85142349363225 19.888845592933237 -1 -1 0
1777 2 2.4 21.99631713082425 28.26581329347053 19.56609744979729 0 -1 0
1396 2 2.4 27.47116236364278 29.63172318276462 18.25629955951668 0 -1 0
1148 1 -1.2 26.724528353284875 28.47067968869893 19.184254555764692 0 0 0
647 1 -1.2 1.2445307858001189 29.00112644358262 19.652978207015916 1 0 0
1179 2 2.4 0.006383852629564209 28.51812229055554 18.949418669425377 0 -1 0
1204 2 2.4 0.04072860916867683 28.096479903242873 22.867092785953297 1 0 0
822 1 -1.2 29.966758252306068 30.265109916003478 25.676848110297186 0 0 -1
1323 2 2.4 29.174828254296752 0.4292422251534074 24.07867192242539 0 0 0
459 2 2.4 2.399297230288049 2.6959966584756385 21.10062031607109 0 1 0
686 2 2.4 5.429717082092256 29.70126288630984 20.781946709228972 0 0 -1
597 1 -1.2 2.9444106771226704 2.6795863398731736 19.632835964837057 0 0 -1
1650 1 -1.2 5.154258168281155 0.08797987051786832 22.128346994973416 1 1 0
1311 2 2.4 6.143674871176211 0.44215648953753717 23.34935062342871 0 0 0
1175 1 -1.2 10.910160327066214 2.5649391363770095 21.383696624308 0 0 0
1142 2 2.4 10.666230444354138 3.177812809787541 19.90245214049339 1 0 0
441 1 -1.2 6.629725250718703 2.0303147166146154 23.39775166514955 0 0 0
963 2 2.4 14.693334527994766 0.5691341971230827 22.75174480519419 0 0 0
1915 1 -1.2 13.743877870082486 1.7100596863998259 22.204598801097475 0 0 0
496 2 2.4 18.881921028284797 1.7277816038895273 20.81173165513666 0 0 0
860 1 -1.2 19.338437510277114 0.7792705305394797 22.157114109766056 0 1 0
1474 1 -1.2 17.156178581679487 1.6716655114179986 20.89372386636917 -1 0 0
1587 2 2.4 23.104305954860184 29.92468009328231 22.043105272384317 -1 0 0
1824 1 -1.2 23.247555985924297 1.1726830268053947 21.816053088083454 -1 0 1
962 2 2.4 23.80808117145281 2.7423705129898535 22.091129543983012 -1 0 0
1425 1 -1.2 24.25472860222479 2.6053922159631444 23.821327663831983 0 0 0
168 1 -1.2 27.48390340297707 0.7220436042094187 23.55190758852699 -1 0 -1
935 1 -1.2 1.24571511537082 3.939797949417865 24.928808497870413 0 -1 0
2026 1 -1.2 5.383111615062136 5.527456469279091 19.530967658683963 0 0 0
975 2 2.4 12.666817200782056 4.687990979129001 21.699667616248483 0 0 0
300 1 -1.2 11.39029400862371 4.520139486655561 20.79466735339439 0 0 0
747 2 2.4 15.918613038376863 4.6664779914400265 19.280326611692644 0 0 0
2051 1 -1.2 17.053622649180497 4.698228189559567 20.311121527295203 -1 0 1
894 1 -1.2 16.6128321573832 3.902566493836832 25.176118279075133 0 0 0
786 1 -1.2 17.963509411425925 6.549510496768358 18.900729283919198 1 1 -1
2073 1 -1.2 21.32868643033064 4.74187060002476 20.719315428398062 0 1 0
973 2 2.4 19.810505108534034 4.212299529807728 20.25138309832916 0 0 0
1349 1 -1.2 28.638086162915908 1.007734295655814 21.348998280107594 -1 0 0
193 2 2.4 28.43110445692481 2.536123322052175 20.89613824579723 0 0 0
1977 1 -1.2 30.084530625673334 3.911070360040818 17.27461057907523 0 0 0
983 1 -1.2 2.709007496179441 7.1585268697564075 20.573898972169015 0 -1 0
843 2 2.4 2.7074528624862384 6.818544999729956 22.245417798433824 1 1 0
754 1 -1.2 5.502869120136231 7.710824649578067 19.80937369331143 0 1 0
2058 1 -1.2 8.977499014227735 6.079666256208758 21.891376194434095 0 1 0
61 2 2.4 9.445697168054938 7.476999321311609 21.02681153655783 1 0 -1
1785 1 -1.2 14.203220063324842 4.613282436822555 21.55497437789175 1 -1 0
1818 1 -1.2 17.169651008875338 7.105900182590531 21.606890824959393 0 -1 0
361 2 2.4 18.122417306408565 5.940597001539535 20.830860141051197 -1 1 -1
882 1 -1.2 26.256283342446693 4.8354332611524145 20.898074142660064 0 1 0
1822 1 -1.2 28.66296220481145 3.727367804814211 22.001488850883444 0 0 0
1082 2 2.4 28.169511188770088 4.941420133500736 21.02558565224616 -1 0 0
6 1 -1.2 29.644096496764462 5.551167792443946 20.887570502849783 -2 0 -1
1227 2 2.4 1.0792260907335867 11.3037703140783 21.497039087650375 0 1 0
1207 1 -1.2 2.5843858007086804 8.649059157484476 18.08205822048807 0 1 -1
1398 1 -1.2 7.1639705022822895 10.622092924870898 19.915762226617623 0 0 0
1970 2 2.4 7.894591224658506 11.777261562457607 20.52023098263167 0 0 0
959 1 -1.2 9.064240419602875 11.753219904863315 21.759175104340454 0 0 0
1358 2 2.4 11.239016704574272 9.554598786939998 20.683670282570397 0 0 0
1745 1 -1.2 12.282823589649006 10.52836693207625 21.727669743211436 0 -1 0
1839 2 2.4 24.053345206359023 7.9891679172356 21.631106357954657 0 0 1
1974 1 -1.2 23.879423277473943 8.312834356306926 23.31848338751418 0 0 1
1769 1 -1.2 27.299834217215306 6.623841521186687 20.41707246695585 -1 0 0
1378 1 -1.2 25.41974284788081 8.279151240366808 20.822899493479525 -1 0 0
1463 1 -1.2 27.50859846227436 9.602442989392559 21.22423388865652 0 0 0
1865 1 -1.2 29.755309101234825 8.957469175281668 23.035069301100908 0 0 1
1245 1 -1.2 1.0705688355600549 10.798764824064445 23.136343719161832 0 0 0
1302 1 -1.2 6.827898500601047 12.364487839247374 23.008621060928505 0 0 0
707 1 -1.2 15.332135322268762 11.721908849373175 23.21859249256254 0 0 -1
604 2 2.4 16.64539425083264 12.900952691700649 22.889351099032414 0 -1 0
938 2 2.4 18.487234283344048 12.768092979008838 20.180470416100846 0 0 0
167 1 -1.2 17.362880149845946 12.27386183074487 21.572554415541752 -1 0 0
479 1 -1.2 20.18432150410093 12.925771275846369 20.122653288929406 0 0 0
537 1 -1.2 25.623824449895345 12.107154247658176 22.48406518642422 0 0 0
1831 1 -1.2 27.540274742968005 11.013673247777 24.410015046149745 0 0 0
1431 2 2.4 26.760625355689097 12.297276448952246 23.81837791868525 0 0 0
314 2 2.4 29.035489274684217 9.604418278300177 21.529180229326737 -1 0 0
1531 1 -1.2 29.789685424780355 11.049016507007654 21.253176489735036 -1 0 0
1038 1 -1.2 27.750735057509598 13.566014607575326 23.24682279119655 0 0 0
246 1 -1.2 4.047112992572847 14.41580694754982 22.179495942891542 0 0 -1
1734 1 -1.2 5.3825609929212925 17.61650091522826 20.450776203885066 0 -1 0
1789 2 2.4 6.384173528609444 16.85337359072435 21.376717927215548 1 -1 0
2146 1 -1.2 5.651171996358334 15.628771584631474 20.052952404371897 1 0 0
1736 1 -1.2 6.277917997661016 15.944115132150278 22.76340615556632 0 0 0
1324 2 2.4 14.233796489130148 15.989079663567395 20.715867119443494 0 -1 0
664 2 2.4 13.021544311098998 15.77758265410375 23.876659792877934 0 0 0
1869 1 -1.2 13.628775796631276 15.473066489299123 22.19047275748104 1 0 0
1242 1 -1.2 14.975914128691379 17.831465492788784 20.902853078423146 0 0 0
452 1 -1.2 16.883818784727453 14.592314774729537 22.45526448871767 0 -1 0
926 2 2.4 20.76760263282573 14.480608330344223 20.336450561480202 1 0 0
1759 1 -1.2 20.749302368125765 14.95078750478856 21.86643261089398 0 -1 0
1458 1 -1.2 22.54529240196999 14.25276128961822 20.56015571537983 0 1 0
385 2 2.4 23.45566261090193 15.729069010819869 21.010224173569135 0 1 0
732 1 -1.2 28.374885604522532 15.994610982395493 23.406735673322256 -1 0 -1
1866 1 -1.2 24.917383375155726 14.914455311456816 21.544883950362923 0 0 0
1527 2 2.4 0.5649741050815111 12.945145189238454 25.55781163926252 1 0 0
738 1 -1.2 -0.05607347756461992 18.07200997063421 23.039646308685697 0 0 -1
1616 1 -1.2 4.124432838051285 19.652128508543942 18.608398373832735 0 0 0
1971 2 2.4 12.040126138179183 17.96546593578513 20.104154706073036 0 0 0
329 1 -1.2 10.58706604411005 17.493805029891586 19.649811740628547 0 0 0
611 1 -1.2 12.859848846659233 16.62368502582934 20.135457057683965 1 -1 0
1126 1 -1.2 11.823687065063 18.49648314567262 21.954953319106572 0 0 0
1494 1 -1.2 14.234664551827576 19.494543223147012 23.370036597516133 0 0 0
602 2 2.4 15.326594290954203 18.428239075833815 22.48636466758633 0 0 0
1428 1 -1.2 16.81888284887379 19.35657846464963 22.635176241599915 1 -1 0
1873 2 2.4 23.904010551076073 18.44297805585427 22.108627396794727 0 0 0
790 1 -1.2 22.68777072218982 17.236601412375578 22.00872555099703 0 0 0
971 1 -1.2 24.58694868441621 18.01575765676297 23.678391819469056 0 0 0
81 1 -1.2 26.85817965236774 19.261015219890396 19.852516212548583 -1 0 0
1443 2 2.4 28.829687900713704 14.564281263963283 22.75427418255809 -1 0 0
1064 1 -1.2 0.2672565422517839 20.799487211761477 21.1905488495342 1 0 0
1935 2 2.4 0.1925876418389253 22.70284094053387 23.679114623998633 1 0 1
830 2 2.4 7.955735179617689 20.3137941137454 19.88915291096095 0 0 -1
2124 1 -1.2 7.411262809277185 20.727487821845266 21.526830954198005 0 0 0
313 2 2.4 7.82330802857551 20.51559299139835 22.958004002291467 0 1 -1
932 1 -1.2 8.701762141858591 21.68358349660126 23.09661597736011 1 0 0
646 1 -1.2 11.61369485294079 21.579582187722053 20.543379269110993 0 1 -1
1968 1 -1.2 14.376585670837967 22.07903438468141 20.758634937720885 0 0 0
1155 2 2.4 12.684400691140343 22.716973818183565 20.633026432545776 -1 0 0
837 1 -1.2 12.757240717847624 23.748364325721187 21.958964806036033 0 0 0
1153 2 2.4 17.451295216043345 20.19555221606905 21.340387870686428 0 0 0
1505 1 -1.2 16.772677421670245 21.84928721716812 21.23540209098169 0 -1 0
337 2 2.4 21.978858912100584 20.566834107672584 21.091902045117767 0 0 0
714 1 -1.2 22.98205563402797 19.889564802402333 22.28185751924141 1 0 0
1651 1 -1.2 24.480349674808807 18.75173247313202 20.598138980322663 -1 0 0
283 1 -1.2 28.49663585250852 19.089230205702084 21.865894065488543 0 0 -1
2006 2 2.4 28.989654736570223 20.779670391580392 21.820478778493253 0 0 0
1579 1 -1.2 29.888401020206544 21.296304625301577 23.309594827600872 0 0 0
1641 1 -1.2 0.9682370941752337 22.907805254091357 20.447689526797056 1 0 0
1309 2 2.4 3.9669027089931856 20.579118467785094 22.058173493667933 0 -1 0
1541 1 -1.2 4.700439209268835 21.837014043235328 22.613104427440955 0 0 0
1273 2 2.4 10.978780567359925 20.77708868689441 19.29300915365458 0 0 0
659 1 -1.2 9.41250394013861 20.89493726873027 19.97295641660266 -1 -1 -1
1184 1 -1.2 14.743164479978928 23.824657988161803 19.407105207163315 0 0 0
640 2 2.4 10.324895013378004 24.588639126010776 19.54584191422217 0 0 0
156 1 -1.2 16.489288518046617 23.89718600129298 16.508232961161152 0 -1 0
1239 2 2.4 14.740599102360532 22.909800875986928 17.958142870418634 0 0 0
217 2 2.4 15.614613437510592 22.761579235175883 20.572096775262246 0 -1 -1
617 1 -1.2 15.915357733804335 21.86711002349785 18.781921937333646 0 0 0
2000 1 -1.2 15.708129599465895 23.909772602039215 21.689876379034335 0 0 0
1296 1 -1.2 19.129604308535143 20.126379232947347 22.1641052981425 0 0 0
472 2 2.4 19.628088957058296 21.508885913986717 22.460137711193184 0 -1 -1
1905 1 -1.2 27.52061602994834 24.22658568596916 22.44789773200991 -2 0 0
17 1 -1.2 29.631905048052232 23.95755656360657 24.351414712163923 -1 -1 0
75 2 2.4 28.49129856512798 24.979211597248543 23.530276959720645 -1 -1 -1
1617 1 -1.2 2.1164784462057757 25.313829032100283 21.79121768022229 0 0 0
1421 1 -1.2 28.232903586365943 25.981502349066705 24.997530121324957 0 -1 0
304 2 2.4 29.178121012901435 27.163164404080586 25.62493722472029 -1 -1 0
1622 2 2.4 5.466517160716249 24.20252484087462 22.64679746002455 0 0 0
1017 1 -1.2 5.665189212781493 25.578020832513022 21.590653046107374 -1 -1 0
160 2 2.4 8.526389688574978 23.27801637168057 21.978484854053914 0 0 0
42 1 -1.2 6.795529237225488 23.643795182955426 21.514973839239918 0 -1 -1
126 1 -1.2 9.784777023671738 25.959525085262804 20.099478060901074 1 -1 -1
1247 1 -1.2 11.719609401343314 24.242595968396454 19.638135377006794 -1 0 0
1215 2 2.4 9.659726413012786 27.603840400864854 21.392193132375017 0 0 0
672 1 -1.2 19.13086735937098 27.03368656635287 21.613764038821756 0 0 -1
39 2 2.4 17.62999757591327 26.64697289999398 22.302801735385035 0 0 -1
1520 1 -1.2 20.725258708448354 21.75002719461487 21.368946898672213 0 0 1
1459 1 -1.2 19.554701097085413 23.036769831947705 22.578551302595518 0 -1 -1
1031 1 -1.2 23.432851109765867 24.619908426585944 21.00669073515853 0 0 0
855 2 2.4 26.535730531287523 22.832694463866222 21.60073941794582 0 0 0
235 1 -1.2 24.77723338642016 26.084265409803916 22.23667722477429 -1 0 0
995 1 -1.2 30.262850535305027 27.081113626005454 24.148993994092773 0 -1 -1
804 1 -1.2 30.233719559205017 1.9222878140805963 24.070164891805696 -1 1 0
1547 1 -1.2 6.260394469204069 28.468007838806844 21.720645489803093 0 -1 0
506 2 2.4 6.720333686009131 26.762360158310358 21.461534133122502 0 -1 0
1499 1 -1.2 8.42550997003401 26.573368109189186 21.76355359258057 0 0 0
1001 1 -1.2 10.054024399644877 28.560167699349424 22.473824284873064 0 -1 0
760 2 2.4 15.730725717549005 30.037190913852477 20.015488056799583 0 -1 0
1005 1 -1.2 12.070146935469896 27.68131249074154 20.537156567052556 1 -1 0
2023 1 -1.2 12.78164512025153 30.136866249877897 22.552773142410867 0 0 1
1019 1 -1.2 15.057726181147693 0.44983628269098624 24.383914269987034 0 0 0
953 1 -1.2 15.825052249348431 28.587351511942003 25.11861493097177 0 -1 0
616 2 2.4 16.477748760108152 30.213143987653034 25.024323955479954 0 0 0
1110 1 -1.2 22.058771938984144 29.182513345350728 20.898773869375326 0 -1 0
1998 1 -1.2 24.323658760905047 29.188393895335338 22.285535815581053 0 0 0
970 1 -1.2 26.926734853597985 28.311826197520116 21.705440908680607 -1 0 0
1492 2 2.4 25.717822897507684 28.02546549913966 22.835648898887122 0 -1 0
873 1 -1.2 23.425767866544547 23.408386202451464 27.843316756908543 -1 -1 0
78 1 -1.2 2.462943696360653 0.8532379489350098 21.49752680830693 0 0 -1
1026 1 -1.2 7.599427040623134 -0.10680635376717262 22.93853453968758 0 0 0
1591 1 -1.2 5.1143390797588575 0.3237861522266686 24.425317173888246 0 1 0
1665 1 -1.2 11.75219987170501 2.1208849874525715 24.179513082097646 0 1 0
232 2 2.4 9.1074289023602 30.062793202055488 23.56093977085812 0 -1 0
715 1 -1.2 12.173059675083708 5.3127222856884835 23.09629510248811 1 1 0
2153 1 -1.2 10.141640415602465 0.6098254682086077 22.93953123805139 0 1 0
1574 2 2.4 18.93214341872778 1.0255259032280004 23.808635450359287 0 1 0
572 1 -1.2 18.398610435383652 2.550787415681823 23.926223675919772 1 0 0
1488 1 -1.2 17.511762459800753 2.105963819638104 26.868419997503477 0 0 0
1719 2 2.4 18.013560696220726 3.3874506895582828 25.434982629771437 0 1 0
726 1 -1.2 20.032556333307998 -0.08141077576585387 24.72435770341952 -1 1 -1
1543 1 -1.2 22.424230772257147 30.155220023628523 26.599376627437064 0 -1 0
256 2 2.4 21.52595508397399 29.836583518282055 25.08080357990939 0 0 -1
1249 2 2.4 25.832067950955203 1.6337672861120593 24.266186957612838 -1 1 0
1123 1 -1.2 26.525102999594324 2.2574599609437263 25.58395273530529 0 0 -1
2010 1 -1.2 1.981983058725883 3.5660588545288197 22.342753774152197 1 1 0
543 2 2.4 1.313494430600122 2.7890727821664236 23.913852325605884 1 0 -1
1942 1 -1.2 2.4982221386694596 1.8997902918991574 24.303853923304022 1 0 1
1141 2 2.4 7.418260998962523 3.112255207155214 24.30571628688786 0 1 0
823 1 -1.2 7.701309264809734 4.53494543430867 23.754057204354527 0 1 -1
1880 1 -1.2 10.53011614121133 4.558917179499082 24.50723020110281 -1 0 0
99 2 2.4 11.729623770517772 5.540816903273562 24.673536949231096 0 0 -1
475 1 -1.2 14.930110923721875 6.298964153299445 26.21811733206178 0 0 -1
1707 2 2.4 16.434463408340257 5.73894447118043 25.310158405660136 1 1 0
497 1 -1.2 17.429008625312086 6.628055797703677 26.494266378119168 0 0 0
324 1 -1.2 19.14213403508295 4.304713538217484 25.841922186010894 0 1 0
1692 1 -1.2 23.293138940190765 4.44805064664452 22.68766851921449 -1 1 0
1539 2 2.4 23.509555163061275 4.358522161546004 24.217588623303335 -1 0 0
2037 1 -1.2 25.6663380024306 2.3816126852237125 21.3962483324195 -1 1 1
2108 1 -1.2 24.77279676077993 5.0471870731658415 24.811605589398646 -1 1 1
1540 2 2.4 0.9469037179976468 6.8926644585494525 25.60472291860454 0 0 0
1282 1 -1.2 1.1445895365046355 7.9052577520918454 24.274900318883294 1 1 0
480 1 -1.2 3.912060488958603 6.088966674383885 22.691530011627382 0 0 -1
82 1 -1.2 1.3754936294716016 5.998344081563964 22.70838937326254 0 0 -1
473 1 -1.2 6.339080959384007 6.683321074991052 22.598891295159095 1 0 0
1406 2 2.4 5.269250082538858 5.9636399938413325 23.986262866707026 0 0 0
13 2 2.4 7.996389256024527 6.1902452754877295 22.985932033025318 0 0 -1
1955 1 -1.2 8.889059681234489 7.549662358958045 24.013466000234956 0 0 0
349 2 2.4 10.009799412989384 8.345967911601264 24.77234948714043 1 0 0
847 1 -1.2 10.856993492005774 9.465766706222201 23.945956570537515 1 1 0
1066 1 -1.2 15.565977797884218 6.494119171742004 23.791898567838466 0 0 0
623 1 -1.2 17.96501735435799 7.62944411132333 24.043526007125575 1 0 0
902 2 2.4 16.472786397909417 7.618126200706053 23.0391132663701 0 0 0
653 1 -1.2 21.264548105534676 8.040798860943788 23.822717747030307 0 0 0
1181 1 -1.2 20.09335433737784 6.916836280435373 25.60600703315866 0 0 0
1923 2 2.4 19.694178157793786 8.26881712765174 24.56069728549285 1 0 0
833 1 -1.2 22.306301870366507 4.415856911922891 25.430744790772433 -1 1 -1
1321 2 2.4 23.854209604488943 5.363642425341806 26.22765222785446 -1 -1 0
1450 1 -1.2 23.776286471276865 7.0761033509434235 26.070403167304725 0 0 0
1011 2 2.4 0.708347098800216 9.558327607085472 24.21215190645735 0 0 0
645 1 -1.2 30.106611714844696 9.3160924194664 25.333020932333405 0 0 0
1313 1 -1.2 6.495039969899172 9.64895782580235 22.126009344731944 0 -1 0
621 1 -1.2 7.935540773390302 10.824753491184477 24.54222683534823 1 0 0
1706 2 2.4 6.4034622212000745 10.724162542255518 23.49636885864132 1 0 0
1961 1 -1.2 11.797461281968442 11.774269498464927 24.189062694694737 0 1 0
124 2 2.4 8.564625860172026 12.026838720088106 23.348758976616462 1 0 0
1922 2 2.4 12.037876403492861 10.54549008369933 23.349111005392302 0 0 0
2060 1 -1.2 13.407525136630289 9.983269381399827 23.85058083041761 0 0 0
924 1 -1.2 15.685189993534157 8.912452860126384 22.43731581613039 0 0 0
1083 2 2.4 14.811191890663906 10.059031833971396 23.348837176111875 -1 0 -1
1487 1 -1.2 18.15774318884344 8.807724218202178 27.430611981841494 0 0 0
202 1 -1.2 17.65040186722553 10.717196156539169 26.236692504345406 0 0 -1
2064 1 -1.2 19.984367795220567 9.699443404009662 24.99204860186012 0 0 -1
1259 1 -1.2 21.737300140204372 10.960078618354858 23.437731928451797 0 0 0
897 1 -1.2 23.014844671662296 9.694407876352075 25.31528491724294 -1 0 0
951 2 2.4 22.613701911489684 9.22491439220265 23.809241338301057 0 0 0
1886 2 2.4 23.854363992286444 8.643816352917613 26.09877784660855 0 0 0
108 1 -1.2 25.400192425149424 9.142211436033968 25.509869403511114 0 0 -1
1648 2 2.4 26.878528718581766 9.957885732311619 25.570943102391062 1 0 0
189 1 -1.2 29.801291776726572 6.966228503010644 25.9855172011954 -1 0 -1
1673 1 -1.2 28.07934798188842 9.531953478155728 26.752185589339074 0 1 0
1637 1 -1.2 1.9372808852905845 13.16327536794278 24.367708460062776 1 1 -1
976 2 2.4 1.1929617893686577 14.055562038783386 22.989921498490133 1 0 0
1809 1 -1.2 3.7348394438349577 12.376626513076037 25.89023307159878 0 0 0
821 1 -1.2 1.2903439166842388 15.643210703905181 22.43138676277579 0 0 0
1047 2 2.4 3.545604066216718 10.455645491306674 25.562987787401134 0 0 0
1903 1 -1.2 -0.10374404402146079 13.879375689626588 24.063188845130647 0 0 1
1593 1 -1.2 4.982093267786815 11.017052962307012 24.32771864188741 0 0 0
775 1 -1.2 9.389402040673215 13.42984640685312 23.703842974301278 0 -1 0
11 1 -1.2 11.892345098187198 14.592198211207931 24.006722088965173 -1 -1 -1
146 2 2.4 11.048744826474369 13.224224323126476 24.609309041063884 0 0 0
1522 1 -1.2 15.677097858003318 9.85143827000859 24.764490714645707 -1 0 0
736 2 2.4 16.394145815025553 11.082345697655994 25.51196733867692 0 0 -1
1917 1 -1.2 17.26550593068369 12.846227501338102 24.49227351733632 0 0 0
1615 1 -1.2 18.846060121046094 10.762995914643877 22.883396568665447 0 0 1
1491 2 2.4 20.030066486423276 11.104934764864625 23.660610572116095 0 1 0
1137 1 -1.2 26.453526183575587 11.17465863232419 26.807583632268134 0 0 0
1298 2 2.4 25.55830570260566 12.380516338089446 26.61044029376869 0 0 0
2052 1 -1.2 25.899369835885143 12.982196256371981 25.06212255933468 -1 0 0
1551 2 2.4 30.04700118673294 16.728552393317692 23.796587857571783 -1 0 0
1160 1 -1.2 0.48926291474151323 16.69509029924078 25.20715852060287 0 0 0
534 1 -1.2 4.016371914324327 18.944721636343818 27.957128128747478 0 0 -1
215 1 -1.2 4.4176592673470125 15.185862060684302 25.18087569669816 0 0 -1
207 2 2.4 3.066600322942147 13.69142310042112 25.565489735145928 1 0 -1
325 2 2.4 4.650975697105525 15.38107352690302 23.373171404152888 0 0 -1
1044 1 -1.2 12.83452081303852 17.21551623276571 24.730515506566068 0 0 0
509 1 -1.2 14.552166766414167 15.228171534858122 24.780411779126407 0 0 0
688 2 2.4 15.989557316644776 16.19277074010411 24.7908792820966 0 -1 0
1294 1 -1.2 17.185000770086774 15.303529248927772 25.119255973722264 1 1 0
1907 1 -1.2 18.94475153657625 15.247177567425162 23.332744799940482 0 0 0
721 2 2.4 18.281089904499584 14.217540314196945 24.53807758403305 -1 0 -1
1036 2 2.4 20.436078500489895 15.3393956483569 23.492522250317432 0 0 0
968 1 -1.2 21.290469954578608 14.372112318124447 24.33878433594988 0 0 0
626 2 2.4 20.58310383700202 13.362642277492812 25.42983779228921 0 0 -1
1976 1 -1.2 24.01556662476331 12.917205279394569 26.986834409559457 -1 0 1
1829 1 -1.2 28.055385299832068 16.860494559249517 20.215517006383045 0 -1 0
1621 2 2.4 4.210588296117598 18.134654055403892 23.693773880130735 0 0 0
1595 1 -1.2 3.058538091783688 17.888511087895463 25.21688255858088 0 0 0
1680 1 -1.2 3.96341719695195 16.62606499504131 22.980041468646018 0 0 0
2003 1 -1.2 7.878820415731433 16.79710503349513 24.727106297177464 1 0 0
347 1 -1.2 5.743524153706639 18.426400594818542 24.033744730371037 1 0 -1
1623 2 2.4 7.339224381814418 18.417702364179313 24.87445732113666 0 0 0
1028 1 -1.2 7.8914010505599945 19.476334877155587 26.03798488227389 -1 0 0
1958 2 2.4 12.410590495271668 18.870242285151928 23.48372389813336 0 0 0
1811 1 -1.2 11.571568807740302 19.2118593228971 24.882343382237195 0 0 0
1956 1 -1.2 15.05571924254804 17.174511977652767 23.61636056637544 0 0 0
2 2 2.4 15.993556191194127 18.835921153170247 26.76068876127176 -1 0 -1
1468 2 2.4 20.91825456096125 18.069410466281884 25.358825580005053 0 0 0
2133 1 -1.2 20.69925717438938 17.007163028768446 24.182808518073127 -1 0 0
993 1 -1.2 20.52865243058546 17.146527988303607 26.837961290628503 0 0 0
2054 2 2.4 24.158284883182606 18.937278457809995 24.915390683752566 1 0 0
1613 1 -1.2 25.86942027885513 16.961895186633857 25.95866777317365 -1 -1 0
209 1 -1.2 22.527475504024043 18.780508672144762 25.133549963940933 1 0 0
1350 1 -1.2 0.505096497385347 11.386813551784893 25.840910514066024 2 -1 0
1634 2 2.4 26.39469781870978 17.482152206352676 27.456347095411235 -1 0 0
1949 1 -1.2 2.0374128375321012 22.454925196572564 23.972866049225154 0 0 0
323 1 -1.2 2.357256189332216 20.326059559164797 25.92917108549491 0 0 -1
1046 2 2.4 1.9906902147772179 22.00584263675744 25.424619730206516 1 0 0
2004 1 -1.2 4.094834531947296 19.01819794262233 22.02624200174204 1 0 1
854 2 2.4 4.073466418791769 24.027444606434702 25.373773686742226 1 0 0
1747 1 -1.2 8.25847212822957 19.136503921740285 23.709227567097827 0 -1 0
171 2 2.4 14.432541333069093 24.289116445803614 22.683537799863934 0 0 -1
175 1 -1.2 14.641763736351917 23.430722566581473 24.060413756312816 0 -1 -1
1212 1 -1.2 14.609687224476446 19.398357655599295 26.174296719322193 0 0 0
1513 2 2.4 18.506027737110802 19.55490273647103 26.06494880372828 0 -1 0
105 1 -1.2 16.988509888841044 20.16837380308974 25.646447867815212 0 0 -1
1315 1 -1.2 19.776270349687042 20.62414777895431 27.15488298415129 0 -1 0
1857 1 -1.2 19.66981336129334 18.94043770530552 25.030877841012686 0 0 0
1253 1 -1.2 23.980504694088264 20.59662681186127 23.754554711769032 0 0 0
1644 1 -1.2 26.956491681737127 19.07895973238948 27.072678943761982 0 0 0
1252 2 2.4 26.933365081696643 20.34156936000356 28.064360299851504 0 0 -1
776 1 -1.2 28.082441247650106 21.348870087125103 28.101109533684337 -1 0 -1
142 1 -1.2 0.2883641941271041 21.961456701797097 25.437032449827818 1 -1 0
1136 1 -1.2 3.0996794270386516 22.860077013751948 26.37504688778904 0 0 0
872 1 -1.2 7.0627443079210055 21.092582542897485 24.77901425814639 0 0 0
1299 2 2.4 9.781760628351712 25.23366750153971 24.532461933061388 0 0 0
356 1 -1.2 8.564884162558725 24.11451082355126 23.90001061019474 1 0 0
575 1 -1.2 11.268198620096047 25.64772019259942 23.216040870415874 1 -1 0
273 1 -1.2 13.891918314556401 25.87060549069825 22.474899354662625 0 0 0
431 1 -1.2 17.655756879908424 22.43195536646108 23.567295821572753 0 0 -1
1687 1 -1.2 23.231080061262276 21.785193460098828 25.51556043710696 0 0 0
1614 1 -1.2 21.197903256380364 21.289266437602 24.156888495172502 0 0 0
1300 2 2.4 22.5208354137583 20.540471152798805 24.378718449256787 0 0 0
115 1 -1.2 25.81539110874029 25.10879866374584 28.284732029229303 0 0 -1
1238 2 2.4 25.847906735406223 23.5705106125924 28.524737479892572 0 1 0
1410 1 -1.2 29.139594513610625 26.38511094078555 26.993294132374047 0 -1 0
576 1 -1.2 4.491981311005484 24.571251544246167 23.806412503625985 1 -1 -1
1834 1 -1.2 8.832173215158802 26.25884415435194 24.88033387491648 1 0 0
494 2 2.4 8.525759029984714 26.760569479688872 28.43630434870102 1 -1 0
80 1 -1.2 8.578073327058146 27.92332111008698 27.21545540324451 0 -1 0
1338 1 -1.2 13.153836805557125 27.94537007748492 22.52847693450254 0 -1 0
14 2 2.4 12.764225754224997 26.585142443915036 23.239391024859493 0 -1 -1
1859 1 -1.2 16.59838581661178 27.546396855420024 21.692113544305148 0 -1 0
1088 1 -1.2 17.845132089278902 27.620001459038733 23.839152191685216 0 -1 0
1639 1 -1.2 17.01880121733814 27.910105090183094 27.479073793452613 0 0 0
1888 2 2.4 17.018087787510837 27.35085634926575 25.134963883296876 0 0 0
1718 2 2.4 18.490060420929737 23.742573025719903 23.755407203708014 0 0 0
378 1 -1.2 18.184085240040833 25.153415519176963 22.701828085167556 0 0 -2
344 1 -1.2 20.8097470744002 23.324906462700298 27.783813293662334 0 0 -1
93 1 -1.2 25.81499471599901 22.248351694795087 27.491011776375807 -1 0 -1
274 1 -1.2 29.31274810405413 29.497759668552426 22.899923878226932 0 -1 0
1930 1 -1.2 1.3342469611009864 0.35960661000995514 27.33388428874805 1 1 0
1693 2 2.4 0.2873859852630257 29.48718846839205 26.990663782216235 0 -1 0
1034 2 2.4 2.8005398525587464 30.10432408126997 26.992113561916593 1 0 0
1855 1 -1.2 2.823304077992884 28.457174353072787 27.84546187663448 1 0 0
2120 1 -1.2 7.198878798440399 30.354004091743004 26.892492272460075 0 0 0
1999 1 -1.2 8.490627609485877 29.573808346630983 24.993810796853204 0 0 0
1552 2 2.4 13.087137928898521 28.63824867398791 21.17063003492948 0 0 0
1571 1 -1.2 16.71704767154297 30.308492502230862 26.666776534506027 0 0 0
95 1 -1.2 17.834300987627557 0.415409598832894 24.784370973174077 -1 0 -1
2099 1 -1.2 22.716773354409746 30.02259832012076 23.811197183999205 -1 0 0
1030 1 -1.2 26.367105377525316 28.153333834783805 24.125814362142947 -1 0 0
1192 2 2.4 22.16955958343777 24.04070552186854 27.259317776521872 0 -1 0
416 1 -1.2 25.206263967239458 0.20051989007989887 24.95455327645135 0 1 0
505 2 2.4 26.200475445104924 29.252558866257342 25.54819807067204 0 -1 0
583 1 -1.2 0.8333330775276468 27.992462263123915 26.2244769002696 0 -1 -1
1284 1 -1.2 27.348616065104277 28.739145624943788 26.293496800833864 0 0 0
1819 1 -1.2 2.6482646631979416 1.5605133635016895 29.46415887915002 1 0 0
266 2 2.4 4.359214009983858 1.5075211616307183 29.326068558923495 1 0 -1
1871 1 -1.2 4.300284625040153 0.2480692334967869 27.967087531076245 1 0 1
1544 1 -1.2 2.6972836400882922 30.233681389064326 25.379737416112114 0 0 0
797 1 -1.2 10.374391914164558 2.1636240660024937 26.655320279431766 -1 1 -1
1767 2 2.4 10.62733555396939 2.9249558099525306 25.036690569189577 -1 0 0
244 2 2.4 8.876059827145513 1.405541719387087 30.30161579567244 0 1 -1
1411 1 -1.2 13.427645871847194 2.1785522796587227 29.1656271021668 0 1 0
1850 2 2.4 17.17051448999482 29.36884040448834 27.940317319588456 0 -1 0
546 1 -1.2 15.923255281573157 29.79856804228979 28.79357981170786 0 -1 -2
2127 2 2.4 19.293162449163148 -0.0484633273622307 29.87067370262214 0 1 0
2142 1 -1.2 20.79039610601579 0.1023055135535917 28.801104428654668 0 1 0
1232 1 -1.2 22.781495023882666 28.298644606390237 28.942013117225734 0 0 0
1729 2 2.4 21.85904311532937 29.270669251846655 27.93949982259245 -1 -1 0
603 2 2.4 26.478743972026834 1.911852588453402 27.206028356985325 0 1 -1
370 1 -1.2 25.24296709808604 2.856130101531046 27.925570168585015 0 1 0
249 1 -1.2 27.43957090396039 2.9609033652776606 28.12599278813764 0 0 -1
925 2 2.4 3.8402083663470155 0.9224283343992689 24.876121551491885 1 0 0
510 1 -1.2 4.174115251398624 2.1062261461247433 26.031438651995444 0 0 -1
1951 1 -1.2 9.020636094259775 2.3952241413370037 24.401472339592516 0 1 1
762 1 -1.2 11.145269432846845 7.032102991035045 25.275063235095317 1 1 0
620 1 -1.2 12.714453696952829 5.010595999423818 26.42497770509989 0 0 0
2032 2 2.4 14.249849579019388 5.26870110423256 27.179978772652877 0 1 0
164 1 -1.2 15.139887863331168 3.9242686586969535 27.06277931338729 0 1 -1
92 1 -1.2 18.167931091980822 29.866326339131952 29.033521450805406 -1 -1 -1
333 1 -1.2 20.912751823389684 4.637836539103295 27.484556902904487 0 1 -1
1288 2 2.4 19.79906873726663 5.615973259774071 26.732305206817717 0 1 0
133 2 2.4 21.94508433839679 4.974938088935558 28.63708881710452 0 0 0
55 1 -1.2 26.811716990502145 5.478287529876995 28.15618956630182 -1 0 -1
339 2 2.4 26.1639720242537 4.018769286461961 28.73206740383932 0 1 -1
1938 1 -1.2 2.1364457576170324 6.866964419738996 26.723855381524704 1 0 1
1117 2 2.4 3.4621606004254373 6.437821314225012 28.000476081153785 0 0 0
931 1 -1.2 2.6438201332205606 6.666912231556098 29.400778657884473 1 0 0
1059 2 2.4 5.208208369529986 3.4395943341092408 26.730590878071837 1 0 0
921 1 -1.2 4.339064499533588 4.965659572946975 26.8671246862747 1 0 0
1149 1 -1.2 6.595667371940834 3.8175692018740635 25.99318788965766 1 1 0
1328 1 -1.2 4.841701542530876 2.7666914835035983 28.465228074555593 0 0 0
1682 2 2.4 8.229481692594529 8.499925877798015 27.055993506102176 0 1 0
1770 1 -1.2 8.450900261936008 7.098000864016056 28.088268552610785 0 -1 0
1712 1 -1.2 9.471965078167415 8.78305916361192 26.20968309596999 0 1 0
1656 1 -1.2 13.473853980546284 5.749500863194253 28.625618103024486 0 1 0
1535 1 -1.2 19.214618841855543 6.240153129516509 28.007292074444276 0 0 0
1960 2 2.4 17.696019690626194 7.22211598923296 27.859293567823617 0 0 0
501 1 -1.2 22.50646175908173 6.806868850305796 28.89975788681424 0 0 0
390 1 -1.2 23.461748363324993 4.88813938650467 27.8285423262612 0 2 -1
1720 2 2.4 23.567434627433148 8.211234238309197 28.960480656060433 0 1 1
2129 1 -1.2 24.06533309006998 9.085601677590518 27.806062289308404 0 1 0
163 1 -1.2 27.770664742129195 7.953249755948794 29.67123034308905 0 1 -1
680 1 -1.2 4.509435857772173 7.432540339871883 27.68669369607416 0 0 0
1934 2 2.4 5.032983433584375 8.271475981364002 26.358245610599436 1 0 0
492 1 -1.2 2.4555473198314948 9.783815566388645 24.86237368635877 0 0 -1
1068 1 -1.2 5.137763805767716 7.037011656488018 25.355441090135145 0 0 0
464 1 -1.2 4.273813858430156 9.523143146103623 26.93692561863615 0 0 0
1103 1 -1.2 8.727191173492606 10.036421570607642 28.068236228226926 0 0 0
1479 2 2.4 18.041810862620004 10.234164350274774 27.775787512504447 0 0 0
286 1 -1.2 15.909750110765934 7.651818442108622 28.59238802703217 0 0 -1
120 1 -1.2 29.959539426360156 9.029696525549195 28.453084624164852 0 -1 -1
1766 2 2.4 29.50977508054476 8.775311141323742 26.66175819652673 -1 0 0
1913 1 -1.2 1.4536895021591578 12.806193451952891 21.772648622742512 1 0 0
1208 1 -1.2 11.47186885259392 13.889954698457824 28.2978211436133 0 1 0
1604 1 -1.2 10.451491956810145 13.033012676692548 26.130034545828206 0 0 0
470 2 2.4 11.72400498471442 12.84528915141394 27.039127610507144 0 0 0
1517 1 -1.2 13.231938678144164 13.029592092420772 26.460795543790297 -1 0 0
856 2 2.4 14.426540340592194 12.574124710130201 27.268332368323417 0 0 0
1379 1 -1.2 15.388805417762406 11.919117796608495 26.297700842741683 -1 -1 0
2034 1 -1.2 19.28424941358664 11.211338659001528 28.037651544477825 -1 0 0
1147 1 -1.2 19.62357423466686 12.52202609861713 24.46319372760535 0 0 0
2067 2 2.4 22.569135500279142 12.774298633298331 27.673236839994527 0 0 0
294 1 -1.2 22.19218897933102 11.284412107155072 28.142798392232493 -1 1 -1
545 1 -1.2 22.922047389207485 13.913211080154799 28.87632017880416 0 -1 0
2035 1 -1.2 26.473051835466546 13.548112873917121 27.342530361821535 0 0 0
1813 2 2.4 26.41134653480765 13.867863191405561 28.84079551726762 -1 0 0
1435 1 -1.2 29.479604212763853 12.77977496904077 31.429217687958797 0 0 0
1495 1 -1.2 29.89896687690193 15.484776457435107 27.427224989442326 0 0 0
12 1 -1.2 4.242895624634364 15.91836150328162 31.05817599859045 0 0 -1
367 1 -1.2 5.119095718675545 16.336466965791114 28.36333305665797 0 1 -1
1045 2 2.4 5.503974525110473 15.443020798079212 29.8874589278813 1 0 0
1507 1 -1.2 15.995810012172257 17.382179696223265 25.915449047868965 0 0 0
1891 1 -1.2 14.892735258977575 15.25545998007571 30.161979456355734 0 0 0
1856 1 -1.2 19.316188419217582 14.40791811208683 25.863314751575206 0 -1 0
1116 1 -1.2 18.205324525650408 16.751049272483357 28.89295565445291 1 0 0
718 1 -1.2 21.38575296219534 13.38730794753187 26.660894728761512 0 0 0
406 1 -1.2 25.630780824798233 14.959096105635432 29.52816514005998 0 0 0
1174 1 -1.2 28.335995139932304 14.253231907103165 28.94793550678 -1 0 0
172 2 2.4 28.822580795222322 15.677285013290247 28.554197162995155 0 0 -1
1058 2 2.4 0.971228254532675 15.679101394265052 26.654267681382493 1 0 0
178 1 -1.2 2.5238480655898554 16.120202121432804 26.938882046691646 1 0 -1
681 1 -1.2 1.5226872899276098 13.589933091943927 26.59054558361478 1 0 0
697 2 2.4 2.8848739571554636 18.75310097535871 26.668806558959492 1 0 -1
250 1 -1.2 1.5360040448696228 18.518943859213937 27.39242177885028 1 0 -1
1581 1 -1.2 5.1007996992152815 18.390562687925254 30.22424147687414 1 0 0
1060 2 2.4 5.281368561428019 17.862976667911347 28.76248226432203 1 0 0
1986 1 -1.2 6.942898233822248 18.571553021692363 28.26833890862515 1 0 0
1906 1 -1.2 10.919804987095548 17.52800425165813 26.703479804807042 0 0 0
375 2 2.4 7.244296688942814 20.17348246976745 27.487945603935117 0 0 -1
1335 2 2.4 10.981604840376752 19.04146346075535 26.934978892539863 0 0 0
1356 1 -1.2 12.497006407161042 19.66101169362638 27.190875266083307 0 -1 0
1476 1 -1.2 16.185284168635242 18.735943687700427 28.38776644311446 0 0 0
862 1 -1.2 18.31965495404952 17.95334161481528 26.89632719622577 0 1 0
1152 1 -1.2 20.443727834372506 18.17705443387646 29.117011297894255 1 -1 -1
582 1 -1.2 21.05173469034606 21.176235203481124 29.838883312565546 -1 -1 0
712 2 2.4 24.737088622042094 16.36263950300682 29.555106188583377 0 0 0
840 1 -1.2 24.63940506389211 17.380786159263167 28.413027284881405 -1 0 -1
1661 1 -1.2 27.793063017820412 17.04610060088193 28.118479003678853 0 0 -1
1402 1 -1.2 5.384649754398628 23.123495804707048 25.47667127633054 1 0 0
934 1 -1.2 6.087552952862194 21.036398837463196 26.89693927664868 1 0 0
2150 2 2.4 9.27130290725909 23.94177552065884 26.872159173074653 1 0 -1
641 1 -1.2 8.333374579448199 20.54957688385339 29.02754605972261 1 0 -1
1319 1 -1.2 10.364966789223972 20.645326831857723 27.404501989788166 0 -1 0
1528 2 2.4 14.367748872652857 23.36827574135616 25.788183985722256 0 0 0
627 2 2.4 13.847214061813306 20.47689174655802 26.846647856417245 0 0 -1
813 1 -1.2 13.091626942455193 23.959349271248676 26.352023395135316 0 0 0
2128 2 2.4 18.984845884551643 18.1820614360098 28.408993368860273 0 0 0
79 1 -1.2 25.068253942450163 19.809617976628246 26.005005354683263 -1 -1 0
1359 2 2.4 22.498594474446758 20.245277386032495 29.80114524091025 0 -1 0
1008 1 -1.2 25.96922293045643 19.59919664956723 29.412029686246594 0 0 0
1199 1 -1.2 4.621208599160074 25.302336068191966 26.810770522147987 0 0 0
1744 2 2.4 4.115436466634709 25.42765465426331 28.38967050833378 0 -1 0
1496 1 -1.2 2.513168502086176 24.256411424221703 28.541969291002182 1 -1 0
1509 1 -1.2 3.6347737704852454 26.81575797426816 29.30436033394488 0 -1 0
291 2 2.4 6.6614693885298415 22.41755112136816 25.941479984780305 0 0 -1
593 1 -1.2 7.645190762745045 23.63418715843349 26.635961268179443 0 0 -1
1211 1 -1.2 8.989960850691089 25.545778324193215 27.617602219842503 0 0 -1
696 1 -1.2 10.2083221784236 23.50637546673092 25.598982866110163 1 0 0
1510 1 -1.2 8.980201522121027 22.86903222054926 28.235245221363115 1 0 0
682 1 -1.2 13.981698836761 21.68097729700491 25.809562914378652 0 0 0
835 1 -1.2 15.837713843963614 23.796030086437998 26.427849869409968 1 0 0
793 2 2.4 11.834950824835266 24.321766621566628 27.05251244330872 0 0 -1
1694 2 2.4 19.229489711878006 21.1767746063721 29.033919329464922 0 0 0
662 2 2.4 23.458589709176223 21.711262407839886 27.291520816090628 -1 0 -1
1846 1 -1.2 23.577025213067856 20.632344756058643 28.492186095957578 0 -1 0
59 1 -1.2 17.473217387594797 25.316966999902547 27.24394047047042 0 -1 -1
1735 1 -1.2 26.49392561656038 23.362567844419175 29.95568518169143 0 -1 0
36 1 -1.2 29.20978579790906 29.510958038883583 28.426834104324534 -1 -1 -1
2137 2 2.4 0.18578997742001774 26.60411812899041 27.96080222335987 1 0 0
1845 1 -1.2 -0.03550124649596671 26.2381770208874 30.59107586856268 1 0 0
455 1 -1.2 0.3004202498656321 28.09049102789345 29.06307039025901 0 -1 0
958 1 -1.2 1.3212905574527787 25.72747568109882 27.76400460777372 0 -1 0
183 2 2.4 4.074247348224169 28.34288055747751 28.541202778499365 0 0 -1
1170 1 -1.2 9.707731641373645 27.480650679434987 29.430231263245865 1 0 -1
1827 2 2.4 13.030173238373298 26.976450046504322 26.414165077234895 0 0 0
404 1 -1.2 11.843462799703307 25.773431658340186 27.439323680998996 0 0 -1
1146 1 -1.2 16.04758241542844 25.997856335696344 25.273829440872564 1 0 -1
251 1 -1.2 14.445370911039578 26.283804725803474 26.912816666321117 0 -1 -1
2053 2 2.4 15.947984599266094 25.4554848800992 27.075876468865616 0 0 0
957 1 -1.2 15.509644800195641 25.18348400668543 28.631740320213037 -1 -1 -1
1073 1 -1.2 18.874250861662784 23.926200899970766 25.217992223406448 0 0 0
913 2 2.4 19.14280748292512 24.361885232830268 26.92284723865096 0 -1 -1
1278 1 -1.2 20.473810198680056 25.664810703976777 26.356941876224273 0 0 0
557 1 -1.2 6.783397721308098 -0.07535389854489868 29.80194548844782 0 0 -1
1108 2 2.4 8.407069684840557 29.408169866277163 26.458757459759866 0 0 0
1306 1 -1.2 5.539105194245649 28.362993616781498 27.644415363250328 1 0 0
1599 2 2.4 6.148417956398918 29.79203899852245 28.040577909840046 0 0 0
2132 1 -1.2 9.73862999781801 30.242644494865665 27.079483344581973 0 0 0
285 1 -1.2 12.182442478972868 28.172692975191808 26.853180761684012 0 0 -1
519 2 2.4 12.496769044473062 30.15323400648873 25.822796166294687 0 -1 -1
1546 1 -1.2 12.183867267323647 26.90809683117232 24.911334908934403 0 0 0
906 1 -1.2 22.84053693242501 25.552894502217843 26.864424970224153 0 -1 -1
1849 2 2.4 21.681108344833465 26.79846183395949 26.13545826372259 0 -1 0
990 1 -1.2 22.37854236609083 27.71082689854955 24.976278192586552 0 -1 0
1763 1 -1.2 20.67094184311151 27.792747832872635 27.723393590347772 -1 -1 0
1054 1 -1.2 26.24237273550619 0.5107164447708202 28.11124989220186 0 1 0
442 1 -1.2 26.250130064756057 28.9047078549126 29.215223212887253 -1 -1 -1
87 2 2.4 27.70685820163244 30.08302730256867 28.729660085067344 -1 0 -1
1057 2 2.4 1.1596233128544597 2.086970837003604 29.783602903932046 0 1 0
463 1 -1.2 -0.11683703792200362 1.3063442901581979 29.615304817583517 0 0 0
58 1 -1.2 1.16306808998903 2.769474853249731 31.599449441866387 1 0 0
1020 1 -1.2 4.772950996413998 1.3648854628708642 30.98843562129478 1 0 0
2149 2 2.4 5.463328394134586 29.956783764865474 30.94460945782018 0 0 0
1921 2 2.4 4.619274379562694 2.78529197346473 34.324717972607004 1 0 0
692 1 -1.2 10.430990793785778 3.699155367114608 31.091128102794762 0 0 0
633 1 -1.2 6.240789993058132 2.2545498732002134 34.47043658728164 1 0 -1
730 1 -1.2 9.986640920568567 1.512471789891258 29.038951190276403 -1 0 0
1466 2 2.4 10.765380712248797 0.9129230024704332 27.43294624026087 0 1 0
179 1 -1.2 13.002893266615596 0.5702718959935302 27.160274049507713 0 0 0
1704 1 -1.2 13.39806104352321 0.39543956302070693 30.267987264463056 0 1 0
889 2 2.4 15.001732806723133 0.3742746924951496 29.654489984144696 0 0 0
151 1 -1.2 15.454336279602684 1.7007584472288402 28.513240190250357 -1 0 -1
46 1 -1.2 18.46348279287202 1.188252798542671 30.58264682887785 0 0 -1
50 2 2.4 18.520080770129287 2.707835557242748 31.4653604253246 0 0 -1
562 1 -1.2 19.5405780714849 3.8826931359682337 31.28093162981324 0 0 0
1657 2 2.4 24.810870760055003 3.361454973552158 31.249852119994927 -1 1 0
177 1 -1.2 25.480774228911564 4.271135025707424 30.13074010489304 0 1 0
1317 1 -1.2 26.516005202251026 2.9179860978272254 31.752834560508962 0 0 0
1469 1 -1.2 3.2270872013906837 2.5729591115142667 33.655658175449155 1 1 0
1633 2 2.4 30.12531901706715 4.240671111656025 30.429253644930657 -1 1 0
1944 1 -1.2 0.7760501543766263 5.412007697440478 31.058573517650913 1 0 0
1833 1 -1.2 0.8030205034441183 3.524146996551018 29.150948952268244 1 1 0
1864 2 2.4 2.4125031013611338 4.269718290663982 32.91764158529827 1 0 0
213 1 -1.2 7.7278770703270565 3.2361017428562704 30.34804538646902 1 1 -1
1177 2 2.4 9.075990943324193 4.193807673293867 30.2696754462941 0 1 0
1655 1 -1.2 7.884591146728691 5.683121020600199 30.544104098394904 1 0 1
1348 2 2.4 9.516375030008529 6.096212813754558 28.79829793662576 0 0 0
1098 1 -1.2 9.420339864412927 4.627257727841921 28.51903508766102 0 1 0
1132 2 2.4 13.031922925660588 2.5947812154459595 30.603837417223676 1 1 1
668 1 -1.2 13.945459261133587 2.212837221267039 32.20864958878699 0 1 0
1659 2 2.4 16.212051961217927 2.9470961770853643 27.98949902287524 0 1 -1
753 1 -1.2 16.9845582596855 3.1419671571371013 31.444890118083478 0 1 -1
1202 2 2.4 16.55777193002879 4.590867374249327 30.836050841571346 0 1 0
1266 1 -1.2 16.903232434440365 4.106279695421393 28.86739378742755 0 1 -1
438 1 -1.2 21.82972380500246 3.8346485156567756 29.772934545027255 -1 0 0
1972 2 2.4 21.127457961258678 4.081605907754665 31.176867896568602 0 1 0
1889 1 -1.2 21.365537601275353 5.886583486437414 31.87348040948928 0 1 0
612 1 -1.2 21.9024589287392 2.8868997998368027 31.997437509677102 0 0 -1
44 1 -1.2 23.75781456388324 7.114266870993766 32.63956409044514 -1 0 -1
1916 1 -1.2 28.550852493362555 4.87788108225733 29.783402995643126 -1 0 0
1862 2 2.4 28.000959668615575 2.230319036113382 31.761783424657843 0 0 0
1264 2 2.4 2.286051712131536 5.984534448996775 30.886578779712593 0 1 0
1879 1 -1.2 1.627381354057752 7.509051200571253 31.209432229762832 0 0 0
2024 1 -1.2 3.187590958701208 5.559459051236547 32.14437478300136 0 1 0
360 1 -1.2 6.811073813761073 8.417190140005198 26.37377811241723 1 1 -1
1908 1 -1.2 10.638637845569091 7.161856080114184 29.08839001675395 0 0 0
2068 2 2.4 13.98549456640771 5.553984238843147 30.976284520157083 1 0 0
1079 1 -1.2 13.045655572984492 4.15361613291539 30.426591295688596 0 0 0
1235 1 -1.2 17.518452679931762 6.142330610680169 30.98493254363087 -1 1 0
964 2 2.4 25.024785403761843 7.685935301550134 31.726190154642964 0 0 0
192 1 -1.2 24.791922876381722 8.41796620948233 30.224908466227628 0 1 -1
1096 2 2.4 27.66176688943725 6.3117712037852485 29.494153056353863 -1 0 0
89 1 -1.2 26.553489823237555 6.542203899530188 30.901180967669944 0 0 -1
384 1 -1.2 25.640795670172324 8.955912893713181 33.02705906887017 0 1 -1
2025 1 -1.2 0.43152870491843315 9.02055685728377 33.073353477949205 0 0 0
1660 2 2.4 0.3709571957448921 8.028940563531094 31.808066342842135 0 0 0
1032 1 -1.2 6.994580895552906 11.34852140510266 29.048351002095455 0 0 0
1816 2 2.4 6.301085177943013 12.232762267851212 30.15854176358368 0 0 0
1628 1 -1.2 10.5099803156831 12.064318549913375 30.685198871099633 0 -1 0
242 2 2.4 7.69856701227927 9.757686141941338 29.335262982416502 0 0 -1
820 2 2.4 10.14788026992313 10.66811355892985 29.5157130312445 0 1 -1
1795 1 -1.2 8.773543932452501 10.020194606483976 30.42455621985748 0 0 0
114 1 -1.2 11.439070084574746 10.124940081423041 30.48473113590007 0 -1 0
1376 1 -1.2 15.158824365490693 10.098265769275185 30.346095850115518 0 0 0
182 2 2.4 16.17284469876862 9.196967815551782 29.310370015913996 0 0 -1
1750 1 -1.2 17.557328122146085 8.820644749609762 30.512684638342296 -1 0 0
2101 2 2.4 21.700540695906433 9.804244428245923 31.212122692907933 -1 0 0
848 1 -1.2 20.935005316405025 11.414304154151688 30.774013044039712 0 1 -1
1746 1 -1.2 22.23854520345873 8.676788449011251 30.09989620039547 -1 0 0
430 1 -1.2 27.715845350511888 10.725741506343452 29.655153181556415 0 0 -1
66 1 -1.2 30.12571569045906 9.408938904003213 30.991366811019528 0 0 -1
1405 2 2.4 28.924331716151716 9.43063414709341 29.557942256262073 -1 0 0
204 1 -1.2 30.05263579866518 11.709379134677357 33.598657733432475 -1 0 -1
1091 1 -1.2 4.163067821016365 12.187675707608522 30.391660166788032 -1 1 0
1936 2 2.4 3.6325273991861207 11.087435463754455 31.39768972016055 1 0 0
536 1 -1.2 6.541117854951212 14.049735933250163 30.78983831513068 0 0 -1
2081 1 -1.2 8.841643479043134 14.30559287219568 29.488376906319008 0 0 0
615 2 2.4 10.01954306433908 13.24639289792194 29.80247516031602 0 0 0
1901 1 -1.2 10.31083702325606 14.105266399022645 31.49347283299804 0 0 0
1440 1 -1.2 9.789774454857918 11.90729343875149 28.203781102162395 1 1 0
1842 1 -1.2 13.578564521737924 11.455085564237779 28.296738085146586 1 0 0
484 2 2.4 14.164803374513486 11.324730522101614 29.9659978603997 0 0 -1
1055 1 -1.2 13.38661751972302 11.24551369149778 31.572811755358828 0 0 -1
525 1 -1.2 16.589736155193894 10.440228299713322 28.544858157563834 0 1 -1
373 2 2.4 20.269571880046527 11.678269366363251 29.38845494317462 -1 0 -1
420 1 -1.2 21.169244048254196 14.6636590925353 34.513185107366134 0 1 -1
1234 1 -1.2 22.864758812629987 9.71050418343257 32.70860627063955 0 0 -1
1559 1 -1.2 26.542478850117007 12.73717147386328 29.74678278115517 -1 0 0
1297 2 2.4 27.835981278004667 12.092953615806637 30.578659438542434 -1 -1 0
1438 1 -1.2 27.42287324685787 11.651032193769801 32.388479512554206 0 0 0
1015 1 -1.2 1.9496428847899498 14.883647390832484 31.491851169741555 -1 1 0
974 2 2.4 2.5285647090754577 16.216138267621197 31.039759353653793 0 0 0
1390 1 -1.2 1.9347949416339503 17.015567084334815 29.96133468331829 0 0 0
1485 1 -1.2 7.133560192639364 16.32955184739063 29.85554300593687 0 0 0
2050 1 -1.2 2.805946840995498 17.1446551212565 32.4695405093172 1 0 0
1723 1 -1.2 9.112571558233515 16.443587795783813 28.03872185910652 0 0 0
853 2 2.4 8.65872882093723 15.810062125635172 29.432815273671082 1 0 0
694 1 -1.2 11.996371419911068 15.918521926367339 29.822625174151476 0 0 0
1395 2 2.4 14.01174889386796 16.651734363857567 30.284225598874805 0 0 0
1565 1 -1.2 15.4472303326248 13.611109166974382 27.93583067237665 0 1 -1
861 1 -1.2 19.48139151730368 13.124675778589713 29.707127772498495 0 0 -1
1397 1 -1.2 19.151383502776767 15.199122608596737 31.196202727527933 0 0 0
1586 2 2.4 19.846164957613045 13.83629425661013 31.304845763178403 0 0 0
1679 1 -1.2 21.37626692882957 14.123890064174494 31.19092284407736 -1 1 0
1303 1 -1.2 20.7990636030389 15.846862212811608 29.009126105400306 0 0 0
685 2 2.4 22.190114104065714 14.923526090789814 29.885991876189745 0 0 -1
18 1 -1.2 23.34377196053314 16.116158862741838 30.4757836298561 0 0 0
258 1 -1.2 29.865213676049457 15.846466972592465 30.187153092640806 0 0 -1
37 2 2.4 1.4349492970120528 18.41178219963712 29.017490221336715 0 -1 -1
1902 1 -1.2 2.276357844277589 19.804379438140888 29.8442878608351 0 0 -1
2157 1 -1.2 11.10481165984072 18.154504904314965 29.432868296288593 1 0 0
2031 2 2.4 10.994543457275578 16.815295792593524 28.534950788671427 0 0 0
1465 2 2.4 11.51968634033031 17.232762444595796 30.7912139553364 0 0 -1
1229 1 -1.2 12.991056233708896 16.97013809066788 31.798019448324816 0 0 -1
1454 2 2.4 21.396198975111766 17.212304211894384 28.190088936484717 -1 0 0
269 1 -1.2 22.62086320968847 19.331932546000015 31.153498912560487 0 0 -1
1776 1 -1.2 26.287926412303797 16.98116876710002 30.501296216275517 0 0 0
1062 1 -1.2 28.215559717376763 16.053951786875544 32.25365950396285 0 0 0
504 1 -1.2 28.32734805607971 18.28799556431071 30.831724357148545 0 -1 -1
1154 2 2.4 29.101863371489706 16.890346226162478 31.30824729781175 -1 0 -1
613 2 2.4 1.41160563884678 20.88284661716726 30.718807219357252 1 -1 -1
1817 1 -1.2 30.243537926893843 20.595906179057124 30.884508766611905 -1 0 0
220 2 2.4 28.71801157246737 20.27797706687545 31.97852924754061 -1 0 -1
716 1 -1.2 29.727406236147147 20.50767493441153 33.25382299352217 0 1 -1
825 1 -1.2 2.482459628483944 22.29341745578227 30.655054374387664 1 0 -1
2078 2 2.4 9.767273970261254 21.57666490873932 28.867214752550442 1 0 0
755 1 -1.2 9.735253416155105 20.912255960839286 30.5073819826099 0 0 -1
765 1 -1.2 14.071605463661509 17.921511240091455 28.95770029398042 0 0 -1
31 1 -1.2 11.81304480656104 23.35572900932658 28.25380852559086 0 -1 -1
1904 1 -1.2 14.097484103051006 20.709229533977563 28.858598359723167 0 0 0
1874 2 2.4 14.680410042593675 19.30303067084503 29.349621952612818 -1 0 0
1560 1 -1.2 16.00849880741748 20.75416348656569 0.1880461114969639 0 0 1
1436 1 -1.2 15.200502863457933 19.224801197263925 30.9948293746846 0 0 0
1797 1 -1.2 18.56087695946463 19.612496638778126 28.94702930269598 0 -1 0
1652 1 -1.2 16.44229071505312 20.770389755238966 32.90934703320641 1 1 0
369 1 -1.2 18.824041585867267 21.63269849143991 33.08070157458654 -1 0 -1
1786 1 -1.2 22.486300515879137 18.234089228738966 28.306153205901385 0 -1 0
1947 2 2.4 26.62863960697197 18.61592462362383 30.57614256723873 -1 0 0
1439 1 -1.2 26.21211924417509 18.948192889697964 32.19634680537513 -1 -1 0
212 1 -1.2 27.35572545180884 21.830921101520726 31.61270920129676 1 0 -1
1447 1 -1.2 1.0139265116029499 23.8899008636772 30.714945404465254 1 0 0
303 2 2.4 -0.10371117218880244 24.968413821342065 31.540209063568152 1 0 -1
391 1 -1.2 3.8315463304501045 24.536134402800926 30.39110627523403 0 0 -1
1585 2 2.4 2.378782415794577 23.85489311372458 30.02372034147653 0 0 0
1742 2 2.4 5.234425693955285 25.052778179251963 30.846118127841834 0 -1 0
636 1 -1.2 6.17353818605903 24.47047057639052 32.02620196375433 1 0 -1
1151 1 -1.2 11.192312002008366 22.563225627427002 30.534742698352556 0 0 -1
674 2 2.4 11.533788772673207 23.99197602898826 29.74937451840985 0 0 -1
1698 1 -1.2 10.207838488463711 24.919948970536552 30.400022190137946 0 0 -1
809 1 -1.2 13.151807188073166 24.769588289018944 30.39585993598375 0 0 0
94 1 -1.2 18.51539467708981 22.370245232138362 29.65825221234923 0 -1 -1
1854 1 -1.2 16.864341191982685 23.28092868993278 31.905159736946484 1 0 0
1909 2 2.4 18.66302739744551 23.161169546637804 32.472522294729345 0 0 0
287 1 -1.2 19.588802615712115 24.282923812025487 31.742555068468185 0 0 -1
43 1 -1.2 22.3332284643781 24.378255204507514 31.777334941734146 0 0 -1
445 2 2.4 27.33078578434854 23.51641269208976 31.301204489010125 -1 -1 0
922 1 -1.2 28.574613997249052 24.28418105209408 31.11824417246064 0 -1 -1
1666 1 -1.2 -0.07632782903782902 26.081457793109298 32.98346674877881 0 0 0
1609 2 2.4 0.07830219024635512 27.867733029881116 30.6193345575176 1 0 0
1568 1 -1.2 1.2498368700118536 28.19135097020715 31.778496087060763 0 0 0
2112 1 -1.2 5.675508608074081 25.367119332042034 29.51274462091708 -1 0 0
766 1 -1.2 5.684960343545616 29.26934502150565 32.45181448186392 0 0 0
1365 1 -1.2 8.118315086166989 26.450153906214556 31.69859525627973 0 -1 0
757 2 2.4 10.032071893023504 26.785570207454217 30.806860596506148 1 0 0
1688 1 -1.2 11.384214566690284 27.436803326896417 31.475433351693997 0 0 0
1403 1 -1.2 17.39752425218842 27.080048132041483 30.270409842270183 0 -1 0
705 1 -1.2 23.074743224389962 26.660245584341954 30.311211674233885 0 0 0
1832 1 -1.2 26.19354664421288 24.40201778088338 32.05816276039876 0 0 0
335 1 -1.2 26.426800413824683 27.067588788863517 31.293761168860794 0 0 -1
783 2 2.4 26.85147266790787 25.929416728426997 32.279527519810166 0 0 -1
1086 1 -1.2 29.510838595188922 29.37513383289404 31.19505817643424 -1 0 -1
2027 1 -1.2 4.139732261491992 29.31521407894619 29.841699869756454 0 0 0
2056 2 2.4 4.760960550474911 27.90844705380639 32.69565043727796 0 0 0
1890 1 -1.2 8.790200731626056 0.37550411695818775 31.391820117906832 0 1 0
547 1 -1.2 5.61441292186719 27.17314125767302 33.96635209783749 0 -1 0
905 1 -1.2 11.31663705244008 30.205476250985537 24.76486181810551 0 -1 0
1618 1 -1.2 14.984778688963278 27.202719554273145 30.05571074943789 0 0 0
1814 2 2.4 16.197719495143293 26.406251821494024 29.373469856786414 0 -1 0
110 2 2.4 23.19683071688853 28.214688965171554 30.493341491493762 0 -1 -1
1230 1 -1.2 21.82459965300558 28.8277715355971 31.515763041265313 -1 0 -1
900 1 -1.2 24.359099843827433 29.182747980335698 30.820867182877542 0 -1 -1
26 2 2.4 25.985419159145486 28.4631462651036 30.728795790537724 0 0 -1
387 2 2.4 29.387981029334917 0.5370147149937817 30.84060046729572 -1 1 -1
863 1 -1.2 27.774660977232845 0.33069004631567234 30.449012384896985 0 1 -1
364 2 2.4 0.9090218242449979 1.3556151118772743 32.682531379914465 0 1 -1
684 1 -1.2 4.3470753186850795 2.934821201518409 0.822444847264067 0 0 0
276 1 -1.2 9.886860789384832 2.7194858741252697 33.5658873460694 0 1 -1
1225 2 2.4 10.14293777362383 4.059436589236467 32.70234608187614 -1 1 0
2071 1 -1.2 12.43269545932705 0.9624359358296332 34.267146840846195 0 1 0
656 1 -1.2 11.910152649811948 3.568309972611291 33.40706735100723 0 1 0
1287 2 2.4 13.169521060182454 2.4804719351698146 33.595669562101456 1 1 -1
1025 1 -1.2 16.01927039429823 0.6907170648787876 30.918304073751397 0 1 0
328 2 2.4 15.774476203823408 0.1727924887131263 32.43960280731353 0 1 -1
1828 2 2.4 17.87084966372156 1.4508958446416975 34.26684966460327 0 0 0
1870 1 -1.2 18.61619590684492 2.1661707660804823 33.2151223413716 0 0 0
2049 1 -1.2 16.85760493335688 0.6572069772682759 33.341212506946995 -1 1 0
972 1 -1.2 18.4714966396851 0.24457308731367375 0.22886023627929997 0 0 0
1344 1 -1.2 22.237886197009914 0.5121557309854792 33.31117440666321 -1 0 0
1504 2 2.4 23.150384508233532 1.859225858693193 32.658530455594224 0 0 0
468 1 -1.2 24.49297980427394 1.7537908557650514 31.43226661738087 0 0 -1
1125 1 -1.2 23.79427087779562 2.649945081238926 33.776850267092165 0 1 -1
948 1 -1.2 1.878086743755759 5.317562953124129 1.3234829959952215 0 0 0
1511 1 -1.2 4.83716018764122 4.68420353927368 33.37808724673612 1 1 -1
2139 2 2.4 6.396595893118717 4.838475518120785 33.91074290994132 0 1 0
1710 1 -1.2 7.706596416090469 3.859810661133384 33.35284495376011 1 2 0
262 1 -1.2 10.451371153959911 5.570294093948815 32.5744163716553 0 0 0
1002 1 -1.2 14.19758280821964 3.269609355368539 34.476007703441084 1 1 0
1804 2 2.4 13.072611144549933 4.674476035971053 34.897784462688314 0 0 0
1709 1 -1.2 15.325030503707135 5.092996354415798 31.92832867902892 0 1 0
1140 1 -1.2 16.987123656221996 2.665032503945162 0.2747414436413579 0 1 1
1374 1 -1.2 22.788039532810455 5.007785270899022 34.44369791441246 0 0 -1
831 2 2.4 22.37140060842248 6.434191573540199 33.07773164284771 0 1 -1
2041 2 2.4 24.076289385713483 4.187798841498414 33.928328183193095 0 1 0
247 1 -1.2 24.30838917550697 4.477169301886391 32.265983542143076 -1 1 -1
1078 1 -1.2 29.418034488851657 3.090578334865841 31.292237415445026 0 0 -1
1043 1 -1.2 0.1800578788187358 6.7769398514874295 34.5128136288166 0 0 0
495 2 2.4 0.5330666426779112 4.346372728907921 0.7960131041454828 1 0 0
129 1 -1.2 1.5953984430843966 4.869044094823201 34.136434489892956 1 -1 0
2043 2 2.4 9.674594591641743 6.966974140631873 33.341806187330995 0 1 0
1157 1 -1.2 8.733170263915078 7.369093034560096 32.119652056087 0 0 -1
1992 1 -1.2 12.90398975227406 6.3041719746877245 33.863541892433 1 0 0
362 2 2.4 13.58135323944369 7.5915344417355515 33.23209283860559 -1 1 -1
425 1 -1.2 13.209155132705122 9.110868067368774 32.698478369424976 1 1 -1
558 1 -1.2 13.730878975664217 7.1526868911638495 31.514600606874758 0 0 0
522 1 -1.2 16.924406370943522 8.678309889269014 0.6526636534160429 1 1 0
100 2 2.4 17.737475562449603 7.732124396896584 31.443003043132165 -1 0 -1
513 1 -1.2 18.879624117028737 7.508848844491023 32.66807776668337 0 1 -1
380 1 -1.2 25.645792968636748 6.809587088428043 0.049358452552208984 -1 1 0
1728 1 -1.2 27.74847979974625 5.38082090407599 33.40924526547899 0 1 0
879 2 2.4 28.91492063434441 6.560767675860848 34.00844518249871 -1 0 -1
1872 1 -1.2 29.50546704085186 6.992939894395407 32.648277138158626 -1 0 0
336 1 -1.2 5.567327883856755 7.64303519979112 31.70400172491661 1 0 0
206 2 2.4 6.014658696849307 9.101378289930269 32.05925429869537 1 0 -1
875 1 -1.2 4.363592550147501 9.64781065046845 31.18975868200188 0 -1 0
702 1 -1.2 7.203844736837538 8.329352297564132 29.81363234223724 0 0 -1
1779 2 2.4 7.173018305923528 7.017443136627316 30.86222975926993 0 0 0
191 1 -1.2 11.176372577629927 7.973223606634449 32.72551432772354 0 0 -1
289 2 2.4 11.520128855878513 9.378479873510022 32.12413622850242 0 0 -1
1577 1 -1.2 10.783591546185844 11.344491810258098 33.18275779241695 0 0 0
600 1 -1.2 12.65773634406425 10.996869796494103 34.449867582188695 0 0 -1
1815 2 2.4 12.513026088902507 11.867481662252276 33.02461798651568 0 0 0
1129 2 2.4 18.480449753040276 8.042888284673351 0.7456443125248443 0 0 1
1760 1 -1.2 21.524595402877367 10.489451844850013 -0.07070928216732762 0 0 1
987 2 2.4 20.19050776087379 8.243438889665512 33.39992171926968 0 0 0
2148 1 -1.2 19.2918366108258 8.48737438937015 34.73267552965889 1 1 0
40 2 2.4 23.35795638647704 10.273419740850935 34.36116644108692 0 -1 -1
739 1 -1.2 23.936837162820435 9.087504376857817 0.001208739049715162 0 1 0
241 2 2.4 25.336767768163128 8.313858155940968 0.0132236507669365 0 0 0
1380 1 -1.2 20.624807801769737 9.3414483251946 32.14482816475975 -1 0 0
292 2 2.4 27.750744709229423 8.466587629621516 1.0257254565110578 -1 1 0
1134 1 -1.2 26.373564729466768 9.405806900176247 0.7063333789858466 0 0 0
1506 1 -1.2 0.9705753782384944 8.974297531673788 2.6968149414935323 0 0 1
2123 1 -1.2 2.1455143512748354 10.729204786332087 34.68018325198544 0 0 0
819 2 2.4 0.9679201166669303 10.486908101389785 33.10147708695645 0 0 0
1281 1 -1.2 1.8859267261018284 10.734708456965828 31.637349696416738 1 0 0
239 1 -1.2 4.250356766127989 11.452194785415903 32.97291298255764 0 0 -1
27 2 2.4 3.5956963830117363 10.927838844715007 34.42891026882166 0 0 -1
1620 1 -1.2 4.447543179366851 11.053421050453906 0.6001256764334781 -1 0 1
799 1 -1.2 6.468284487151684 11.01403579454979 31.843773078338714 -1 1 -1
1010 2 2.4 9.989619940907264 12.741549661927582 32.242956933916936 -1 0 0
1255 1 -1.2 8.291615542055593 12.32250830743388 32.580099919352314 0 0 0
1573 2 2.4 6.977485394171812 11.248477969592306 33.33131973422725 1 0 0
199 1 -1.2 13.09950576143814 13.480343925889686 33.19530838352082 0 0 -1
1686 1 -1.2 23.36332931785146 13.806486042841323 0.9159434189557433 0 1 1
643 1 -1.2 15.388787399920064 12.595820394422486 30.137643038251962 0 0 -1
1069 2 2.4 19.42360299691548 13.794428531979815 34.24358687860681 0 0 0
1260 1 -1.2 24.351058651535066 11.57548194309681 34.72085140744673 0 0 -1
666 1 -1.2 23.275040538060463 15.153571240072836 33.67852445424113 0 0 -1
1671 2 2.4 28.758249778024446 12.464422689387211 32.9614009907753 -1 0 0
1475 1 -1.2 0.5009730598693402 11.55560942785043 1.7236940572225041 0 0 1
1219 1 -1.2 1.2108961547234585 13.942377992003305 1.204525876919853 1 0 1
1885 2 2.4 3.8580416298112534 17.65297396479516 33.734963944733785 0 0 0
701 1 -1.2 5.046079180931034 13.925141710844274 0.1889150269021489 0 0 0
1138 1 -1.2 9.530710349424403 16.459674371524535 30.86084426633867 0 0 -1
432 1 -1.2 10.00838095508633 13.890317933816942 33.68241457027542 0 0 -1
1050 1 -1.2 10.340546372555316 16.413906741479128 34.12501313008731 0 0 -1
161 1 -1.2 13.22766970529477 17.259038796604795 -0.09173526202485034 -1 0 0
748 2 2.4 15.673633312997405 14.040645915251279 29.531754480020734 0 0 -1
377 1 -1.2 19.099849975201973 13.691387484790758 32.64704585461816 0 1 -1
25 2 2.4 17.961768279889878 15.716249629289358 30.13261958234574 0 0 -1
1018 1 -1.2 24.572011247685346 17.734204169969498 32.53565845181531 0 0 0
1384 2 2.4 24.387600206444734 16.266944361889177 33.06838081380563 -1 0 0
1399 1 -1.2 25.601465889242714 14.83589314545229 32.60917632510486 0 0 0
1918 1 -1.2 27.024214818741395 15.620688179927171 34.88575035719088 -1 0 0
806 2 2.4 27.253952049307358 15.188535460559372 33.3091248602607 -1 0 -1
1557 1 -1.2 28.45808915158919 14.045009979231185 33.578514326939555 0 0 0
2007 2 2.4 -0.04837380280705185 17.546483644373776 34.04174317862344 1 0 0
2136 1 -1.2 3.9395429040532104 19.354808156816095 34.45913724279988 0 1 -1
610 1 -1.2 1.001699877419755 18.85335000270176 34.180833407943645 1 0 0
1598 2 2.4 5.14063859355754 20.49629577085071 34.05445568371663 0 0 0
667 1 -1.2 5.166560369468681 20.60448489324761 32.45479472515563 0 0 -1
137 1 -1.2 4.963779725545598 17.861896666431864 32.24981444857076 1 0 0
1741 2 2.4 5.536629910573242 19.186728592843316 31.749501118096873 0 -1 0
1460 1 -1.2 6.604006174283711 19.915118430354617 34.66928719159193 0 0 0
1848 1 -1.2 8.629929615403073 21.12082329583203 32.771785939902934 1 0 0
396 1 -1.2 8.995067232718897 19.163659334805608 34.312020405963004 0 0 -1
530 2 2.4 10.320779493211278 18.128225005474633 33.75626615871271 0 0 -1
991 1 -1.2 10.633135058389088 18.23189376049114 32.0386323008932 1 0 -1
1945 2 2.4 13.134117140340049 19.10420874568412 34.82325470851029 0 0 0
2011 1 -1.2 11.634825703708682 19.38276349549267 34.88844144582561 0 0 0
742 1 -1.2 17.14718725707249 14.375867186787424 29.963420601677694 0 0 -1
1075 1 -1.2 17.568254851867554 17.003356530672423 31.211020073755392 0 -1 -1
573 1 -1.2 16.475674840434845 18.104193471135204 33.27573853315264 1 0 0
881 1 -1.2 18.709579298215022 18.76587130595377 32.75260141189026 0 0 -1
1588 2 2.4 17.806983158967586 17.37221415337501 32.687575234457015 -1 0 0
1672 2 2.4 23.452471949997328 20.42457996615196 34.842564947535266 0 0 0
1752 1 -1.2 24.092612449563998 20.443436896516978 33.068004989110925 0 0 0
1419 2 2.4 24.435827554085403 19.47477935185742 31.92421361221304 0 0 -1
2143 1 -1.2 30.038823676639655 17.88311190849447 32.21721376747667 0 1 0
923 1 -1.2 29.046303485765513 18.01489780358403 0.006840859208135286 0 0 0
1367 1 -1.2 2.1474535421984924 21.128967739648004 32.79085699843045 1 -1 0
97 2 2.4 1.2436027353846786 20.477149707161836 33.80743507208858 1 0 -1
1016 1 -1.2 1.3718822932973773 21.46494951493211 -0.0336985676817239 0 -1 1
1280 1 -1.2 7.330981766694617 19.359783084531596 31.30748779590335 1 0 -1
211 1 -1.2 6.933227218103274 22.04461983852097 31.15402813206537 1 -1 -1
2090 2 2.4 9.275699687215349 20.8380887860866 34.35492568204561 0 0 0
230 2 2.4 8.093535036112053 20.647173765843363 31.29499030725673 0 0 -1
307 1 -1.2 10.33046983127772 22.025689103671546 33.795353322233716 0 0 -1
2042 2 2.4 15.206538294550382 19.557859396963142 32.82149159373291 0 0 0
456 1 -1.2 14.038845700867332 19.796093098080853 33.91601302346344 0 -1 -1
165 1 -1.2 14.44198926061573 21.694363982826943 31.773760137787455 0 0 -1
345 1 -1.2 15.45674021246133 20.97211702400327 3.0710902718269013 0 0 0
772 2 2.4 17.816820819913033 20.021723395305123 33.483553299328506 0 1 0
749 1 -1.2 18.35072142452642 20.125488828097893 34.8968548114556 0 0 -1
1583 1 -1.2 24.68103179430749 20.284133502525705 0.584172287200182 0 0 1
1194 1 -1.2 2.415482189738186 24.236313608941952 -0.08097812307006791 1 0 0
1424 1 -1.2 4.552068311424667 21.797574864438506 34.710106236431685 0 -1 0
2030 2 2.4 5.573999655619835 23.04033967928448 0.02665910585096226 0 0 0
248 1 -1.2 7.060149091324953 23.015102662179988 33.9046270214984 0 0 -1
1275 2 2.4 7.165352528928683 23.012759627662252 32.339793639169194 0 0 0
994 1 -1.2 8.877696142177015 23.434587333973628 32.02249995392597 0 0 0
563 1 -1.2 11.809596608823503 23.96632527163686 32.68287540359894 1 0 -1
1382 2 2.4 10.556934584671247 22.88752302991102 32.16712179966584 0 0 0
279 2 2.4 15.404863722849164 23.00204981547282 32.47587035175196 0 0 -1
893 1 -1.2 14.49612585223931 24.169053038531967 33.00574196524139 -1 -1 0
131 1 -1.2 18.365749010835884 24.14831141729595 33.63714340592939 0 -1 -1
301 2 2.4 17.98685593615029 24.33541185912611 -0.015689846482693854 0 0 0
1674 1 -1.2 16.42974976283212 25.084934116786737 0.05100043697404811 -1 0 1
570 1 -1.2 18.789587317544335 24.980863359466365 1.2042405480379255 1 -1 0
446 2 2.4 20.991454953721185 24.57236847169241 32.801778127462356 0 -1 0
982 1 -1.2 20.421841701883537 23.43491554956629 34.03171110448156 0 0 0
1482 1 -1.2 24.264097640752635 25.922171091516628 32.514458467079905 0 0 0
1950 1 -1.2 28.039931367551997 23.618120303228782 34.965762409061064 -1 0 0
1708 2 2.4 29.043573382439607 24.699929031247944 34.07552760249817 0 0 0
2088 1 -1.2 0.11715478284428958 23.999603600627573 33.03137601588991 1 0 -1
1268 1 -1.2 28.173992492781224 26.00982063788049 33.28691912876835 -1 0 0
216 1 -1.2 2.811387290560953 26.47769427991462 33.71096206114509 0 0 -1
351 2 2.4 1.0269313704800425 27.18544496248876 33.259700942930756 1 1 -1
1584 1 -1.2 5.05244161353194 26.739389287788306 31.486240371078917 1 0 0
149 1 -1.2 7.591932150246152 26.408505981162072 34.407704467742455 0 -1 -1
1048 2 2.4 7.190044608987927 26.085194385942135 32.95312241254661 0 -1 0
1357 2 2.4 12.093364468329334 27.366557070970018 33.00419840114762 1 0 0
526 1 -1.2 13.193734756879508 26.040266148387918 32.88733256794184 0 -1 -1
1937 1 -1.2 16.063113532127407 26.413015997722404 32.94675415928798 0 -1 0
1549 2 2.4 13.139202418552422 24.59249466941075 32.19474627900733 0 -1 0
1195 1 -1.2 21.473977402226318 26.34634010815727 32.61117639737851 0 0 0
1394 2 2.4 22.883309064226605 25.942775528459098 31.673401334080523 0 0 0
722 2 2.4 26.47298044534558 29.151849944092724 34.2380616732961 -1 -1 -1
2094 1 -1.2 26.107622743547296 29.780215189753374 32.71979603437921 -1 0 0
2159 1 -1.2 29.568077261245016 25.181847835637395 0.3438117263349884 0 0 1
1810 1 -1.2 29.697586975240704 0.9922268475059765 32.54327354755969 -1 0 0
1512 1 -1.2 0.5215212453172008 2.324995450028937 33.709212480255005 1 0 -1
642 1 -1.2 1.8489795089740382 0.05778106923952408 33.12837932019724 0 1 -1
1713 1 -1.2 0.836607968388566 28.41131480367037 34.44839680793905 1 0 -1
1743 2 2.4 2.4083763567881955 29.484224354060444 34.75232751529502 0 0 0
1748 1 -1.2 3.4395161637730296 29.028933548915436 33.57915395213585 0 -1 0
1654 1 -1.2 12.013020984217013 29.035891891958677 33.192978970442354 0 0 -1
96 1 -1.2 11.10092593915278 27.155252270237046 34.15331332386865 0 -1 -1
1943 1 -1.2 15.984960065221617 29.10731588369517 32.284226977353875 0 0 0
411 2 2.4 16.110201840436527 27.392479503138357 31.606276124804438 0 0 -1
407 1 -1.2 20.08763186096366 28.027421226554956 1.4225422091741606 0 0 0
2085 1 -1.2 20.198926638169723 29.592649401349217 33.736764723565564 0 0 0
410 2 2.4 19.611332178569306 29.33617937711282 0.3219380481597864 0 0 0
427 1 -1.2 22.939715705224224 28.903448736782728 34.24278073607661 0 0 -1
781 2 2.4 21.859330115311973 29.467268129868494 33.232525439853575 0 -1 -1
426 1 -1.2 25.279166443576624 29.651042077340897 0.27850484428812855 0 0 0

Velocities

791 -1.6393690369615759 13.776413566506568 -31.18780402926075
625 0.508096175833729 0.8735746581056022 -10.746781076386867
744 -1.971661281831124 -6.632652555910525 -3.3457232543915203
803 1.629590048224617 4.653092205485485 -6.685958718887949
592 -2.4168922835245903 21.13386798232585 11.318605421582694
1782 -15.578202323545101 -3.9976747135086406 6.636388205340449
1667 15.227859472323416 0.20686414992187804 16.131811627793493
658 3.846826999193736 4.970880223469165 -16.949887516287724
275 13.839366655020028 -30.40274626566771 -12.567108903217099
1725 14.656398795081257 -9.494165808613726 2.4517154313524507
184 6.3461454569494755 -14.860415353626188 -4.568945952030403
655 -1.1649874422090254 21.85917147349015 34.575307608142964
683 -0.12821984410332193 -7.14983087838362 23.647633024119617
528 -17.266289903573814 2.330129536013335 -18.60277898992853
1837 -0.43032945527766864 -5.147061320322056 -7.953150334030609
1120 -6.876030488897544 17.293919334342135 3.888680702834208
630 10.342958095271294 -5.361445101951975 18.333305585031813
394 -9.709861439311926 21.456186747900635 11.266604402702162
1900 -10.574250190426403 4.570003516387902 -4.497482488347505
35 7.059047631243573 1.012169220010751 0.4493901754959823
1386 13.91914023485451 -8.191628831161655 2.7746421643326333
796 -14.331296010847549 -28.926696373924997 3.4574191870049678
1464 -18.594990170493787 9.711636862446504 -2.6501866915164376
936 11.753160120643608 -13.08558778905547 2.9168768773812794
1988 12.867570582239502 -12.914459887074322 5.080266691469537
553 -5.5321380580625625 15.270289514093584 0.5556902262072335
240 -21.686894708346472 11.921113218212145 11.376830125576175
2125 -14.459333258759111 -9.5200595678993 5.8191078562720735
132 4.073342562453306 15.580383277256278 20.762982959254515
1270 20.870393831187993 -11.955567443717024 -17.79618175845208
117 22.64858662933222 -3.045932202401396 -13.159574097360943
741 -11.61928288465785 9.84957130713577 7.397228568332519
352 16.05496880370859 -13.937990862477253 5.701728071710345
2040 -17.397413228569345 22.129067237121095 -20.352464308856106
1821 3.397105337860955 -14.691973126145077 16.72280269658233
1668 3.2542156097396715 1.4630873255464687 23.191490439818686
839 28.557726224293965 25.363769353412266 0.5611598895201421
1200 -18.057443188768385 6.19948462012786 6.378227018728886
891 -18.244860283369167 0.194253954048932 11.100146222392357
1304 13.22625612822604 -16.464032714474612 -4.399024935140454
1982 -18.40320704687727 3.978237478726151 9.014649891116266
1843 20.70008401925842 3.4845176521088774 2.6910194914396985
2074 1.8867840577896313 -38.54152450579678 -14.696680533919851
866 -16.63792972260643 9.611446328931986 -2.0877769704862312
320 -16.312052009211744 5.463972121878874 2.3441018132154876
1377 -0.29481873060875025 16.799716613438378 20.240401916362053
768 0.7092298521218408 14.658606402965896 -1.9114549370654086
1545 20.282040087968134 18.407027794490276 26.63302834941969
418 -22.54588893818249 -1.2994431853017674 1.1504970493922926
409 -2.727391726421635 6.206435706897061 -0.6370429570996877
1534 22.9296907841876 -2.3751825530672397 -6.826483826747878
1295 -17.150793010195333 -14.402570809120341 12.369902511609881
225 -7.270361815200488 19.330359612313046 -25.174727676140208
759 2.982532631491631 -6.582912049734765 -14.726315962034668
1453 1.9426961939261522 22.145803394386974 -5.677980186260826
1171 7.772798438778352 1.7135953048555022 4.981636436905876
1578 -24.975418183846262 4.057521123802323 -14.880523764644549
1274 1.1740326208080054 9.414877819948194 7.518281575058684
1169 -5.226309163217969 12.393973021005603 24.65536693324507
1537 1.9554307435460772 0.9763278740349822 -8.664852042544887
444 3.9068820414858108 3.1075725112008303 -19.48901617308774
629 15.53858794585544 20.28699024173087 -5.4215450059476735
1330 -7.127137547662217 -18.684774691153578 2.0644209557669124
383 -4.000304052732362 10.997587105110151 10.535528105355324
2075 9.241424189195072 -8.4050952426284 0.009199876105308239
1484 -8.736443947786713 3.017859030999587 42.09277811418069
624 -3.36654521686861 1.7666237403757044 8.442185736024888
181 25.027761632107687 1.4264755323494858 11.443873581627408
622 -24.244359600231245 -5.024145035695002 -0.4331797341764682
152 9.015042557707785 -16.42056811261571 -20.41931060762652
372 -3.324885094351908 -2.0282770401179713 -9.816507521038291
842 3.089870661940377 -3.700279761628077 -18.24781107603751
818 6.19593340341597 -8.47413625467002 -6.144919388671601
1696 6.853179934928727 12.310855779997377 2.590169382268935
1087 -2.99324786017156 -8.021151226892917 -1.5041267830863254
98 8.904737918809145 3.3117565818724395 -21.035894734596255
561 20.683579766705964 19.04237248859404 5.369286076759965
1981 -4.0718892730756915 6.159070828181781 -3.5485730803583038
392 -4.41767609828195 -33.544995475542265 -0.8501917520566805
1024 8.966723179964061 19.4806316999026 -2.1082469435955153
1085 23.002946488671366 8.486305123862682 5.8012902575573015
1105 -7.078109453879171 11.002397061308557 11.305670978944176
2100 -18.18683482863978 -4.138315559342051 0.9049105872073425
297 14.698225690940955 -0.1975766102950877 -0.029818444513336907
284 -34.69705545779391 17.227466341618456 10.083189792505365
877 1.199137234469803 1.2846246050697077 11.58520905174237
1965 7.497434342602372 4.5284371043953024 -2.040294731970247
243 -7.3611768853359605 -10.031597717999913 -10.908416232243757
393 -14.547381143068606 -2.0343845866129047 24.532021324993117
1457 7.841506379260701 -0.19964505310575917 12.682063700101446
1993 7.257939314834397 -9.185282591226382 -9.280618283363326
21 5.30341555733261 1.1238319253023943 15.066911728270608
1081 18.553884985357538 7.037464361085374 0.3019819137837517
106 -17.69639541393509 -0.15665018347970167 16.864850777218184
1218 -10.26947871851634 1.5554655734777203 -8.792899613523565
1920 16.133081108189938 -15.37412432887981 -19.060156723681363
632 9.05141008709309 -8.48550780015101 9.515388173752884
967 8.795740017643839 26.841381187926796 13.68677872143126
868 2.762967090841969 -13.405490761301925 20.02153475834081
346 -18.15502910322249 31.88332606515058 6.350968181416588
745 -3.4285467375057346 -11.092432700012806 -0.6307673136752152
1883 -9.888189708223257 1.4855394050125708 -14.666814095131803
1643 3.4598220996207742 -12.535757506533615 -6.666618819254738
48 15.766983881625706 6.433332681098621 4.100399466296283
731 -2.057437497412349 11.395522469720197 -20.786794788966056
1021 -0.7749681496945909 -10.253274084950998 -1.298243657614244
2005 -2.6547547666850875 -5.554740935920688 17.183625715186402
1381 -8.52639021650972 -11.196201925814165 -15.88932451932411
1231 -4.657151260584307 0.5876450303893843 7.736930694047121
338 -9.521357056154095 10.348414749016781 8.064780180980467
826 -1.7081073483761315 0.5193170000773567 -37.981153477390194
2038 -30.44562951187743 -8.762975231266893 -26.937311809609568
2029 -1.2593592508571376 5.9574831424324435 3.9805253276913284
104 4.177157133467663 -1.6145418205589466 13.258413748948739
358 -11.169479265116713 6.082321507101234 15.739881871736467
197 22.869409517653754 22.297166899719336 -9.182053714643496
587 -2.595606746900868 -16.93808342766806 1.0902604607023547
542 -13.13366719056878 -18.276474159613926 -1.6328004360549215
354 6.380716715424832 12.428313128367833 2.562759153659511
1683 1.7476487299347212 -2.624628652077881 -15.651017286395762
910 9.880377346465265 -1.7494508213388735 9.95097743937435
311 -15.201316922402764 11.257552640440672 4.0496192587186055
221 46.445780956827875 15.437434249406124 -3.166428862080372
1946 -12.392652512274273 -4.6345864486604 -0.46162609803890253
1449 -0.7840180423716244 -13.130279662775793 -22.107529110496365
2151 17.28504124438205 11.367347404564706 14.741020079629124
1336 0.03922666560306735 8.768894426555978 15.131067300447548
1957 -18.317179460896604 2.4093283255527878 -1.6666295262720063
2062 18.203008715642294 -10.911672354949184 3.3113028695666618
1536 -11.70121731431867 6.526796803655191 18.480075956656606
708 5.5696865637158695 0.013244059631093444 1.1403235606469493
919 -2.4294289702577054 -3.0789723841959877 -21.042422294318833
2008 2.9289812546025136 -4.473440724238163 4.957352679168452
586 -2.3796630348238335 -3.8635731571182403 -16.48935785651771
711 -3.2038866015197693 -22.297525276654095 17.315050972029415
2001 -39.59368937617052 -15.033493479694425 8.060472699244375
83 -13.173726792512255 19.365423469982094 27.15830108579159
1189 -3.5228232991215584 -16.747282070737295 3.2599614853154537
223 -20.58807050847879 2.984274007675604 9.693643475750145
38 17.626582910474422 4.390457859482742 -5.647319486008838
1267 -22.449745665118012 -5.748027438472676 4.664022353186197
366 9.705044330919169 -17.801391263432155 10.38760626561769
265 2.667622391215418 7.496616263828097 -6.215720723180982
1758 -34.88159239823702 23.17716642772773 -14.522689484557937
719 -9.686666524406803 11.615339934254836 -25.950504845013366
397 -6.847704768052375 -9.970628789193626 -17.09550474282682
440 0.1030678156350585 55.87129246473131 -24.542350981791476
1563 8.02354183525303 -6.206949595698623 1.8580343213608614
1627 10.22576343522671 -0.1265306612121382 -16.996264429604768
1724 12.085429512536516 2.270973432085025 -7.833915035955964
326 5.068079913856538 0.40776096229746556 -13.216825728962974
1354 19.250954781532247 -1.68785211237437 28.66455197163544
113 2.496015367224341 26.83278886674707 7.793220176301006
782 -14.62156438712469 16.080881232148386 -4.055195924777726
85 6.201497461730471 -7.42190158296169 4.8361182819992825
2107 -44.48382428186448 10.936806296552177 15.023151683156486
365 -3.291694472947637 7.645862554515235 -17.17348109781348
1500 4.034804980251226 -1.9617815097531592 -10.710238816742658
652 -16.27741972462366 6.641218689146102 4.840087075532308
342 14.764758034292432 -19.98139899806968 6.225806548869422
1702 25.49366804285818 13.191124314099717 19.890929878312477
493 24.51697357269301 2.0901046615831893 -8.678519877869398
134 4.059380580917779 -0.9677114865721606 13.66072729342097
1711 24.982962051546515 -25.412282424489835 -11.304333742621376
1802 -1.8981468714219332 10.336224743445475 3.4504129521035667
2009 -30.583011628652965 -16.52758118551057 -0.03194446109955481
1801 7.572381086727015 12.571362320469868 4.67003315724014
1387 -10.446867828834238 -4.160571376930355 -19.262359544494497
689 23.284231573376868 -15.775733460219119 -3.4437571907461275
422 4.3327818965258365 16.357329817612136 14.54231649889815
503 40.94840816218097 -35.4399690745085 8.04305498344012
1490 -18.557409863613003 3.7294666548935886 6.343668308436754
1422 -24.46240088548195 19.167814651087426 4.44746721313057
1243 16.686367980317865 17.8217655471201 14.880206393523196
1705 4.527528228998266 -3.7643767293292143 -4.894386964071367
2012 -12.87155850085211 -8.153785507812113 -14.598065697096569
2077 1.0086432196292796 10.39545227804668 -6.903934518431986
128 12.34365689398832 -9.803112790396456 -18.799775371337496
1606 12.287085909549246 22.65011873055069 -4.563342770376306
1570 5.910426731256778 -11.667129189560184 -13.337270447899268
1898 2.9951512734066728 -3.7655954599248047 9.502960010314148
56 2.1130406763273406 21.841943613765668 -1.8837517449508878
417 0.5024573717102521 -2.852072449765985 4.800476073088342
1803 0.4229232976037844 2.76313948815559 7.906469486331292
462 -5.343197805137558 -3.8648527825085477 0.8651601918902168
670 15.590801634231752 -15.393984658118908 -7.87365004237354
568 -1.326641176234503 11.229390152952806 -13.016580876956143
720 -2.402426026155329 -14.25821736800121 -20.57260146938338
2063 -13.918260364022824 19.151567953759493 30.97885109052027
1251 -8.764695329321949 -20.346117826178517 11.580345953306772
1089 17.023166105206226 -5.770615938834628 6.916734095494026
1867 19.77964830880629 -9.863798135915642 4.227396727050384
1040 2.3373604772753405 -1.747350142168691 -15.665638937945708
1681 -11.79995539103703 4.527238771373679 -7.05160370939225
1042 -15.80799006755212 -7.313064591451314 -12.28187139430904
857 -25.73117660895315 2.6953656869853195 -0.41790992081714523
1115 -11.444458720303139 -3.594162415414463 6.985778061261402
1948 9.908373812959825 -6.91610032576393 8.096768402283839
1978 -1.657969005024324 5.658916668692102 -8.314064958466497
1269 21.211271796063187 18.952095819934346 7.287980787355968
599 2.8558127309316634 2.288758874394108 18.15066467858013
1187 -2.72108382471379 -2.992959718372344 -16.598900868548455
2021 2.460185984058979 17.937177718142266 -15.481500592520772
1 -19.541960672763782 0.3143905677756298 4.369846986569309
588 1.8779094270950938 23.50647462698827 0.6653056590117882
471 -5.112669683581673 -12.11424559231251 -14.616143793164659
979 -44.45032691740084 -6.68051065412743 -1.401374893890955
255 15.044303231284538 -10.698637583221608 -0.5620400159169061
1373 -13.904908205867514 4.959758613797704 2.7139137022159363
851 11.523921683152999 -28.523051892892838 32.03860495757857
195 -10.008028089874369 -0.16360073532337688 11.30010353373259
1104 9.544926845535196 -4.7696003221494525 -15.38676066455436
60 0.6807430603702617 3.4383387430608527 -25.152287268548942
728 -12.486161554679658 -4.94206992153586 -20.85701672517425
1248 -18.341399260260935 -5.06912845541986 -4.5876208917700625
2028 0.35504096850666 15.134976299491914 11.544442101938113
1372 -2.8214622095406883 -10.007840589832533 3.839937345417434
145 -0.6488026290467869 -9.85795219254228 -4.966068370583113
1065 -16.67646978372928 3.8617942489864094 29.274790662484037
2116 -0.9869103706355846 11.879021286004786 -5.415441906875362
574 17.150620640765247 -17.40781972876016 -3.8142629199217244
2093 3.5968495887697416 -10.81534594389304 -4.486124013446338
1996 -1.25703705756912 -4.0630018927094 -3.261913958347985
706 7.737970401586124 8.389636977047033 6.946080793693278
1337 -15.580003518395278 -11.396763335964406 -0.58799746258335
1928 -4.552616237898932 4.930540844606424 -13.06329987369057
1186 -18.19555441726271 -5.5553544094451635 6.190316679098879
1009 9.866683674850977 -0.8467904941585457 -7.38679899406534
981 -20.1972396815805 28.71348421915331 -3.1992126191980748
1362 -22.81293211585471 22.94871526606203 17.611918008708784
1612 1.4085968818506938 24.514022927237033 -7.5941632585774865
1432 5.340375436147381 -3.2555732646936066 2.6870111046082252
1762 -8.642085097930105 -7.286786013496876 -23.020342296346357
989 -18.97575202900778 14.843732548381876 10.794931841309218
2109 9.843767549924511 15.084218551358925 -24.826935070932983
1558 3.8663638880377884 -1.2841383090467473 -11.374061532223692
1984 12.9627500955311 -12.891082007341877 10.940374788940066
1165 5.377913762013101 5.263723793476103 -7.22645419246523
1254 6.800925249804884 -10.21445526093926 -7.076961083879001
1925 -15.658732785395427 6.749101285047811 -0.6330331503705656
457 -11.497454357917583 -32.388811930897354 2.4627587967369298
1244 0.761294880256487 10.676266614442797 8.600313853920799
1006 -19.176154336783455 4.1673632109044885 14.711357673670822
750 -13.373202663940361 -0.8607826069434426 4.746563266642226
1985 11.59192200307478 11.436551992693309 -9.026979335692712
1754 13.83911820504078 -2.509973453087142 -9.738743879657857
800 0.7053894668812569 6.111738621738868 -16.99985851516434
1685 -14.300570833949774 4.611663383218831 -5.425694766836368
1715 -5.428770426943689 11.423813403523294 -13.510664946539855
1023 4.122013372458713 -10.799080376401363 -1.0494476218683875
618 0.3716956557285746 -0.2660522057800075 7.296981910897479
2055 1.4419673998885396 -16.611412909937012 16.745922118733105
917 8.306755480188084 -17.503463406854333 -7.806593202665967
1502 3.9350790786440677 -22.7262086089046 -4.038666595941707
280 4.548431357521895 20.37172246333753 -8.58307400566915
125 5.654289021139238 9.788911847284083 -2.842933079619495
567 14.949774717887866 10.26151727680944 1.4374420209583472
1894 12.506962195669216 22.13755087016858 6.6576556486070935
1111 25.914179237492792 0.8209453710706287 -6.1575505384019085
1033 7.545981163027894 -5.3704966004733485 -6.183879635864815
737 5.575931854266261 -1.1013220715607477 6.581434932306179
439 -3.397954165590815 -10.770937773098549 19.691506337905185
787 0.15470542483037117 26.430667804726742 -20.016378299527375
1896 -16.076408538902143 -9.112621906148762 13.849379921250785
1826 -4.2403890142096845 -6.756950874678741 -7.936581984294664
1070 10.683894263978889 9.542322224110682 -4.528418789698498
1878 21.0467424247785 4.896250378765328 3.269092536276076
1740 -5.2600534773161485 14.237278649027802 15.044454985578792
789 13.19830148382277 10.635114118279464 -15.713943734403417
950 11.764514131312717 8.58385774526588 14.57239771323942
1518 -20.96138433019928 9.129103972910746 9.638569489102393
1590 12.043477673232891 -1.5083911641345702 4.275416252766135
302 6.8789701663836675 4.3514788933073385 3.0737610408036784
794 3.249947202554169 -21.446222308637278 0.464143833462736
415 -13.072254283701763 25.47380929728407 13.38256514503989
1326 12.853152831299681 -5.350463435502011 10.911849662875964
122 10.23594598212918 -3.118083977487315 0.0809964859082704
155 -23.266044422825672 31.409820474926516 -24.196594682660646
1897 11.557230879502399 28.12417868174419 1.6211082649455197
767 17.632674414529617 15.503114991475483 -6.18580829719359
867 -7.220647114257262 -1.1910648880050159 11.277156029004896
516 -20.498941825785945 -5.484128348103076 2.8579533366638215
453 13.721031104729544 -10.207592435347745 -38.581267463775895
752 -20.741731710822183 17.67485877742327 -34.06820412985341
1691 -21.8537245053338 14.582104367221106 20.73908717783107
1653 -10.839163857393213 8.566078887184783 -8.749706411574
1408 -5.886476675354299 15.387386070801584 -4.950453506161792
1991 -3.0925568735908255 -15.082696001667482 4.211507637328342
348 -20.02423364069716 3.766294254802786 -12.1775653942589
332 -6.701605980525011 -16.542671866704143 -1.2813048929523492
421 10.51692040720166 12.50905264312545 -18.892210202049373
200 -4.394940453369704 3.449374185792845 -4.695253797819626
257 9.628774642582389 10.641322800820976 -10.910831313876923
1250 -10.690084304215405 10.060024973772261 2.1483740644048557
1625 3.9443064425648995 37.277207995245945 6.785982371835948
1237 -2.849482336011552 -34.97724297983387 -3.186367998429286
1452 -3.791089859895739 -23.92258486162414 -4.2458721666532355
634 3.649169034684325 22.400414828514826 -17.770476451892137
1975 17.871345550637596 -29.706665056602205 15.343737299883967
309 -15.0510000479456 17.544866458204243 -10.899734196595325
939 -5.5109447225316295 -9.449462833384455 10.291639697753316
512 4.222545184887216 -8.781463222518093 -7.619017132099007
838 -26.581259007951974 -15.093835342410374 3.1709544869999613
832 4.153001350512474 -0.9466060973368488 15.756238822009065
2140 9.367901161026243 -19.764566847565277 4.677292514776821
678 4.199624872718936 9.747444200849054 55.17106011570589
1197 -11.397681668715585 19.502503274015787 -22.144740522089585
1407 21.315611254474582 11.141186779793184 -1.368258527662341
812 -10.172454379445039 4.004514314309337 3.100014450242932
514 4.908503323979824 -7.09505162549727 18.361684595423846
1611 10.040553228465908 9.231866357669032 11.298023106271218
1471 3.2165398732820067 -21.340815257848508 -9.029116252141367
1553 -5.3407347280313076 -13.75671973133195 13.628787084058866
316 11.554227825438135 -0.7552032705087006 -5.27292212535609
353 19.045592468902043 29.84458109980789 -3.891590936309258
899 -16.438558196226428 -7.594606193914116 -10.566635853367904
194 0.3276863414164781 -3.6350974706666896 -8.373094376268886
2014 9.549580095453152 10.535706454672106 12.55569070563275
1074 -24.268007396312687 22.506476051081016 -22.22379164260722
594 -8.009682351742104 1.0963828467480858 11.594334340733925
2160 7.853524046996117 6.445240378430011 -23.06889553851414
198 9.29276521347127 13.004957904663803 7.764494831762648
412 6.9051127833758486 1.9368304474642573 -14.725712545301946
1700 4.258457621519383 10.986221259293085 1.9937702944990503
1445 -27.797056902767086 -9.637681135176067 7.365152026959159
1228 -5.793179079401553 0.5737458989062472 -2.7347674333122867
1569 4.990898145698868 32.36987092732546 -1.9183880400371693
245 -21.709312936741668 12.607071642441111 33.47955379818873
299 -5.769551624136786 -20.88466736526685 13.395911980195121
141 -5.00547423110289 10.851722648211968 6.928239134759783
746 -5.854785506154831 12.760562709147557 -0.6202609152295373
1605 -10.29187848597814 3.1514983659971714 -7.687706244210888
559 10.04215202735955 7.5184465052301395 -21.11386559934355
2102 8.769643734978347 -6.845019660049228 -6.516443874291975
91 20.768440966519258 4.762341970390434 6.501986160867507
661 14.710338126787446 -4.441821154390492 -6.461737112892729
1677 4.652283444761916 2.4010809255565158 12.568079604406329
977 -31.842257934362674 1.6304660658327392 -17.922105342609704
997 5.1201696759892865 5.874141517339461 -4.88248935119134
1145 -15.17728648712594 -5.174227606124762 17.85657600984106
1214 -18.21547281025716 -16.039437386007616 0.369598194037031
1122 7.432815129293777 -1.4905322311139773 8.10281048424437
1114 2.2513662439077056 0.7568470866012034 7.264715134504174
2113 -1.0288352871053337 1.6203956867781948 -7.759261030431501
1256 -15.782529695179274 -9.539222437482621 -8.170849777086067
898 -31.84254974715603 1.1008194890210374 -14.321058467324304
1892 -29.85371143077041 33.32980395142559 -39.69413419813236
2018 -0.3390270817358165 1.8400821017716056 8.426595657935332
1772 -3.2664857347238816 7.289833397704956 6.558491255155691
1647 -15.42081851264307 -11.221253665167238 4.733888689995176
1361 -23.516589534118083 18.322947844344032 -9.053136839207166
1851 -16.421446509517704 17.776397813377155 -5.526659435782466
1592 12.82596057135249 25.958288565459863 -1.2656010775920514
395 -20.117722977344247 -2.0507008594080824 24.48461807789343
481 8.58842864854457 12.159013340816195 14.554188000490587
10 -17.92732331753513 -8.560539380907569 -10.91462601084115
807 5.373387558438586 -15.799455495696078 -14.150645365691785
77 -8.972726376281244 24.48299185439213 -8.827008251619855
16 -5.139222712136166 -4.671861270623839 -10.167313183163403
2002 -13.39217325758579 15.39287108237177 -1.5866790581764905
2092 0.74371719670183 16.372892285844465 8.772145449238621
1521 5.516436241546839 13.320336317695487 2.350263334190644
84 18.443958717845533 7.4648528162175065 18.10055828030792
188 24.304750956032063 -7.104857078716086 -3.217421370753624
1753 -1.4449320184050591 -0.24772208462529952 19.868565883998546
845 -1.2739993411759154 -2.030449900154947 -16.07800685428781
1914 -8.741262410088165 -9.754016902999208 -8.025669846444785
1072 18.272643803908196 0.9560907632056188 -14.5392910153372
1806 18.76661577538802 -13.519424845499696 -12.220906266463022
9 17.088736157258793 -11.499165792775562 -5.643922913213533
956 10.969181850584317 -4.50677930617958 -14.790805299311925
1899 -1.2895853782427573 -0.23691264265625228 -19.45289845332044
1632 -3.0045895775042215 9.361961619083301 -15.585035275148224
1430 4.279415655729616 1.584825319337884 -20.487066336420156
1100 -2.4290010178656063 -21.81409730673015 -30.893430963664265
190 1.621615244159317 -22.794641321757286 -2.745395588508226
382 -20.348796971923843 -6.997277265120988 8.189275440282143
795 -3.3109600288918646 19.98036256019461 -7.115016352046829
511 -9.406570824594628 19.047343844707253 -7.908955444817137
552 -3.519644418238414 28.155355696141882 14.0150635687802
1524 4.143534306035595 -15.311137824386922 15.819967600027326
1730 5.658110413088192 -12.078129553587573 4.0598915426120765
1343 23.77578167763858 10.420573589343242 6.391872994620256
1318 -1.172723727485583 6.332283185801944 5.5283891993400545
147 12.740668139954636 4.658410705965008 8.439055117337942
1566 12.668790487638226 -3.3193893194676383 -5.767872624873024
8 -22.041558642598048 -10.392643831539488 -2.2582254956541865
2061 -29.460114367683186 -18.84333884654437 -9.97729530396548
399 -13.613805403031249 13.937824669492326 -0.41313351540976745
515 0.7619528515510884 4.764834781562118 7.943476786233398
1773 -13.493651189858571 -7.725158853657222 13.415001908183061
150 0.22646483295077657 -5.882595358324111 -17.515309724737573
414 14.769341719680678 -11.174856886448586 -7.278256475409921
1624 -13.06425460414446 2.9054316575341526 11.509548502578548
817 -0.8202938599131477 12.946226468620592 21.081475299096716
1561 10.385710003352761 18.35692608682396 15.375824447450277
1342 10.292727349005657 7.983248871147352 13.484209822030625
261 9.09129516892817 -8.84866186200212 4.3328829187613165
1636 -1.0323294259047364 -21.72531853594207 -9.732468893784628
1774 -5.1391360947070694 -1.1161933039315275 17.720077957454357
1061 -11.854272262890017 -0.6976577170797236 5.1591111928427535
143 -1.090801662347243 29.12030780921682 4.6727070466898715
355 -18.63140682390234 -9.002601115630489 23.942363355322133
1156 9.626119084416848 -3.3374047022354763 7.762890382990511
45 7.053977806968086 -10.390724920353593 9.116930528456487
434 -23.65666493442692 -10.81347114882994 1.7037790668360167
1649 1.7352794035339303 27.915911396072616 0.6400413486588145
140 -9.976502343866763 15.886850409977566 6.706576552240541
1990 0.8115350426652862 9.58894508804627 8.329328270759898
1289 -19.890497187489096 9.652546064496448 0.8818762430363893
1201 -3.425927661893329 -16.82266962835733 1.404518030044614
729 -8.86329514562964 5.608881940993037 17.39684871106991
865 -4.71507534365384 -4.530677249090628 4.01801877707281
1172 -10.827168933103142 2.593555160633105 -6.952801775802492
887 -10.91581566467431 -9.00295245603843 -16.27092492213495
1456 3.669931933496198 6.303326404564028 -16.20637829554161
1497 5.024387413952776 -16.28771317166564 -23.072286190994618
1127 6.261928620036632 -17.967119686273595 1.4970811001309643
598 -16.70161290125648 7.512343798605707 1.772452556878556
112 -11.209297814579301 -22.627018969323654 -7.11618448149145
238 -10.304104422243304 21.60718663140672 0.2697312680533477
1924 -0.52586418358214 9.427627516312238 1.510936812814814
1749 19.7603635816138 15.008702356445065 21.041752735823422
34 25.093192240205823 8.33142313588576 -20.2154289123815
1133 -8.355541470753064 -17.22531476160881 -1.6066625776253687
1825 0.7710274317418138 8.23256758452007 -11.585573011517877
1775 -5.661324227960038 -0.25335104010279513 11.636129002527323
1446 -6.253421609737011 25.156982732317857 -12.511591910492692
253 -3.0990377878766364 -6.541160743927761 23.399735572723845
1755 -9.213453386289524 16.68405615898116 3.575721469284156
1039 44.36533127051274 -14.544469020599564 -6.422215968049397
654 -12.594140411232209 -14.953012517595342 3.584227087805177
340 -1.0126511463284 -7.106968664672327 7.755447476160551
1027 5.905378419185043 -20.196831826026845 5.544897567926421
751 16.157629635759474 -17.654510746572942 13.59397080898158
1124 -12.908774137310754 -13.52239152040962 6.792707229314514
73 -6.995359102367178 -2.639916559076976 2.5282383568455273
2105 15.477335396400605 -12.473930727949956 21.473525161375573
1575 1.5592112505475677 -8.360036587328988 6.608220045048822
180 -21.994536608564633 25.222460052309096 -4.371226166834724
2111 9.251359215519912 -13.174984346182976 -19.652319393510112
1183 3.09995015955148 -4.6769138921959295 13.360494929075074
218 14.29327725741236 4.31071671788757 6.00466887992587
1967 -13.374986927038615 -2.515426030400974 -4.0692492983702255
1794 24.82413712774719 -9.689383830160946 -8.53557992660364
1176 -10.264393904821269 10.232261163991168 -24.29661730955597
1997 -6.603315222931243 9.912875975535128 22.98052458855113
849 9.38283530224318 4.479248047019722 2.7583440509420636
577 -2.7791024925965164 -0.5458225967901388 13.647464992486334
1726 12.90822275035433 16.419469514662925 -8.869353551802943
1427 3.9994373018734106 10.987347783681294 -6.3762994203139565
1391 -18.21110244495992 -23.69378156143314 -8.747473022238491
703 2.937908770163189 -9.32542231691573 -6.578678695804223
565 2.0983081107919004 1.4359783787658467 6.600960981478243
500 -22.13329181425654 -13.747713524986105 0.09677468791047067
2155 1.5905701420533025 -6.8040295290791395 -13.10102623239603
952 -2.1593676807417443 -2.713530776534198 11.158236238866609
1388 17.508494310223213 -6.247393692844246 12.008418940860352
673 -9.434898769803462 19.81270492918151 -0.9453936893037371
1339 32.68528969339264 -5.354908470417597 -7.165719867081542
915 -0.6956525839836488 -4.131351366171245 -1.685572029796095
540 -2.816664675670535 -12.811627834322435 9.385501138393542
1853 10.67781367274234 -4.7223055189679135 14.812119495646376
908 -9.05563775241389 -14.129339211599708 10.635175272712212
331 2.7075020634567584 -18.937977137130567 -18.190336285271215
267 -4.435722466854603 24.84334038739306 2.829437910598502
413 -11.864779487773275 -33.49494522416714 -15.569545684682923
228 4.0763803313963605 -19.137416592849213 5.939236077126565
450 4.421306972331031 -21.4706110710952 -7.978656320962807
388 -15.766782356714053 -7.150335303896564 -22.612578905743725
2070 -29.512000945044647 -1.7843676414859533 -0.5389270463926772
1118 2.0029398006075643 -8.403972872130641 12.145070330941264
1987 -2.9825379686975353 22.35121119796647 -0.6506829586742688
2104 13.086598951212173 18.05128774641357 -5.9191974902085995
1812 18.372470863860006 0.9340008536088259 11.154583881351346
1094 -7.252605666558484 2.9987217828903017 4.749476242866542
1182 -7.535536796965714 21.856684010106452 2.568000295932929
1415 0.4103274344305178 -5.281055248797042 17.55527321188139
1607 -1.1638623902641811 -6.335476786480822 11.007551050671113
208 17.706769915854625 -37.188720462976306 -3.80175712623483
88 3.9274039747943115 2.026316923815179 -2.186074585635106
539 -8.29478197588927 19.903090439087194 -19.979971248953643
1257 -11.034902043887705 -9.329220224936133 -3.0903201483833955
1035 0.35530059569748984 -1.8858417174052922 -12.666621288881617
2086 -0.36740221882365814 6.171621798824474 -11.563127643005163
876 -7.362374147747423 -16.58353854282664 7.2779221712077415
123 15.986092283696147 -2.6161706924020964 -4.839239751862673
874 19.592390743382747 -0.46129069572601933 -33.53319375068536
22 5.059158158573799 35.776763512801004 -5.882996754625403
1852 -4.608095011149872 -4.536925011195869 2.635967704813913
1980 17.986921858174526 -13.342215707445868 21.329091222578636
1292 14.947043048535987 -15.039545701277502 -9.991868490952491
1589 14.119392285106203 -6.433368380902884 4.279265597597317
1420 6.126904798590259 -18.050021082413043 -16.48110149543852
1193 5.45616970595178 -0.23083617850743401 -12.95380159169902
1203 -5.748667710053664 5.755166681044196 -5.334391767843192
1166 -20.02850749346578 -8.899051151214145 -19.503800517692923
585 -19.605182947441385 -9.772881919443021 25.610843423055506
371 -0.9032725159567122 16.384537561130813 -8.476379091963278
72 -9.996927327479845 10.679318073987039 -6.377224513456879
1887 4.001567321251678 -11.432571485222223 1.865614380725988
724 11.842439547368642 9.914770615205233 -1.436267334249564
405 4.134942807500567 -26.417623814732906 -5.3542434070471465
219 1.6668902176241114 -14.928932166094635 15.497461167316235
886 11.353242838509592 22.141363409380652 -14.625919068370205
2131 33.84944788113025 18.60970314607324 13.343426154916099
63 3.32652387283826 15.672406878584841 3.054335586635372
779 0.8416281296698317 -0.8386017213241683 9.63213558794232
1860 -17.369171623357797 -43.99209530213875 -28.62173876888365
1158 16.840887599670378 1.9084019621584076 -10.07933480637053
1646 -4.182601820974142 -15.553264534655675 8.53338653514731
1224 -5.37618322406132 9.45532970489095 10.749853420247192
1366 -0.5154074143816508 -24.50749312096651 1.6995877410298599
1895 18.707268666504135 0.9785406250151413 -16.93326960981452
381 -14.423251239192322 -2.4413855086395273 11.898793673087157
1360 -12.889960553579177 18.789456855433897 -14.533388468797131
677 3.5105476974344545 -4.377907549419995 -17.019298099503594
1037 7.995700054406115 12.517714817315824 -3.7341395209523065
1417 -10.942271014111151 4.6442284678010255 -12.834213002095465
449 -8.366731839360954 7.020617572967036 5.982171634761159
1240 -15.729990829582114 1.6645433540794472 -0.501748454461623
2076 12.68074253923126 4.183110448113544 -2.328978125417549
310 -16.8627107807295 -17.22550309163049 -9.439547523121242
498 -14.518005332392882 -18.818425235467007 -31.82670802153157
1893 16.57735140521887 -18.950976171507758 -9.267946295895454
343 3.213990204420512 17.027885994700068 -12.4687980197087
1703 -19.412043237919818 -24.818983906110624 2.389876658210285
157 22.023450680474056 -7.897369433657703 -9.914333800675296
1222 10.131666995544203 8.505029763153543 17.01643682261718
153 -10.721672100395258 11.966675636074019 -17.38865464773764
379 4.802440347542838 -14.742938945971831 -7.0108968447222155
904 11.00377943988975 -2.9282997438082115 -18.100792582415714
841 -10.414013137976099 -1.3870473449615421 1.0498436022556672
2047 -4.46559545479946 -18.73759960248131 1.9103189196115988
2033 0.29349989197800286 17.260011423264626 12.410394159722511
2084 -3.991314033853124 11.721573401253586 -1.8650631579884978
660 -0.14440942891791922 5.095184991156832 0.2340977096906844
290 6.8226254574159215 -0.011283713333786098 9.150188126774403
271 -6.879844831282506 -4.085490873542881 -2.397656966317176
549 1.7482740032156563 -16.683103179263917 -10.982915710581405
663 6.43306151301035 10.360322872522907 15.171970348560816
227 5.624145600487432 20.2629366555868 -8.469793790868833
1796 7.267606198617103 1.5381795635654572 -6.42085475058432
423 0.0649210004707529 2.349515610558114 -18.838802660171524
947 -21.53305048705767 3.0193907780482516 -15.5545841827885
1526 -4.630354557553624 17.193301721740912 7.417832707552021
485 -17.99990404710689 -19.81909027448596 3.851219520691265
295 33.84258708043401 7.923703026519048 4.155361723585268
1690 16.78595741644391 -15.55825656851817 -10.827688381584512
47 -17.47068971435685 -0.3561815574619862 2.964765697732925
233 -14.14930531961876 14.251515083785215 -6.8151004707055876
638 -8.310433520929159 -0.04256045971193004 8.777362670067546
2089 6.63525279233943 -12.88797942074688 -8.077177704948534
524 5.109740536256182 -1.3958191615876854 18.26271306876973
486 -16.339785892610053 2.287175268325346 -13.674126968628048
801 4.734237960650745 2.970049100264776 13.152966538098305
1480 -10.20144764640681 4.22359686147596 5.923281661175428
1787 26.52300642838048 -13.220363030094406 29.000467087664525
1455 -6.362317586828413 8.555839292801283 -20.343357307758776
2110 21.44579511391471 19.849004075414136 -5.223725402442189
201 -3.20837358649821 -15.0369899017411 -15.310154516869167
277 -6.175878938055645 -2.6387329220657167 -6.160905206712255
1823 -7.58174665812123 3.6310175654289254 -7.206352101538178
1331 18.381461955941788 -23.79764366852165 18.596077425095352
1262 6.015800919387095 -17.41191294956591 -11.488060369207
834 -19.817025934110465 6.79860949881988 -1.0178993795435616
1316 -15.551149488591713 18.251747742853777 5.442753245621578
639 0.9613685365573976 -15.502623948097987 -7.797213449276213
909 -26.909849058282607 12.559372582582814 21.609038341333324
3 -0.2035254004828114 12.634933834425153 16.605994968619406
1263 -7.591428708824878 10.60804646931845 -4.21340211890946
912 2.213307069923114 -1.9524766553737776 1.1034619929729605
1364 -9.796913659071356 3.3796176587948037 19.27083967196327
985 -0.06752751600916868 -3.357927751631399 7.161992722080239
2145 -18.338078362979566 32.32704792072224 -2.843138906312002
437 -6.157334396561187 6.713059699446532 9.10791144200196
1952 -5.775689184088107 20.51316900185969 5.229927485361533
1462 -19.113286452817526 1.5357510760274724 -5.472008471988925
1363 15.77410991125356 11.47391915686957 -27.387097092240104
327 32.853784751914624 -12.700945592965965 -9.363490988684946
1555 -6.723707011112577 0.6908538465393008 -3.3381556955861527
699 5.639063118231237 0.8963070505637287 12.422484985419132
533 -5.644597487904774 21.905286662396367 -4.479179919591514
1732 -16.011642875420986 -9.706850529593638 -11.841862938769587
785 6.693882722915431 7.47743938576712 -2.661940712710252
1790 23.903604612254952 3.1686816155273645 1.1818348928770386
1714 -0.7198447645029975 -25.636929918967642 1.6745045652641355
368 15.355725720210403 34.433671663472566 -5.060254888634683
1279 11.33716083062116 18.441754590172245 7.152515749656512
135 3.659497362698347 -6.937448478833434 11.529214659285833
229 14.816485707619602 -0.14077320477888144 -1.5737997537619894
1807 7.17530321081141 17.31171247815765 -10.441556544688535
2138 3.0355892840807055 -4.984705300141496 7.525198097532575
487 -9.593878709421206 3.627265196508769 -4.886511976670624
1241 -4.159092098139148 -13.060925502081073 -15.440680802744236
1919 -17.74979930056679 10.13729492516825 3.098858298870925
376 0.21875648362872888 -8.33529457580361 -5.737685196418039
1163 -23.270369962533508 16.398066644893436 -4.624373338513795
1514 -5.010353304266077 -16.105641958157776 -4.650286028382933
260 -8.62980598069504 -26.87793470526794 3.129982730049262
1185 0.5835537962982783 -13.266129331525404 21.67907328125871
1964 5.400908976769148 -26.673417457214626 -7.487798457101408
1912 7.116097656009565 -1.0028856816170342 -12.166392777549412
2158 20.42248520891485 24.61890466626219 -7.9375315512189415
852 -28.499812256674694 -11.336565742833262 2.946099532327069
136 6.934945942006859 -10.185947705818108 22.050013993010626
578 -12.033450168582974 1.8769879788760198 2.6116615545933195
1301 11.959383697902409 -0.3010778079636913 -10.95091223579672
1638 -9.079734815656204 -13.890074222296757 -25.696303106299883
341 -3.068078652050448 5.288181672382888 24.251436861832794
1167 10.571761644839652 1.937230632670303 8.82503313202597
675 8.638084213002665 11.266182663582313 -10.50467422414237
488 18.06903026659261 15.91582961496418 4.016698247570481
884 8.87150552472676 22.159512765257176 19.737457410101904
159 -12.811103698517243 -25.120726856600143 -2.0383937772916774
408 4.953921121455514 7.594360315265688 -9.518817070866849
564 -1.9758949973503275 3.749961550556808 4.397974253032274
1107 -10.582151699767428 -21.267479576684895 1.7594919525998733
1437 -6.435365239729816 4.939709010034738 1.993540055170513
2121 -0.6896390177096082 9.827186752705094 4.842609273698686
1261 -17.368093956608657 9.660190672369746 -7.664891150370362
1847 19.193236997568416 -19.2816395252779 3.6666762509555633
1220 -16.17318768631132 11.251154775189656 -11.139066794676404
649 2.971771532444323 -23.266720104223765 0.4098378329219211
138 -0.0460371930567543 4.5824440350095 22.56612756973922
466 27.405310951563255 -8.936242931769254 0.2808848505046404
1516 -6.553188027584568 -4.432605045505346 10.348641876407887
1799 9.835721233636255 -1.1849481099574313 -1.2813144315884013
1368 -22.59444051943563 7.1614843015254435 18.53971411708146
1128 8.085192441745312 11.096212022469913 16.00250818150711
288 -3.826665654546733 -13.728593069721692 18.90812906702492
1429 16.316992631631873 9.825338583275252 12.16588625746512
489 5.361185182196413 13.72772214840448 -16.231651556714162
816 8.465097286183095 15.651436381292976 6.1215060297780814
1721 -23.18820604530211 -8.603458373941713 -8.458024900301455
231 -3.5580932906266245 4.525365841776327 -24.95597733720492
282 18.597194538622016 -15.214233692955307 21.860525288037707
436 5.6737848997569 7.949140480762255 0.13207184251997153
226 17.443826911753728 -9.750843076759493 16.562266552550756
1346 22.029199444015415 -8.460996647718796 18.243157823591442
1150 -9.59036793251476 -5.216794105688826 10.78495188523038
1144 -4.401223968833445 -4.226370669830933 -9.29909933446557
2036 -16.844761951666236 27.26829080571831 11.236164791409918
254 9.111732085980316 -5.93480809958599 3.953344759601654
1272 3.231675897523818 -7.946701606073619 -1.0181125179944477
1608 -10.29496860987537 15.941413081966843 3.8960908812435946
1329 -21.692372211375176 -5.739344300841494 -3.143551192787191
315 -2.869770027433391 11.919450691390693 12.659770651650643
1333 -8.101557354459404 -9.171521714989039 -8.69752604263335
1529 4.786979363888973 -3.7581112159055214 4.923873350561323
2046 15.787507518018872 -15.537305741965321 8.167437152294276
859 4.445999835525114 -10.405638147942357 -21.49110627227093
734 -2.715198411390967 9.71592556814563 -9.380294097864825
69 -22.745051409721352 8.97992433776544 -1.755087042110544
1370 -8.983870229164753 6.970962259591824 -6.573634058795541
222 -11.646252230600563 -14.015959006727671 -10.08963003437525
517 -9.93471121904125 -9.7121658678819 -11.798181130164732
1095 -6.455688616721732 -8.66439800885529 3.273650602071509
1271 -5.6453740157409245 -1.944314826106672 -20.71076310133917
116 13.589858569166505 -16.01231020079856 -22.753118088114828
210 13.317901171650337 1.3011492531723776 5.697527111577768
954 1.1087732003131665 1.3306803611655094 -7.455311009753254
895 -18.28317589549612 -5.339054717698515 -7.2567736959161255
1345 -5.177876463583441 1.2102420663595137 5.001151573802454
1658 -3.836976389596373 -14.056340666660725 -3.6084534996010054
308 -1.1208635798271505 -19.33798088575048 7.817859498884572
608 5.8572250737076335 21.782651976534776 -10.177658375727226
690 1.6017858237225802 -7.9283274081480055 13.995342985088124
1291 14.749298294485598 -1.3742534976027823 -2.971192535685209
693 2.0279041573855725 1.8585771689150303 -17.573414462991888
1210 -1.7885080571250003 7.589489779142975 10.74739541834421
187 -8.144540870761299 37.408236064436714 -14.565888104280486
1097 7.322130731228174 -4.468712335054316 1.2518489419726433
1678 -10.114837156639407 -38.266538967209335 19.788439102068946
1756 4.842301434523034 4.360617511543085 -25.329694352479834
1351 -21.963034809798327 12.943483766319195 15.76640951714986
1675 -4.9188619700867955 -14.377421932974968 16.91061770497061
386 -3.890365895388027 -33.825236886687414 9.416232933599206
1223 16.38359580791633 -0.2846385987304622 -2.147506359080557
20 6.444512309951364 -2.3153984132366485 7.9083641474582596
111 6.257362220512211 -2.132012697529709 17.412028727836002
478 9.757446746356237 22.288538608180897 -0.13490487216145433
144 24.52640039951753 -7.110363128839002 -21.34414490291176
1383 1.706909171493454 1.458424363817648 3.809711485181007
76 9.823131989461931 -13.541840838497373 -9.626011438329572
1596 -2.445316898219973 17.245627679321622 -32.23698228521079
1312 -9.868360947896685 -12.155751130309731 0.504642678239844
2083 -18.15312069417927 -0.9562632269379975 -0.9749866959280804
725 10.809276309263211 -1.222251917913516 11.153993325647692
903 -0.46139167998483077 -9.439454553158615 5.983162150983317
2147 5.066302783479558 32.24547271306452 6.027218439336647
1444 -1.117097312299011 -20.62172274377535 16.24013573851858
700 2.4095707136834292 -0.48787862713038643 -4.085008580543282
1751 1.1375995481772312 2.233977538664932 -13.717238165343819
1233 19.296279878106674 3.1632910115383193 -19.211005611234803
1221 8.610541489370831 14.122325406067636 8.46031800922326
978 -21.62274851511348 13.369416858885744 -6.83415422820926
169 -4.523567541875512 9.691418475104593 -7.559019523583945
469 -1.3838672067275144 10.91962976171319 6.400571862184332
930 -21.256186609870976 -2.528208925659443 4.101618345173626
1932 17.406474143808783 -7.076748185662328 -21.71249869626145
363 21.229847479056513 -0.05726730845853193 -25.828026037604438
2072 -11.750928033296448 -5.690267519157824 21.846954609486765
2048 0.6042456996712621 16.461589368782697 0.4839078582053208
880 8.13169290770559 5.869647724692751 17.037771897955842
186 -13.007448778939557 -7.384215642229364 -8.771624387539575
234 0.6713433969244093 -3.9167804915635416 7.835954119895296
1159 -18.75193211452356 8.227907573492441 -1.9045518221777662
784 -5.220507432622536 -8.610795116050888 -15.480300307730328
1003 -18.23892711264145 7.548466340300094 15.405984336893782
398 5.160269557318701 -9.681251845581007 17.705491315357246
1084 1.595987494753854 6.681133965676623 -16.411270322280032
477 -3.1722655244847147 14.049466434715422 -13.15710684520089
476 10.606756695802991 5.299913220180546 -1.141294750723734
1162 18.84063661246554 18.256973992926362 6.539184687310911
4 -3.756291025570275 3.2623283646261187 -4.452888379755814
1567 6.554036639283974 -3.012907276935762 -8.46883939986771
1792 -1.608244767076641 -3.6179568286257315 3.7090441704329398
1940 0.9422967328424632 -24.160021698794502 0.1652902989232803
1276 8.123696103126726 -9.570085335625896 -8.043411204569614
2119 -2.1563878599199278 -16.087466078513607 -18.127876833592257
1820 -8.797549899187457 -2.4004159049444573 -15.363959105283106
769 3.639198549224966 27.694822125337854 -5.040204163929005
41 4.046796901780388 0.50764502555357 -2.262675725970383
264 17.928995715420744 2.029386429451982 -10.993531395584204
121 -5.010375882628217 7.223618232032911 19.045603061876857
644 -28.1357030133927 -4.5294677343012655 10.634970473952839
1884 6.715206320249519 -21.586939212493824 -23.13314824233118
1056 -6.300795342493269 -5.905100113699903 19.52261630897459
584 -11.526353534136566 31.788666360146706 2.1968895419504912
1347 9.599779271250917 3.921747237664676 -10.243416072115078
777 -6.605182585874965 -6.30054865401587 13.174672588709752
1863 -22.83118666090782 -4.194952357734255 6.1255158361009805
1582 7.331701322173277 1.053371013274742 4.756518395222643
2044 -20.56014181850399 3.3638033899445263 -12.535416350922596
763 10.239997221217601 8.565603903870063 -7.341037080190235
1780 -1.2486185667510703 -10.701141703414097 11.596303722412397
2130 -0.12253178697248834 -10.79219938496854 17.004861129609985
911 9.234989372763554 -24.02565723510892 -2.2198401288317258
52 4.87787220684714 6.862317364462867 -12.187735285426188
1757 14.286889450765234 13.368917519437142 18.223461295473015
691 -9.217471864320851 3.7973774827806333 17.73479724759105
892 12.720053369291934 -5.672143789029137 -13.83058122383877
451 -21.476851886268253 -16.726247354475042 26.711289953883416
139 5.228694483438354 -8.678208728683108 25.669522009890525
532 -14.423735731817844 -0.8851858196048958 -0.23745245909978382
1532 -36.88285157538521 -26.771750860226266 -22.88220638795829
90 11.06438352811162 -11.916328876720998 -36.07343153518578
268 16.936430161632348 2.1659031021508754 0.01084175672676739
1640 12.58731578499244 7.37184654400806 18.440936329303753
2114 -9.719581045048367 13.452152119208122 3.057385450443082
2144 15.571618475515844 2.7426486352452595 -6.759568589794469
551 20.362274402314934 6.8097878096271405 24.34707071043997
319 -1.1414930798998157 -0.3624111284195344 21.584228145829435
1305 -11.629816668807365 36.39047367413636 10.163553858417714
869 -1.4426161920482081 -8.890314815528122 6.351290957160072
579 6.341048004717264 -16.308616198492096 2.0399287183025634
1004 2.6787354829672205 -27.42447924303821 -28.79582813196807
2022 -15.21518690374001 -7.161896104028209 0.8641246700651988
1941 -20.426061773345005 -25.541808929018188 -7.408891226788893
1717 5.553173296657096 0.4234519562491742 3.3308045495114413
1554 31.52815754706237 -0.8055901301934227 0.5700086982444539
596 27.444596776814066 1.8719716836525475 -14.350078911899136
278 -1.0796335519883962 0.8798982117245908 7.34964285931677
1727 -15.588733970258192 6.754563377635054 11.443473295845209
709 4.448110390387977 -13.500599278518317 19.064601335879654
1164 -5.438907818976376 18.015194475072406 21.748098301221717
1423 -10.892383693458358 -4.773471674934463 -6.693771933429528
1861 0.8508119512779383 -0.4796431292134193 -10.335612391419973
1076 -1.0547322676732782 10.668858477423587 -0.6059396569008111
1844 1.8981914263847315 -14.501740549734505 -9.451525098829325
1314 15.56286715163434 9.309195992261108 -3.3246562727813544
1508 3.949564930034313 13.16117524939155 -2.9648722619813808
942 -2.9549289906725225 -3.498453155265729 8.727062665539536
1572 -6.39466705951569 -7.333064453496299 -0.9625937392153433
1106 8.532820739637726 11.045995381610574 11.571744298580866
428 6.890409769340521 9.5433793383154 -3.6648122895629807
1277 -11.215119885007354 -32.75466070703759 0.6129097978436402
996 -7.3499115983239784 -1.894149763440823 -15.675696365404193
571 -4.737210316456281 -8.789924114049207 -14.416619254144733
614 15.492070849664442 -7.4319322996569115 -10.888153281142264
1209 18.478777601832192 2.333545760160468 -8.837865787286804
33 7.070060256987613 5.993964036938699 4.1271288068073275
2079 3.3484857719983188 -15.905686392711113 -3.689455367102087
815 -21.76120489239944 -16.738565073948234 -4.844082141212529
986 -8.917165762463304 24.280361439281545 -0.19773030001780031
2098 -4.15874468682977 1.7275405116089204 -1.8754093649225536
933 10.557994747237677 9.223240720780563 -11.51939244128231
1489 1.9784714128014995 -13.692563223935272 2.6803508247386443
499 -7.433830689690524 -2.3495356747673695 -5.8066762837698
761 4.677780232869205 32.22142801325094 7.457933559466503
1538 14.931398852242012 -10.592894042508416 -15.252961217934072
1052 -3.0482501948604837 -14.780901168378408 -9.703952936540796
1995 -4.670521306543616 13.042049605383777 12.118755436336802
1051 -8.448943185500358 -16.94175674230585 25.353779542667766
51 1.0342850079383517 3.0923232103740452 -8.96205512673244
1188 2.9300057690074945 -12.344083306755719 -9.826642750770851
321 5.597431461465547 -9.978804860408449 5.9895826788026305
1564 -22.163859405695963 -8.66501201100259 -12.953342113615216
1523 6.45425403127451 0.7199149631540231 -5.960648312357631
556 -4.020859140329972 11.447169575772627 2.11851198640696
1258 3.547135513987888 15.19298495302222 24.46935399569003
1293 -10.649880494432788 12.831961999473734 -24.686238782527592
1798 4.735678119059451 3.1201283708009018 11.861141223226237
1481 10.046303732700716 -10.741957266108928 -3.071403231009846
458 16.37893588021917 3.0936639110607205 1.0856443836035046
945 5.919953548797737 10.854026934240034 14.269219301544021
1470 -12.147628426591274 -30.90557890461621 15.937738473605055
68 2.904593631384239 -11.17149389024414 2.7908234457767485
1669 0.03414230792025841 3.2600800828429666 5.062496365471786
1198 -26.878017884592705 -6.178116187699296 16.92374932491252
196 -2.6431640404893937 0.954373578229799 -7.7005894111317685
999 -5.859449103434837 4.285522168133225 -2.831617346433894
1483 4.797174694121943 -31.44035661885614 -20.80090986067646
1131 8.357397799860838 -17.929483979333256 -7.615575103379841
548 -3.1157285618555948 -8.48348303432031 11.573210684238488
1404 -18.02579069720678 7.790748987160826 5.660675190735924
272 -25.348996673862956 -2.8002826966908194 9.270044469115504
758 -15.661818989136721 -5.650337058883487 -1.3269524771622854
1101 -24.859637659163337 6.163933832266684 13.712540545866126
927 12.302872765836712 13.06971353070236 -14.215928904249528
966 -4.103443540468526 -12.748986869904304 -12.895835905778451
1355 18.671976267016934 -24.43252779904511 -1.9401839195111683
1080 -0.177306328332997 18.067385724396477 -8.72521683291106
1477 14.453383216162687 -0.502531167175504 -12.685162708479508
1426 -26.493285150046855 -9.872305816444054 7.216091163821202
2059 8.01511972643861 -15.48797992400397 13.490705603601967
1413 14.58763531977996 -29.268095642833 -10.159581472787695
1334 -10.777746592395731 8.151638294711573 3.035659716032617
907 6.370111951089719 5.45130620081371 7.274878386014181
1629 -14.260884840339706 -6.862307248523537 11.3062657951497
1548 11.217189159764441 7.05077502370713 11.315713123512335
1645 -9.010190160808659 10.52600369679851 -14.596209240443939
1092 8.560814642639919 -12.092038657041282 -18.621384149539
1375 -15.028029351962678 1.7005400244034732 2.3570677545758962
1102 15.583945098695143 -1.7691175871781026 -11.781394601130172
118 2.970942982064581 14.296309814399198 1.8624325808760211
433 0.9090291909187315 -5.024414010395915 -8.396336340853168
401 -20.15324093187996 1.298430992767925 13.252593513347298
2020 1.6481234919375336 -12.063092824528901 -18.88363236898606
1077 3.8969883901773734 -28.95368298261664 14.798039948149059
2066 -1.9857147714191135 -3.797988865378995 1.5606701804749905
1684 -8.024542181721433 15.7800302006114 -6.654457886059368
1161 7.923596083275783 -1.6782320998122224 -8.663522278536975
687 -0.4876768261474005 0.3826861234168105 8.506806692855362
918 12.224809570906396 10.274448942900435 25.234328959617205
1877 -14.4630091384724 -2.909326433977158 17.915953709354277
1433 0.4701302576591591 -36.631299276427036 -15.056088778386176
929 2.245824213031362 -0.5631713136217376 -27.767247603522268
1689 8.824517222492826 -5.316797155199193 0.23549961365231611
435 14.99126182390121 -14.891962723870012 9.361146031959604
518 -3.361992907259563 -9.064881005445514 -11.238659818519356
174 -6.586390527261536 -3.2471262389859095 10.5934566550695
773 6.627412812949373 2.94202925195277 1.3418329038443881
1783 13.991541228331325 7.321276789387079 -29.384570027985138
764 5.930862421872037 -3.485676033633024 14.19642773553812
1953 -0.42907017327805386 -25.83899325082506 -14.896774103907282
298 -32.5604713572611 4.028169613219819 16.982251838550358
1994 -0.5901734594399379 2.9673807146516964 3.8559197750923366
1542 -30.842016003193848 -24.437125134728696 -13.073417808831925
1340 -4.0552915589126775 -23.088542913713383 -2.695137039316467
651 -0.0908776692784676 15.712225597752907 -4.442495344083133
403 -0.9097535343208631 -18.401243256708472 -2.0662019708464747
1478 8.204390265264255 -1.7097466149314755 1.0930749783512321
1663 -16.523154516336188 17.429973292398493 -14.759304218874263
109 -0.09142913412563851 4.563624694164651 0.39241581128297914
1332 -0.4429040513314264 -8.52295981260699 -13.791562153038155
1130 13.670349858457966 5.949062017966737 10.900208507575924
1662 -25.42683575361653 12.82155819595228 6.264302286983074
173 -11.193759490461654 -7.962851626037409 10.206520429065131
507 10.82927407752999 -0.7956245663005933 -11.710195525343853
733 11.89595406698237 -2.1954849862626302 -1.1601405373801899
1029 28.765176142951237 9.886517639420605 -2.613126367569647
1761 17.666596838231843 -6.916011169580087 4.928664294929799
357 3.705752013965859 -20.764077829653846 -10.438888603504916
15 -9.172267235010581 -5.256070764589331 7.436524225188207
2065 8.12761059652359 9.933643653834027 1.0540120946648985
176 14.819313000802047 18.262805816042953 -19.70120913760184
606 3.54337869655373 -0.46380108224544486 1.8642493160376992
2080 0.8558642724609219 4.130827628096637 -2.9631330111622747
1143 -24.75470969063542 -4.315334807249383 -3.039865402402727
1173 20.644164774435612 14.777053686767704 9.472269569129864
1626 -10.13570638840346 -4.070057105798182 -3.256788303273476
1307 0.6847189784704268 -2.708363504538921 -3.5192554255128914
850 20.9025091966097 -4.827810846407666 31.116138039798162
1805 1.0997834771491624 3.7633216476460833 12.873279932369906
1236 0.33210683547498493 -1.0498467450896856 -9.805600436623422
1352 9.786147875938383 -31.913366281630182 -3.4517463955374814
1610 10.412459774937844 21.369968108779705 1.4440760369765884
166 -6.74076422091236 6.819216068068946 -17.006564297146916
665 -18.49634155971943 -4.0631370678062035 22.414715289405528
448 -8.231178282206562 -22.90994393436065 -15.61437272904359
2082 -2.3186405526738723 -8.93782587869421 -11.748727870209391
334 -2.9837509185733286 -2.8320447731329677 0.9434863732469705
1213 -14.909851823498725 -17.874340121920046 4.305008106825425
1858 12.571300451001253 2.682060848049401 10.703790834970253
502 6.388103107087023 16.49080691445507 -10.30956977727427
555 19.00281956898245 20.37702399942689 3.1405978713757574
635 -15.007222350599303 0.20820324362042406 -7.984515790025955
102 -8.106564360488548 4.060514686364891 3.8082043209610346
836 -14.19711299748284 -12.179784362669388 -6.76308443689214
544 -9.43769517078251 7.671404736151805 4.904696229402229
1353 -13.680164436502958 -12.116984639070138 -28.881093216992586
740 21.379867125573845 -16.588065016004563 -14.60150932797392
1501 -2.3841396110496564 -12.992062292447821 -3.2970095549751535
1963 7.917871458150235 12.839967683938797 21.570474562452432
650 -18.44222068656344 -1.1296368013054539 5.4425942607098134
980 2.392874531824153 20.035510739919168 13.141883603501821
30 -10.53958797651828 11.764651180007064 5.942223093387921
1841 6.664871443443515 -0.37530979250154467 2.572296355944317
946 5.771454061105695 16.95660004566842 -10.563837628611314
723 6.8322742630648685 5.482979150457554 0.5052258056667445
679 4.966717784073373 17.349356210704812 -2.9498697100788345
1226 4.965760858835352 15.74763573918269 8.427457530341998
1933 1.687235685254703 11.632580575203837 7.90614369417454
53 3.0361353113893843 17.127618952708826 -25.525570063844334
1472 -19.90464809644237 -13.957283840438649 9.95826707467448
1519 0.27954523752704513 8.610490470305548 -9.533276284133056
864 8.782274334029925 8.026465239146289 15.011961588844107
1969 -3.523639007101706 2.4094795471557777 0.931414295577409
1014 -10.233631377210259 15.86642380269233 -2.865189225959646
1881 -9.321596161385155 -6.5388230616608904 -2.810613260115564
482 1.8452919558873941 -12.94321372606984 -1.0100727472025834
1738 8.692392207584135 17.04819522841967 -10.112303601161463
1409 -6.712754146967046 1.098226383086727 -11.03650699145876
1830 -0.29432997489959506 15.392728566717176 -11.69203041262204
1603 12.773321137997064 -13.964229095243946 -37.72744063742096
1000 -7.482035640370015 -7.862332640685738 11.940796639768239
70 -17.498562845316197 13.49123094961126 3.7168886379140393
1071 7.113094754782924 3.3180334131604816 -2.3591000484679765
490 2.606678038575243 -1.987311443186892 2.02962786271628
695 7.342212512927632 22.984260472769925 2.1511562428328155
1983 -9.710693604243014 5.800039007404528 -9.01442315982067
1112 1.9092165742183087 1.2813921091464195 17.592021693702552
1699 7.905532103130582 11.51318399659715 1.9546768162973944
67 -13.446412667564418 -10.526396184131375 -0.6605214154491229
780 1.2565023858483726 -9.024734281982626 9.651363953248
205 -1.9137459456705999 2.0398698890890676 -2.0191323683175137
1414 12.60135175005328 7.086036935067199 -3.690118319067846
148 -2.405291997893119 3.649327543650299 7.780559043764154
1875 -9.434195749464966 -19.36003333111803 15.959511138504974
1868 -22.12782714570177 2.6535228570836913 11.772092872937787
808 0.42997083411929576 1.0813066890252168 -1.4316513252636327
236 -14.049952047400051 13.393447684825375 -10.11343591661879
293 48.54210885439587 17.291024504495685 -0.5653323446738828
330 -16.24096534235288 4.145104459602898 -13.185841113932124
1310 3.197743365128147 -14.512624051363153 10.130365200458238
591 -1.7091225001250119 -6.3447429875459465 1.9263263723828157
1013 -1.2908567973840803 6.364046534549287 -3.8121757001855316
467 7.274076201411294 18.923758274802797 0.19971545025434
1836 20.439461035108216 16.6188030672782 -25.900279063340015
19 26.38001259708313 -21.165704645603093 -0.40846056404874403
550 -4.794055669437429 0.6184140278381309 2.687678681589745
2087 30.23294555889994 10.04756179636903 -12.970822249983932
1716 -9.21775570024275 -4.189905664560074 -0.9434504950360374
86 0.34992044284862023 -8.830426353328097 -8.325212604907016
1882 -3.5320223794945718 -14.513830371371496 -3.9074483554888833
619 4.717341707960327 -12.359569609783849 -1.5311824040326236
527 11.263802426099122 26.155713584151332 -5.5848329147871345
154 21.465409999724077 4.580988210709873 -2.6121976146504613
1393 -0.15637163741976273 8.563273489967152 -6.454354909831339
1063 7.926632390460515 -15.891233100647446 6.768002288178912
1959 -0.1620031373477269 -2.6237471793404294 1.9657205202468382
984 -12.722077792624221 -2.512021348724112 -29.597075820326612
916 6.298638012167447 -5.673591975124147 7.605490267690309
538 1.2666488003520857 -9.772374149591984 -16.807069952352464
1285 1.6429789271478015 14.423308844903088 3.742743541716471
1412 -28.667761398312518 -7.451810323449777 0.2617038529112672
788 24.208313323002194 -10.67719032487912 34.46461376784971
774 13.880376924649498 -10.327062935282333 -14.83858552347406
1442 -10.13606926524402 -4.972105760272451 14.934351032100814
483 -15.918632312017982 5.727353556122082 -7.354026287616634
465 -5.729197754235615 3.3228184469367696 10.124577861274268
1931 -21.079783323896944 23.08428663904336 -1.4575243623453278
130 18.005412689581156 -12.810454267288529 5.347589252176451
259 -12.009786990764324 12.735815142414866 32.285433906411626
103 -8.730353182999968 8.407688974724424 -8.113803828752154
28 1.5989409523010252 12.240246346226744 3.1892290376809975
648 16.937846586213098 -2.6156537837457168 2.6193012402898033
1765 -2.2352202676959725 5.340860901974505 -8.17032363162322
454 -7.9661635539647975 13.21320769746372 -5.554275328623117
792 -15.95306862439152 -6.358760034473784 -16.413748090160595
2016 2.82614293363264 -8.834920811306997 30.216487560856567
805 -33.60213727537328 -10.936345316816222 -3.088407946086982
949 1.9385914344161528 -11.155729102273824 -4.26922098756985
23 -13.17612205045727 6.686057802880505 16.247908238135555
1793 13.218539230185373 -13.31650383933376 -11.143630665035612
1781 24.76565288268371 11.503182744277032 -7.215214705094932
1733 -11.659412416471058 -17.146027641368917 6.735586011973229
605 19.43288182863757 7.149616520654864 -1.092402082106348
1601 30.616727913401466 -6.748658903489713 -6.926004248674963
928 -10.12965904725291 0.27425187852097954 -3.9548543903438826
802 -17.208197647802514 -3.674736620746882 -14.809923569739096
350 -6.8739005130607564 10.061874836224936 9.135634590127244
1206 -2.488711668606035 21.28503968618633 -24.62774228440608
24 -24.25537153464319 13.081683458653679 -13.923897279137474
107 -13.129528033356321 17.9664958281427 16.77344090601361
1697 1.1517608112247348 30.653267996116067 -7.388455965256493
1093 1.4063831038219623 -15.673053674391443 17.01717552489433
1602 -1.743093760214607 -10.139859217921755 18.26218211895233
1840 -9.925697956697766 1.4936238241622082 -8.231169483100471
1434 -7.347213860562719 -2.516927635226814 -19.126913298937026
2069 -23.59781839532817 -31.89428298981694 17.03475695542396
1283 -21.352035641685145 8.688021159844187 23.794969411551087
2097 6.725124726389998 5.734293794168551 -13.709697697123305
2091 -6.777928845518993 14.044195900079737 -0.016903432595661193
65 -7.611524826583834 -7.506791116067283 21.18372089791023
535 26.089806868757584 -11.157231152689302 7.806021731053647
1876 -2.559462606112481 4.81798499898971 3.7666407463051383
419 2.69534825521291 -13.31427626252911 8.400729253396591
1178 11.192374083203914 6.26605746942584 -11.635918917583323
1664 -13.354174306286234 -5.73357882377185 -11.968372921924914
704 28.443595031699832 0.3637166217836184 -2.8123063373444968
1007 17.053301546594046 0.16210032741790373 -4.16118464356713
814 -7.841393820808522 9.403251002840927 5.513329301849742
710 1.6841337574610002 1.5630192426039082 9.229798407459198
1448 -7.192100355089469 3.567206837060422 -20.491585673560508
735 1.7849026138655075 -5.468194212479891 7.973432039872978
57 3.845092931452879 -10.222541295524984 -40.329535949484146
1979 -6.647277743580976 27.579177567197995 6.861702533076892
883 18.2592456376849 9.995863433472318 -16.208131666910276
628 -13.692569699648704 -6.339846169488545 3.998808582377365
824 -15.714588570867653 -10.807613998370199 -9.959257680463605
937 18.13492878381152 9.394033412346431 12.28536056314827
1067 12.554896804239714 -0.17596816214275543 7.9640992964708115
1371 -18.08345350032414 -18.211587796315584 -7.60054221544074
1486 -4.111454570726422 -22.995088923639397 -5.529749769941831
829 2.9426913873038836 -2.7747167693923536 -25.417092493578604
443 13.027055228863494 -11.663363652034016 7.585000997569859
2013 8.670058981316544 41.44014760016174 -7.578674896190276
810 17.27461206617045 -3.678913233877666 4.280661651530684
878 -9.718611456070379 -19.231731600812484 -9.898863749863937
270 6.316345765790259 -2.0940992730345487 -24.31472431771887
1954 -7.9750481713244765 -13.352638460856138 -16.506267613502427
1113 -25.01290324400693 -10.813250090763598 -2.484166372203775
170 -10.770170664086 -1.1742552766835275 -2.2633708791774643
1784 30.257923076332062 0.05084047217080903 9.106561781552777
2154 -13.517955741857083 15.907735430000615 -15.564162056031925
1989 -4.396402821714172 -1.1147021061396747 16.72786948575508
461 -3.946066437310316 -3.675287625783638 -11.03679623265749
374 -30.74914815428524 -9.944749229872505 -4.705028296567553
2141 -0.5246510534309211 -16.050477036662837 -23.367515571306104
1473 -24.915728985671482 -10.379634065652544 11.077586549810743
1418 0.7853187292711074 -2.671362130783173 14.319999734341298
1205 17.649846257548045 5.143592689011024 -9.0086616843565
402 -10.008560213985623 7.485945419077394 4.151044458570102
998 -2.742069332999357 -6.219621988293705 9.479621594200658
158 -5.197653096364064 -2.7952233834394824 14.155962368165977
671 -19.40378559130402 -10.392011208068592 -8.010193239947984
389 7.213956704275486 10.771841714968458 -21.13259443465541
1246 -9.742671706536884 -1.7425930587766556 -18.481462205415436
1911 6.655987220782206 18.250042782586693 -23.910225660236836
2115 4.993102020073154 16.582258635958393 -13.982634125227635
1109 -2.5389815573949774 5.537024572539854 10.68486654238595
1927 -5.489815595288511 -0.5766444534518729 -2.738441788810569
1290 0.6291951228378978 3.238748052967044 -3.469494302736723
1416 -19.05463237399981 -16.14422790641946 3.2416016312917857
1530 8.647640977860764 15.538928685151193 6.028403501358868
1635 3.977485931618262 4.273901956133494 -8.109653180128616
2134 -0.8931029289471966 -21.326264180488206 26.223474141702614
64 -10.36905205197599 12.783316805314515 6.949200980452033
531 0.1660989772534621 8.299650057558093 6.076514580986163
1739 -2.73017505417567 4.534317207739709 11.023197864928047
595 -20.25099196784974 -1.3417486839967436 10.546536723057162
119 9.547356225634108 28.433129096814604 2.1191783038249294
2095 5.345062552791195 11.240716739196007 -0.015563241535670569
698 22.46879075650027 31.197822924841656 -17.660801157543858
447 -19.994095027328626 -17.15559579964904 -4.897936655774615
491 -3.4037987885875114 -24.661770549960792 18.617755158673155
858 -20.644008813421976 8.843813065824774 -5.824213382917546
607 13.624503647058127 -19.19599440778012 -10.428542878351406
901 -7.793582810864618 -14.181813710630077 5.861830493266758
1619 -2.463483984096416 -16.794762811498977 20.18277661846911
1139 -7.714504407973935 7.631926261194278 -13.62876135443406
2019 12.486022667184338 5.700614440534519 -6.822889028071643
185 3.4781001026536953 -6.179180077854483 8.563262225852244
359 -6.638741415880175 19.875616052807224 -1.0417511878987467
560 38.47036953452932 -18.35925316436599 23.408443463479834
870 6.797600184340666 -22.915590454245667 14.511362417327812
1325 -20.067795850019923 -23.89776863298856 2.52356065045919
955 1.2803764457169922 -13.965662037104972 15.18498063789933
1788 -25.895294299341924 9.736385859619666 7.579233401567647
569 -31.516045381932713 29.570066559129362 2.103439362703479
890 4.34821956935055 -7.731309113375111 -4.883700324388691
2117 -0.35841888643448244 8.157727858945199 -4.5520950023354345
1771 -1.7848125519221731 -7.9837860054818375 -5.5032057386424365
529 0.0716376340592514 3.089407861492862 11.93989171821692
657 -9.112351384271467 7.088855493866239 20.18372719800733
631 11.28928480194138 -8.15705634471073 -11.58681770440416
566 -11.244108602091481 6.883758350177256 3.2138494025471314
943 9.591735682092418 -26.46771513265457 -5.821652162088447
828 1.5706673625651104 15.300743628591647 -8.131901705252535
940 15.20214820899506 7.011528934396724 -2.316774827794443
756 9.165244950027331 8.741893415976286 15.096185287187135
601 -3.252709501120292 18.96869592366251 2.972907425957972
1835 24.237589044124316 12.70424767605546 18.48054646807493
1791 17.6465458043826 3.7857677500320603 -12.82433708845683
1451 1.8381724335805736 11.434990280580688 -0.33382326068782825
2017 -7.872934076308037 -19.43118607328955 -13.642454952071295
609 11.874301498970743 -0.6970294266473515 1.8964969480291483
1910 -5.041501878701133 -6.210857962774824 -14.635220819691812
424 -1.6199082743611886 -13.22362332358589 -13.24953549844845
203 2.6828716444467666 -2.9807152841132023 -1.8589047767059061
2045 -9.233873029284888 -4.199926405919964 15.985961814717335
1808 6.952797344745333 -22.258948098253416 -5.104231791495179
961 15.025733962485688 2.523495143163225 3.855357268238982
637 -7.581653794831978 7.297993921128637 -3.549382922892799
1308 9.444747140858693 -2.9234230893569992 -5.625977331110487
1041 -3.8674269908656065 -21.577922246108187 7.700305446270003
1597 0.6883346895577203 28.12160126001815 -2.938140760777888
32 15.488634878968108 15.686243374584484 6.514593885968912
1099 8.383769319171114 -7.144111283785138 -1.577730571879861
71 19.83568212355301 -1.814887612159503 3.814525060053027
2126 12.915688365207334 -3.2523041598861915 -10.609156317133177
1556 16.234199231854106 -2.50412476913547 14.688426080079669
305 10.068853644114112 -9.796129384227875 1.0354173312779387
1168 22.841699485599992 5.770890831957662 9.857118795681444
778 -14.6932211755652 -4.498873371498492 8.024674135010834
1400 -0.7597735502314016 -19.097627013544784 -16.388722321669498
727 -4.5636068591767245 22.82090692093425 -18.40357922762234
1341 -7.1772912685939785 -17.74425107596367 -4.713770599249622
2103 -3.234897216480005 3.616634237462026 -8.883152920747838
1121 22.78635552362708 6.311501968664155 12.721156889628373
1600 4.4084870861055565 15.634630242748948 -1.5979185973939745
281 -8.149967879369015 6.511463348934844 31.694950664322697
827 -9.94961527702393 -12.341577283099642 24.079589429165033
1973 16.567600980464164 -2.642525556242351 12.547942840944472
717 4.262969394064509 -12.032521350746606 1.594148506036257
29 11.665101161721402 10.760681894705558 -21.592662217637617
1929 8.587108265887228 -12.288420593348954 -1.3337901755695747
1190 3.626375866489015 3.8458257360113612 -8.57767033296567
944 -0.8061833891256986 8.046573595894122 11.060898775957071
1327 -2.0751365226559666 20.74184017524236 6.040916850756377
520 -15.867123051666429 -8.036908256600295 20.197242317801514
1580 -9.500026427690738 -13.709358387143345 1.9430056758373793
263 1.99506161728229 22.65591213819347 10.399797049455412
770 5.537452617976832 -6.712290441132216 -19.34560053447748
2156 5.909892857423028 10.367302226951299 -4.715088479877452
1401 15.850624068342407 -7.1120111407635695 -13.134223187197998
1525 -8.320844124087087 -10.431857467130115 10.70697392061518
1962 -30.857221880215533 -6.886172108683723 6.190597758237123
1515 7.391947171512905 11.751268532625108 -10.053561485498864
1498 6.890020879201865 4.673168949599811 11.960375766677275
1265 -11.131296977596628 22.227556258065846 12.87382063741803
1926 13.903701797424675 -27.88870587025908 12.351568666801116
1768 4.962066191775911 -0.012770184474024 -12.546316842974983
1493 -25.933797926453895 1.9368993488153803 8.140580616406602
1322 3.3412931762606077 -18.855008676118363 -1.526564949604891
2015 24.041381303196626 9.665154531897532 -14.915672791005179
49 -11.610809188753022 -0.0004833288526165244 5.266761045650956
62 -9.301381628490638 -0.6827812187408828 7.420067305911153
1722 -6.311735801981371 -10.796036464246024 4.8209502333649175
1053 -12.705049495911705 4.258211446227456 -3.3703018014842048
224 -5.914734620308938 -18.788185912632684 6.775285356441683
1630 2.314905600491007 2.414346985047888 1.1116488041574766
1012 -2.055616322105124 -2.1290771362720373 -10.081419497329238
969 -23.535224031672644 -13.427290768375562 7.367596863643953
1191 2.9378055500371314 16.336457859355438 1.1947584872333015
429 20.738968701094343 18.107407726664224 -5.081080912545613
127 -15.723466695173284 14.296817357108413 -4.279494901358344
885 7.421341336271035 10.952817412926 18.32613479277952
1594 1.7365832505634367 16.41592820640327 16.174271758227203
676 15.480485997368993 -14.91612489718886 -3.104557895160897
7 6.437945722027166 6.582573940246583 -8.669230658414564
1217 -8.222346161475155 -5.5722978530096094 12.538467819233121
1576 6.668508481773108 4.59472233748925 14.794635889119848
920 21.465014374174835 -15.349964398703579 -9.179576736976282
1731 -1.587856502874405 -26.387460801485066 11.959546764693963
1461 8.613091942508555 -3.880511400835096 -1.8353517306656557
306 1.847397230618035 -5.776420236116626 14.322205689330998
460 20.817596874341532 -19.55085468071926 -17.0396520298515
1119 0.699971822681305 -2.003648656928253 11.111036145259936
1533 -1.3569124792125846 0.11521123645177724 1.7290566227135449
5 7.510480179697352 -12.60229157149858 13.94582765829226
1180 1.376510974205802 4.974283236297689 -7.410514956278801
580 5.321820129449763 -5.056465950597952 -18.30026399663651
846 -33.3150235841388 -7.059605503168463 -12.530026022917243
237 13.015841263228012 -2.7715587826339028 -18.96915903706448
1369 -7.545524851336009 2.1436264536327965 3.8369969797996286
101 9.280298996482461 -17.007839332101707 7.054393082020012
1385 -4.832313842205993 -15.704227968775273 4.36535879897436
508 8.218641634883127 15.000760789802762 16.369342050062773
713 12.733051043026197 -14.987479806270656 -19.5623024359066
1286 -9.196015821237511 -10.651126962301472 2.615637803383322
523 2.6737204050441794 -9.648385579045687 -11.425889662553615
1800 -16.917355320407246 -2.4096292086437123 -8.985927310719298
1670 8.738550696353162 7.253934915099937 1.3765243252622006
214 -6.098328328166157 -2.703024934002836 6.655866794522448
992 36.646611395045554 -3.8640384320512324 2.9915850327392604
888 9.343595074563094 -43.654605426504126 0.19351019641841932
1778 13.492982601625014 27.781855771144652 0.3249925491331231
1737 -5.309498316962591 6.266780028851501 -11.932837271608303
590 0.6009872128763559 -5.905985636514844 19.430100243848088
896 14.45803834414554 -7.902002736552482 -0.5444677567419938
1642 18.310523809197164 -13.243009243784936 -16.218940100601536
318 -13.246774854253795 31.5930920541688 13.116435936375474
1562 -9.857607478421876 -3.434084643120849 -4.2424706133166525
2122 -2.0323186723226314 21.84785183201556 10.2478592864121
2135 -12.75049906006824 -2.4275358521996546 -32.960466110937126
960 14.526146080332857 1.9917459022192583 -11.091695933344356
1467 5.9785235405011345 -10.523509773077105 1.9587328117200333
1049 21.29700806272155 6.689760527593917 2.214760394608542
252 6.920613514367907 -9.406683055257567 3.5418489147615118
2118 28.147509143014492 -1.8959496297236527 -9.682925055472609
400 -6.49406521688052 4.020698362848754 -3.6043919241909053
1764 -5.149157356532585 11.835514302834257 3.0686379274109465
312 -8.720743001884497 2.4804095925851435 5.044695257604101
1695 11.74220434234324 -3.9783871868494414 15.05856225341504
1389 -38.477879541295394 25.980587313546053 -0.4450680776347605
965 6.912233771103394 17.61969507875369 2.9147705274693516
589 11.69595755890731 11.605757719346386 -5.651909134792154
1838 1.9316910208872387 -2.472871323846843 -1.5187369031588995
296 20.652403327065496 6.236376065805652 11.267160277599954
162 -12.561607188692271 -26.174262476552634 19.364588463884584
74 -10.662635729046384 -10.549884634542375 -8.680681724663117
1392 -0.7965851349073845 -35.339490495208864 21.239180343519628
798 2.7444148988231873 11.805656030601767 -6.663691179179918
474 21.16402302080814 -16.20905111646252 -12.38449593242506
541 11.039490639705692 -1.63145487922476 -11.096064932829643
871 2.4098245052424794 -6.717583461902892 -22.203210831519737
317 31.979582111176448 -4.656972541517143 7.49084276978783
1022 -12.373687860625 5.085739384006421 11.226371924986745
1320 9.953828817365242 1.8682683242318776 3.7197661028598055
2057 -10.939632757254305 8.682737264779494 16.355871763817177
1216 18.668398790719056 27.123284326895423 -3.5188644337345694
581 1.6224243902961746 5.5188638514358646 -17.064003037011044
1939 13.823743549061495 17.45237560824654 -12.969291857703611
844 8.396297902692565 10.730958777524185 11.945044662925222
811 12.591904111747295 -7.270935077790293 -5.517273213446108
1503 17.415081984940798 9.122484252025371 -14.7373306729225
521 -12.457632955358038 -9.106108413025206 -6.5648348316669045
1090 -22.405717691176324 7.628222439594943 -13.36874452774427
1701 -13.092387852603888 -4.20937381241212 14.66772405552791
1550 -16.041784931492238 4.251656496697575 16.956103021915407
2152 12.357043665886794 16.81782670491544 -25.939482525294064
1631 -13.405687528220644 -9.551391313446182 13.100237376052453
2039 14.572251547069348 -9.777327698676382 17.701619266808517
54 -4.195202331477253 -12.470524639829474 -20.73107279597957
771 -10.015488937947191 14.451511751537998 -5.785340817052859
554 6.502720519024148 9.300018871413448 -1.5407256110511371
1135 -1.6136140162128338 -5.070772456454264 -18.105834549303804
2106 4.614061339429527 9.651918349965156 3.14735902117923
914 -1.1033509177564798 -4.300763272703303 4.051528538828173
743 -4.801366771481633 -9.018551173488337 8.481289472774737
1966 2.3618338447147686 8.791174952035515 1.208435986562238
1196 -3.910265314456042 -1.9247075010792327 -1.5333943327512771
941 -1.8361255051649719 6.4007400439905835 -15.647422809106029
988 -6.141768928442671 7.705881932050873 2.8589948085893027
669 9.378193764154528 -4.540388707454185 12.500274998997023
1441 6.9689106593003665 -10.108254603016196 -2.7132781338854994
2096 13.86853183129088 6.301364872662827 7.262587556260811
322 3.326716910294295 -3.3803496003790774 13.830507966199264
1676 1.8862885646981353 -6.4818721490582565 -34.06877295715601
1777 -10.028150325361636 11.475809609721228 -1.4481114660453283
1396 3.9851353547097257 8.829898099501222 23.720689018963082
1148 3.4908993613327506 7.30704342432056 2.122944015072079
647 5.480291035805786 -34.74271037261908 -27.671672624905003
1179 5.680163864209302 -1.812621249264694 19.54588326845293
1204 17.088729144533886 -17.055401311902028 3.649379867343723
822 -13.120687263098457 3.286615589732038 -4.977154689675293
1323 -2.51277238465935 8.97001222757306 -14.65808600806907
459 1.5070689594929223 0.5405951557093338 9.222879008820646
686 14.839084829878539 -12.13335203995729 -8.67338902537915
597 -22.64936943567984 15.175050184921636 6.318396793187868
1650 5.084567302334304 -7.86259728518511 -16.186322017935105
1311 -0.7986553175940363 6.0279426240012155 -4.381201622813837
1175 -6.763456358082327 -3.963578666604489 -29.902212295127583
1142 -10.341277851698964 3.3396515820710433 -17.109807678639253
441 -5.297411272950896 26.681992669308084 3.51628101933675
963 2.0068950844613975 -5.917353376853534 14.944250871742726
1915 6.652079603946883 -23.656227150427462 -8.764082001262105
496 -6.308047840547665 -13.191814521208286 2.261456803313476
860 14.169678813576512 12.825743002290181 -11.635637966508195
1474 -2.2502275280486543 16.94487279532551 -13.11075857426896
1587 -5.607871924632337 -1.8349607431802024 -0.057594133080263704
1824 -12.630653724820018 18.416364647590708 2.406192288970041
962 -7.057820583832198 21.820836555109636 -1.4757096353619032
1425 -9.972250197927407 -3.3583064088145034 -2.86398991729852
168 -9.090017818843505 5.013436143235351 -13.854243243394956
935 4.641107435917839 19.723405223999197 -26.09856825068311
2026 -27.22389038156729 10.563259263150805 -32.17163290410819
975 2.133835936474716 -1.6039179970280681 -5.767921820763901
300 29.359348870734717 -7.194654076662797 -7.177405995446634
747 -13.420045365448404 11.675444453142221 -8.195674204171496
2051 -22.917891324909785 26.622362051126142 -16.79847075935638
894 5.241332662678277 10.724558139973308 9.090222364114528
786 16.77528717280664 -19.45086550343968 -16.048009764195577
2073 -15.562025689636288 -14.81181359400719 16.7405455153153
973 1.4778525617991531 6.07430730192476 10.504126682352512
1349 32.419584438048105 -21.681989188853816 -9.038901874182656
193 3.311531894050179 1.5663047981884357 3.7290022383873693
1977 -9.502726000536674 -11.4492079908583 -1.6932968509711852
983 21.40953745266422 11.326492471243487 0.49195336099335235
843 11.927283644838498 -3.5274111563320103 -3.8535919901641007
754 3.6809616926153255 -9.608348429995573 -6.143657004435913
2058 -6.655729499789421 12.78112800223497 -8.938214234098583
61 4.180993152913565 -6.006044080601356 3.2071361835340313
1785 2.5071794724772456 3.2341542259917606 20.805235143277706
1818 23.799723909097292 -19.651405441072786 13.077750554474276
361 -4.2287342640629 4.676879507512468 -2.9375866930935834
882 6.5277222098821035 33.53022639151747 -7.3216448796583
1822 -3.9418165308284157 8.912204333821057 -3.2318645560336563
1082 -6.10602153818792 6.482688057971438 7.988144376148193
6 -28.467715639580415 9.46148571276598 1.6578200922073307
1227 -4.418286899266533 7.572420776196132 6.872073909588064
1207 15.963850863859559 7.282055221233388 -14.556629820718369
1398 -2.1841053084761897 -15.240754347888183 -1.5966846277925788
1970 -7.5313527045983815 15.21448335824996 -1.231698187002003
959 10.630869097755497 4.0438970671719865 2.9589700501114304
1358 -6.77843412498141 17.280618347560814 -4.732454924801227
1745 22.322341715387775 26.773467534851836 -2.5319851328411698
1839 -2.1053266716979064 -11.51141655610761 2.6105027889498644
1974 11.790130711886011 -6.646158571589969 -5.349498410818605
1769 7.674610871032838 3.243200251020419 -7.359936937873571
1378 -28.235541230593892 -2.938611613337497 -4.227214075450366
1463 4.689451323144493 6.035183947012885 16.42364859298561
1865 -29.371973046687778 -8.686381784580426 -6.2164957781606365
1245 10.969244928782357 0.8189952018365493 -11.37275951813648
1302 -0.1339147782478545 -34.40942545557997 -10.424526030640951
707 -15.270478574348928 -1.219630133009227 -0.5108500012551784
604 -21.728191376799607 -8.059670482223844 -16.937454576989467
938 4.512013742957655 -1.7127081527629877 2.5822104289695336
167 11.408242550876691 11.043653637890301 22.859127184674332
479 3.1601759296544363 2.3395253866391252 -6.735105623177394
537 -18.72659645173409 -14.828595906974858 -2.217614247177182
1831 19.51785886404777 2.1582566139529247 -6.861778382234774
1431 -7.180149035716209 2.447529836495609 -0.9211317709842433
314 -8.380689933856338 2.519854325513235 4.439220332611003
1531 6.048295757327527 -8.15035546502679 -4.283936811997357
1038 21.737115695611678 -8.99974552494758 10.784121981715307
246 -22.28109179261459 -26.9215215409013 -2.2502103041186228
1734 19.472579121719793 -19.710104557527718 -10.353989715195276
1789 -18.148211476038277 -21.638621011589677 6.486914273276616
2146 13.147995068033342 7.222183788860022 -15.08590916235149
1736 -2.0263841362317847 10.383845159649663 -5.001549044151655
1324 12.361758987283645 -9.425673752217193 19.253638287515056
664 13.009071387438688 -5.359647083680463 2.8338883198010425
1869 -13.634329706396915 11.09114454101892 0.3492784346798092
1242 9.631799891169141 0.5360202956176254 -9.554846637832538
452 -1.0723225699884666 -13.91547406697255 -7.613294391824294
926 -9.566338521986589 0.7527124735899949 -12.029540630442213
1759 12.862901965384179 26.158451308722597 -9.310481782187969
1458 12.159013466067584 16.314618915887475 -11.912795202254895
385 -1.8852761328743344 4.623283839030966 6.334168631567318
732 -30.862991596012066 -14.40056243471124 -10.169413686355023
1866 -0.5331768542488303 20.54854883812505 -20.56973395379207
1527 29.65155728934312 4.353706650948183 -13.411788499034756
738 2.5267899127700826 10.44814434959523 -19.11618484578243
1616 -24.093377804859237 -1.195167753011221 2.3276567542086135
1971 2.5812082689451277 14.64586563984704 -9.689195458225203
329 -13.0987461149939 -19.324306277962577 28.555414124598826
611 -12.53459197149827 8.827001865325157 8.69608512846335
1126 -6.37986098715521 5.391637776171731 3.826235307319495
1494 -2.3635527052738574 -1.2648049273123567 10.981787890978099
602 10.752701246446495 -11.11193212157035 7.316364368714602
1428 -26.506380078990272 -29.21008894293031 -10.09614182061096
1873 17.195299415311354 9.810697448357313 -13.747363399917164
790 8.608451973759719 -0.18262829418417714 -6.368238814662758
971 -7.670204534499049 8.277084598568797 40.46132834579703
81 0.47021179001321356 -16.28616943412574 4.53227609399331
1443 3.5716629887648526 5.038373682557151 -4.254687919393398
1064 4.701074854608582 -2.3756739544800336 46.128851105439225
1935 5.052961328692292 -4.952208959680186 -15.590575745794927
830 -19.31650812989542 -8.445400824005171 -3.0737093442408217
2124 -4.910440960503676 6.864109722987077 1.106240496713325
313 -1.9361003145543227 4.2365888021932525 10.00329788810019
932 6.831722288360589 -0.2830279292683655 -3.4443020308051895
646 1.7825683457623454 -7.317820639122748 -6.434242274027092
1968 9.848315390732 8.027842359305222 -12.306628967900476
1155 -14.928330785062487 4.057429395758745 0.44506777909303735
837 -14.2331446589789 -4.108448330849588 -26.864383635716987
1153 -15.21146879418023 2.998441753442479 2.8541435271491387
1505 17.469256502164814 14.82097580725673 -10.447183301475773
337 -8.815778711603473 12.061305957129292 -7.1244005868459
714 4.805710956181517 -1.1145947798284708 10.512613438417663
1651 12.60945598730873 -19.49310625772245 -6.277548725164256
283 7.302651792093394 13.316673102889062 4.250426690920775
2006 18.194553236797258 10.0502189130322 10.230538498252157
1579 -11.826697436493673 -31.44455137270353 -34.31027111307897
1641 -16.83228169419954 -16.50303065143776 7.02543520873984
1309 -0.9051889179397967 -5.892109651541178 8.416068633275286
1541 -4.839523491256559 2.74131747584796 -7.305550856487776
1273 5.096113732451093 -7.401174026804055 -1.7013086074332557
659 7.672838814648488 16.090591630135716 24.386161803179778
1184 31.434231967592122 -11.02315005958841 -2.647184521302267
640 -10.347731338036553 17.931560388096365 -10.11049839559975
156 8.621130267835342 15.701556890267394 -33.94573848405086
1239 -10.512152382569273 15.128374726652952 -2.2178945861216266
217 1.7126728056362146 -3.3214856432485886 -2.4126397417153225
617 9.61729592660801 -34.357423586948514 19.481979404843944
2000 -17.176774804903975 7.19528939876675 11.411658680995995
1296 -16.800608847708425 3.3324019802620892 -4.597975906845131
472 1.5018386638359935 -3.0126403826696726 -18.994384082036003
1905 17.051616304918472 -3.595847356981521 2.2179244402972436
17 -26.146082458271387 -3.611520625823527 -13.579589927439963
75 3.8226525444563295 1.5531501553655376 9.133522936612108
1617 -11.512259518481814 6.545887318415103 -18.82392211683786
1421 -9.227494015860078 0.4955545963904895 -3.503863308674801
304 -24.424742034970105 13.893223961863303 14.997533742328642
1622 -13.072849409821435 -18.557467321442815 -5.4637233800934615
1017 17.406116088128158 17.400823859079544 -3.775552484734338
160 -7.3733511635283975 7.216935399865235 -4.114621017221271
42 14.365488665511851 1.1704426832601487 -2.8531336105743605
126 7.351305660904967 11.169999135586377 3.6389124719519907
1247 20.984621250187875 -23.33746359602116 3.0830334556469685
1215 -8.431573645159697 2.040941729625636 1.2270426461771209
672 21.658264847398424 6.991323246186984 0.8020184615711974
39 -0.5132598394525882 -9.453595910350964 -9.947484555650329
1520 10.903611860879964 10.375428833404815 4.7011754479130285
1459 -22.67846147378947 -11.622086770449872 3.2799441108915546
1031 21.313712789643283 23.18662956797592 2.576193549623861
855 -2.1458281450613534 -0.5003643547038973 -1.0873434651804488
235 -3.1130773470179944 5.096207278714781 -2.457399261015804
995 5.785529837689212 10.040594304504992 -7.235630738466268
804 17.576835349428166 14.816571464855592 -12.332854566481204
1547 -15.819611335409164 16.15437424818254 20.65546875847767
506 -8.101874232119767 0.5064104518832915 3.62476475500876
1499 4.685449840051455 21.36768072564069 0.29486539603470907
1001 3.7761923402648594 -24.25202719076722 6.684443442092651
760 15.372889693920289 16.238284788136756 -18.61361559609381
1005 14.63751297237418 -46.253070872962674 10.025109595684977
2023 -25.992853110909692 6.43348598700541 -5.279577316028989
1019 -0.49706364444845397 -15.77147868273056 16.73694616238524
953 -9.84232448543604 1.3982205686792628 14.989850246354893
616 -25.950800309725338 17.493387350406888 -1.7886031419698047
1110 -10.641505742212384 -17.259232517178816 7.9044199157720785
1998 12.272471295306259 20.727729998549073 -12.114719495894146
970 -22.005448701114016 -0.6427799415870142 2.591452835925398
1492 -7.523465125310086 2.038813228158493 -2.3141058512022084
873 -20.115766706614643 -24.128498183934173 21.03706004346526
78 -1.2834756216925136 13.35000161786499 5.713592428033337
1026 18.111446549723652 17.473335742044714 2.9159488989803513
1591 8.425482710425342 9.039845163255073 -13.612532866620123
1665 -23.014554734882864 19.88438531897281 -15.287089070441262
232 0.4287588921183444 16.235650757470193 -12.49646430618567
715 12.27109008624241 4.98871111661306 -8.426213205697524
2153 14.890259496115752 8.43377207007196 1.7250100176149619
1574 -13.88718687000364 3.3301210251792055 6.6704822408743185
572 8.944571785786403 -20.13651324102272 -6.552239693739483
1488 -7.829999632381253 -16.903333961730965 16.081040251373185
1719 4.726019946240964 -12.724850317901165 -20.111280607539552
726 -4.100460922060522 -10.637287435289409 18.080351354319347
1543 5.17213143179765 2.3546838145742663 -7.087172834061001
256 -11.754133653952026 -14.041797085639159 17.973330878250348
1249 -0.1799565515617386 5.453553732920779 -9.451640915466603
1123 -14.60551302319426 19.334043516979683 2.741772110189354
2010 10.259473503967818 2.543077761788456 2.384507672945542
543 -15.640018601127391 -15.796727710003937 16.600174152135086
1942 15.873607403174889 -13.52629621187379 -16.853986099376865
1141 -1.9195245601196593 -10.02087295475389 -8.538399092121061
823 3.6794355274149577 12.9049586724244 15.534435107397831
1880 -13.512502470736603 -0.3811173082407589 -17.092920323147627
99 1.005470928154304 11.240064729667768 -2.269576840415623
475 2.7176497345765056 -20.2204107117756 4.668305703533466
1707 -8.510134798034368 -11.737883948601617 -15.739418476114858
497 -23.21087214520437 3.2068572942355145 -7.224384917013564
324 -25.59572964447832 6.383288806790467 11.532235866286912
1692 -10.339037187232776 21.247775060949014 -13.50853329936433
1539 -13.553772192543429 16.201900438464122 16.974452450224913
2037 27.64933185521964 -8.364764605485783 13.764084441599815
2108 -9.921878146782252 16.14151282777891 -8.396394480458525
1540 8.015413389857798 -5.49237828714265 3.8921853031657756
1282 1.4569350289275458 2.9495831740235876 8.874114804407037
480 -7.763125364054531 -14.083984821371303 -16.66779623900428
82 3.5891573698402404 2.047178272273165 16.823520126642578
473 8.398514733528708 -17.55526908600803 -22.453118853077697
1406 -11.875815380971993 -0.3679372848735626 8.78213887103743
13 -12.070795968806458 -11.121763056141225 6.256802867422161
1955 27.984462996968645 -6.473633053303539 -20.94647006043456
349 -11.393904284892646 -6.762628698770426 2.532317693478241
847 28.565732028004554 -0.07435135528569255 -15.797256350656548
1066 -7.875214414720688 -33.53574578148964 -24.72992851804975
623 -23.174746632119177 11.284573250095738 7.450258599836258
902 -8.60303136427769 6.779363818242261 3.818316340582701
653 17.1014760135879 12.334994003633001 -10.590740651467073
1181 0.9960237069113217 10.86646432875543 -10.911630228048102
1923 -8.768363898765772 11.516822825913545 11.545198120608775
833 8.37614521582713 -10.374346137140462 5.817286799752084
1321 -7.263950055620153 -5.316081673879569 6.769945157264496
1450 1.2242904714280813 -15.233760330415173 0.8425328840442429
1011 -4.653025740504617 -8.526044797851307 -8.748388442259758
645 -8.820204695675605 21.41480388810809 5.936321634993027
1313 -23.04954326947508 -8.305085646950653 21.815303984413553
621 -29.434600396538723 24.31264841342268 2.2641234064621765
1706 -10.091840366712033 15.040925178683503 0.6821309566577903
1961 0.8487904209029591 22.970371069456736 6.450575602690726
124 0.9982363947013593 -5.483423030025746 -0.28107169913072894
1922 -15.130210762622042 9.517922226261193 1.2712653010154713
2060 9.046875400282362 4.589733486285413 6.5071989949905165
924 9.016383987616218 -13.792962228660638 20.651630090523174
1083 6.217949841194875 5.759102311858725 1.5287912782335538
1487 3.431983131923139 -20.13654452783672 -14.163279893575613
202 -20.54798202435928 -2.5549293781096405 -22.726617318481185
2064 -19.68613634729162 4.092562453550496 -16.085124125981686
1259 7.666028916119396 -12.922192750388712 20.81671589689286
897 -10.163971534751774 8.577884431585638 34.004594330528306
951 -17.151360179360044 8.965596609628145 17.626949116882475
1886 10.962530186221972 -14.549144117081704 -3.254168008591537
108 18.42647038813868 -6.778280538380253 19.241685108213005
1648 14.28093556567058 12.121833199810371 -11.374387007585735
189 -14.265559677201871 -5.0605633250794355 -7.382454237609237
1673 -1.9827092332761214 10.241260718929391 -34.94743137351263
1637 8.321713029191503 -1.2942894171949695 3.930294376541188
976 2.9692517776736396 0.35664317611740437 -8.470809089727553
1809 2.4724933449428095 0.4538909648783255 19.366640832187
821 4.751288250199492 -12.833369978583457 -20.93553558723985
1047 -11.33289078783954 22.397331038159564 -12.686256006916803
1903 -11.220210996003383 7.3440918856950415 3.169914674612895
1593 -6.245688300572291 -15.136773042740867 7.778523158699631
775 -6.007230765981277 6.26503292242947 -4.9667805989895
11 -2.526728585532503 -24.860463523742148 12.099974488565465
146 18.55781417757255 10.351844881452596 3.479617160231198
1522 -6.161558031858886 0.09310794311495713 -24.28517091268641
736 -3.900168542796568 3.751389442304828 2.6059141546701046
1917 -3.3206986637980878 6.810601661682273 13.513633192441292
1615 7.445958023914324 16.729023761170673 -17.53568558673919
1491 -1.9333303243572182 0.971937153542792 -3.1655536202782737
1137 13.550713785128869 -2.4925468879693318 11.243022512045604
1298 4.852394936130929 -14.248075862765845 21.073664513247078
2052 -8.887375647957192 -6.475615325227093 -13.999368677232322
1551 3.374534055926352 8.713084402418344 11.992976153850886
1160 -14.7987046334091 -7.79441140417052 -27.87845668164479
534 -2.398757195915836 -9.962089119664919 2.8663439569270563
215 6.401415363193768 6.329233169966824 14.354988001216753
207 22.612634528692006 -4.25350866602076 -2.8648852290937414
325 10.904394118844282 -22.724816417634674 5.607652524737749
1044 -25.75591182572748 -16.083735974776783 2.0034551599957147
509 -18.161394977914746 4.1793825245196015 -8.034616870698065
688 18.86236854972369 1.010799420850869 4.057665305235522
1294 15.982526217112515 7.419140269987633 11.895353895819609
1907 -33.71336716106035 8.002648214496071 -2.6959036144732416
721 19.815910368642083 -9.075657906964043 8.163659197011818
1036 11.485190140338585 17.080053024793962 6.424189706933094
968 -7.253077729724225 -7.85779702492198 5.5152900857048275
626 11.553377868396174 5.0889897112124585 -12.940086656361617
1976 14.014326926431249 -12.51654673566199 26.003173264694404
1829 -0.4795214201526316 -21.117898099249054 -19.135263381495157
1621 -3.0908674254318655 -3.860870160553844 8.765790097944798
1595 -6.543052472154161 1.0609768984931178 20.143997170176927
1680 21.627669473693235 9.614328376814143 -9.33886715901841
2003 4.3002297992296405 -1.2083776043087084 -5.266300567885899
347 3.4450023380417454 -1.146845358982935 12.457489904764074
1623 -4.856240316109194 -9.736056807151146 5.806462432143937
1028 6.298360769242648 -7.81029969862243 -10.275786888143442
1958 -5.369883134638591 6.648418165165596 2.9933995164814964
1811 -2.759021649371942 -0.14006088166009056 -14.158627572084818
1956 -8.653475899388939 3.1540444582324123 5.193557568589399
2 2.120538722470635 -6.030469734264379 2.0255877054339075
1468 14.622300896638865 5.1675142108028576 4.814251775139744
2133 -13.482299522787573 1.7446763202635396 -12.70188260221254
993 7.506344597005497 7.691640030979023 -14.267328921280571
2054 4.506628367354914 -4.024275358512989 -13.204541519006503
1613 -0.19362597389439123 -2.6563576439949483 -2.425115330909168
209 9.890963058311506 17.053415623869444 -0.4953770547077077
1350 24.535157747123503 34.31294689328352 -18.779444354257556
1634 4.322928301866361 13.803278567526247 22.043867943498725
1949 0.0768300987969308 20.41137602787694 11.777196502371899
323 -2.1233298799373794 10.006400150819777 4.762422030363299
1046 -3.8117382649860363 -3.4931842129869324 5.352002977748868
2004 -1.0512554760307835 -28.109098612374257 -36.46869110000721
854 2.7841673936828735 -10.342427917661372 -7.606302031535242
1747 -4.394623775299008 -4.76004768281881 -8.087237629685378
171 18.441617271381382 1.9369455341411546 -4.041374353436519
175 -27.503089584685814 13.802270407370798 11.5442730099802
1212 9.440890958508197 8.72279790949357 -13.248178260525194
1513 -25.515424150587243 22.13376874227199 9.90476677356964
105 20.119194292507657 -1.9154857515931751 -12.194357614933253
1315 -2.9103261191828933 -14.46542769924251 32.06998604882231
1857 -3.204854463391954 -2.747664298090327 20.956662530142864
1253 4.497715556830409 -8.779679533122449 -2.782332530482042
1644 5.792412828203667 8.93516316302655 14.713504750450454
1252 -2.6887560393966004 -20.800845562587874 4.604921171465166
776 9.134101757837861 -16.764935707649034 -24.352451456565262
142 29.638422861818896 -5.100709889609653 2.914862406492339
1136 -12.532357276342712 13.097424355043756 10.028633954206423
872 0.16862635591493044 3.2875131110654627 28.058441785350762
1299 -21.094371381197586 -14.458683672349315 -0.8891738724806755
356 -3.963634420021222 2.5670446020512285 -17.673014762790007
575 4.3109422903983186 10.984129333081448 -12.487769218649058
273 14.341680922447406 -16.44348501892457 -14.858026267197177
431 16.97725216907277 32.19261418165618 -18.929909850724083
1687 -9.934688481713435 -8.768862505548809 18.267301973177435
1614 7.205179411798867 -51.11822675100683 15.604972155191666
1300 -7.877934613419648 11.85699237446677 -4.813092870653752
115 -2.36974761925207 4.51626041183462 7.833708182254881
1238 11.701520475702967 -13.032536614624808 2.7264986087508603
1410 -4.584616363680997 9.14450558446192 21.14538362812383
576 -11.055586847310034 -6.754616404359427 -16.548992028212954
1834 -9.683978465579504 14.587486866077302 18.09544665271645
494 9.677879159122474 9.138571344154483 20.08780649250839
80 2.6131645950989104 21.31255891585253 31.754960151942743
1338 -10.584700449936195 21.25124089413154 8.730202546273802
14 -5.551197564446404 0.44805113247783984 -0.6780972594390786
1859 -3.6422144646157073 8.109675815334787 -8.261000969024954
1088 -0.29644517402494963 2.295483692841807 13.15102131114398
1639 -8.223176308293258 0.6894863348520878 -1.4180733039508802
1888 -22.06411440329599 2.3162698257977596 -17.93148183089361
1718 -5.741751113322553 14.692703926398183 2.0055101316560875
378 -13.883148781147579 -10.886909489083726 8.991130724234228
344 -0.4253278262016667 -21.110971057776705 21.96245294948003
93 -5.523015115199171 13.155134459987735 -15.677894766788725
274 -11.235449007513628 1.7213100813607811 -7.962942749642776
1930 9.703085369927294 20.402480035957318 -15.732876319739407
1693 -19.355404771477627 -10.555321238791873 20.752788276712455
1034 0.9386098283553254 8.180444543352445 -1.4110003281760493
1855 -16.24159276301774 -0.12921585029317464 9.076820232354379
2120 -17.44000067238178 1.1663174021981049 -1.3310098426235746
1999 11.029639853540072 -10.99744468660744 7.592153935721951
1552 -15.443642463415562 -1.3186570321792415 -9.847589696168685
1571 -1.8796286413741037 -1.7502033242009778 -10.587050243580027
95 -2.9201877525106896 -41.653629773085015 -4.802002324161613
2099 11.174905327150663 3.390150689984745 6.091621233071914
1030 14.75545624111266 -14.58971587707251 -8.64867566881462
1192 -28.68851011284239 9.268659664515315 8.544334903588595
416 -11.590346756908303 -17.37688842860292 31.827696687296918
505 9.97005724610823 9.731092565686518 3.3336999987839304
583 16.361093602347584 -23.82602612730111 7.205394387800604
1284 -6.779313057109883 9.75671187054457 5.352582283468765
1819 27.97881706463624 19.212274262304977 -10.220033697455456
266 7.112053180398028 -8.411100928586286 -2.1455875973002287
1871 -12.274260209011814 6.259098162513336 21.263765738149413
1544 -12.278179096141223 -1.247612087550899 3.0710814145177063
797 -9.714574212047753 -42.50012322559572 16.490001193574386
1767 -8.564011508355271 -6.376892588728447 13.479380274934977
244 12.618834942964078 -19.19803734820377 -5.167554377352044
1411 3.952852120066657 5.01859914704856 3.999879297638949
1850 7.502196040670236 -5.356029428759879 -13.148430877410414
546 14.697319855429669 -10.951793550452093 32.452379057226544
2127 -16.204879631405813 -6.1786366381638205 -13.911276192594856
2142 -17.145447934298907 -14.486782597634615 -5.7098056921548705
1232 -19.900284049386602 33.29614145692202 -22.301481720410194
1729 0.5803831817349476 11.436253213906264 13.955254306246879
603 9.395411782636502 13.807036504598631 -2.606356586063796
370 -33.20126469347722 2.715138979069081 5.761701354355756
249 -5.074783618664141 -12.149884622093747 5.2954950352199255
925 13.993890802889947 -11.939667967091824 9.964632408625766
510 6.481714041553647 3.2920820876616825 -40.752941695744994
1951 -16.405716614237956 -0.400087173832292 -5.334445292972917
762 9.072384617914022 -2.1431866001428754 -16.32939557654826
620 -15.261468951726787 -25.10295114905886 -1.0201344013244684
2032 17.80095908578906 5.564775626667329 10.681051573279372
164 6.5017718969044145 -8.994765848390607 -29.775151846669704
92 8.36883815128794 1.6920991387318378 -12.15619048700212
333 -6.049032694464638 20.891980155808422 1.089245490667682
1288 13.658147512441795 -5.378655686429133 9.811941431347252
133 1.0020392026740217 5.904980221791474 -11.92907435862599
55 -1.010843883567816 31.001706891319483 -0.4531730918431134
339 -9.010830918325418 12.0592922239358 -7.913572641221906
1938 -13.547544136840122 0.7736545697588466 6.161354101614711
1117 8.828230866627372 -15.288595649280392 0.7538373305223892
931 -3.1664941278536287 -5.938978567904932 33.49641596126946
1059 -1.0167770806692287 7.3457710058551795 7.53593156855005
921 11.738217023595846 22.10915417017126 10.450941381319508
1149 -1.3671065382086331 -2.4853118490800137 10.370936908832812
1328 33.60973052153187 -1.7496423732448998 0.13764125163695687
1682 -12.857859115628182 0.6805207289710608 -18.374181061820796
1770 -22.54211923018602 -1.5239982732631785 -8.589773697045336
1712 -10.212792016236621 -10.654884931868343 -9.803170216532298
1656 3.0267414088946056 -25.91454941363773 11.090430283076058
1535 -7.478829282281824 -2.679904968887998 14.769263335414292
1960 1.1421320762158964 8.687703826869408 4.235381516011976
501 10.710358829942086 6.63324746011697 11.439505119312015
390 -15.656672569623433 2.2878941378989683 -5.202012998606054
1720 1.3742012743863994 21.116670540144472 -3.1123891363211573
2129 5.187819213919289 27.949541353292815 -3.482968842430392
163 16.72447445515889 14.998279890108849 -10.634063676447276
680 -19.51738719790485 -5.490942338744516 7.423126016703395
1934 -4.170056916813734 -18.49759649711526 -1.4365973800942253
492 6.470919339198604 -3.0173970526274374 27.84055414393163
1068 26.20076620685017 -8.887808293334942 1.4985383842963225
464 -13.81266140768882 14.379443082086777 -20.289700979452064
1103 -15.341384900214068 3.24257306212322 17.551218073660884
1479 -17.006525192303243 -2.931134474032512 -16.80535260775597
286 0.4909580784733775 -12.429937558744424 6.516225883787349
120 18.63396397539013 17.531528001091853 1.3139373671206402
1766 1.5683858343691774 3.731567049986392 -10.05406819388784
1913 -1.9031221196349384 24.00143925740765 -7.04114146696576
1208 -5.948121729210861 25.015252601980585 -14.438470971913695
1604 10.952965227523404 -0.8643592263852424 3.3375385196995278
470 -0.6601667466838673 4.519959254670195 5.624339614908263
1517 0.24455008616679652 -24.927032767195396 -11.149534902568876
856 7.570569697867341 -5.048015772873905 22.421794864816462
1379 2.5642301437499544 -3.841467215321911 18.15260338752329
2034 6.8748888234584555 -14.550058856225258 17.403611814483863
1147 -4.801864604265313 -6.831450225045529 -0.25522054868509225
2067 7.634888814738791 9.172891546145804 3.7534452783061734
294 9.228352083460045 3.0814014838733166 -11.685154192536226
545 7.750284484696366 -10.819028153838781 -5.9653458970191995
2035 7.560324447600702 5.850816506369161 4.167785386394724
1813 -1.847547529142291 2.7072224799319895 6.052597721950413
1435 8.610982058021575 1.1761519985836542 7.218099405497338
1495 2.041969115247418 12.541846379021038 -0.09022063307227705
12 -18.649622924421234 1.4864872627625627 21.581800969744624
367 -9.541265094257573 -5.088526960462147 -23.580178352212663
1045 -0.3184995476043578 4.898854925069177 16.832297760666027
1507 -2.7728421538307373 2.768702524689893 10.643934132471916
1891 12.482174178991528 -16.764659670442384 12.819907330184714
1856 8.141205495820211 3.8108295432231345 3.532308525302271
1116 51.98680510369445 -2.6614373704212264 -16.266133661430292
718 15.557895647236574 11.826620850170853 -25.272372028306894
406 29.81073212385046 4.12825540066731 -11.045833682467613
1174 3.9613820935720914 -9.225274532549877 31.33454622042506
172 0.4392620202552772 -4.759176789372324 -29.94507059522945
1058 -4.5646617697021545 -0.48764965507660857 1.7851251216813893
178 -11.04275184929421 -9.505508385190497 -23.151456093696904
681 22.306976891258376 11.32716107237031 -0.8584524504173879
697 -3.513983695232048 -6.99705879478835 -10.77977297772433
250 -10.290053867246794 -29.23026240575692 -12.675295429642352
1581 5.578790018162961 5.884244113720397 -4.468502468809133
1060 -6.701326991155235 -2.0457810076044383 -14.94463289769309
1986 -14.008641708198269 -19.32635459148196 -9.319400187151771
1906 -2.933612600791033 -12.659574474492658 -8.350077221754292
375 6.9608265514406495 14.00699382964677 -8.160471218832305
1335 21.626370153117076 -10.05798100628148 -3.4542365682292155
1356 -4.685369617368356 3.2580844938033477 25.24200057072785
1476 -20.28094981821975 -4.92133123056065 1.921991649946445
862 -7.006097755532431 13.991054394657326 9.812578660302991
1152 -7.1155181937169205 5.161438394769641 0.7157309664024858
582 14.926334971259097 1.1026306961779682 1.5762960479339005
712 9.78419267585175 -11.79454888863936 14.331054833394111
840 1.9299597623882099 -3.660333153369243 11.880633004946993
1661 36.568591996527104 -15.432169469026142 -14.121761579138255
1402 13.537104131948398 -7.587852960041466 16.634501760070222
934 -18.4471380110397 25.570286437491642 20.05266435138349
2150 -5.676197098369128 11.163282013769116 7.008633129864281
641 7.6824875782278506 -2.1018854993576226 -12.77078725389191
1319 2.37518635052898 -14.060194452557598 8.243008654279429
1528 -5.362388100053957 15.109475052269199 0.582700232366795
627 1.9504417713522908 -10.756994387496174 12.734346591357106
813 -10.883943731402855 -13.225589751760127 -18.9738651256725
2128 8.578547067394911 -5.124691642567687 -2.4906995990693113
79 23.077549028392927 -4.154116956767144 -10.920577751168725
1359 9.159217628911614 -8.456188774336255 8.049658943811862
1008 6.981369478305079 -3.2768557805971 -15.962810137539174
1199 6.189703174644686 -19.191098158954976 15.36707158227954
1744 11.416187861630238 3.3721145982025864 16.328334584357815
1496 -23.013442755068464 -3.856558398543828 -16.253044072578035
1509 26.282888662870786 -2.090511474121161 8.914503857914172
291 -3.664308345155303 3.4995075531375437 -1.2525808638752938
593 5.183176657449844 -0.09743895913351625 8.911277765738943
1211 -28.218112500269395 6.191824347791155 -19.052236316326773
696 5.208818038906145 -3.9266863665849296 22.78245276454238
1510 2.098680826670843 7.074680338129299 22.374766115060964
682 37.68818968890563 -4.714667564454856 22.47973777812833
835 -10.023745749247544 3.2089310417931562 9.523604425729129
793 -29.090214968737044 -2.8922383247285333 1.0504236243727465
1694 4.115161631032336 1.974427819557971 4.529885005037525
662 2.008144589016859 6.112646608827696 -9.300917707118684
1846 0.4469543559853616 -6.925915743555216 0.4553421656028362
59 -1.8067689385877141 -4.7225964305390695 11.067601924397712
1735 0.02379736490064342 10.145641164561956 -8.932866984433257
36 38.71525951035654 4.839494614100562 12.10171862018261
2137 5.689656942134789 19.361850883044678 5.412275483897619
1845 5.443524420223236 3.3603445689634466 24.82207970224795
455 -15.202644228375016 -9.945021583249305 8.130466736540695
958 6.303548595241899 -14.861521205457672 7.433575090873379
183 1.9934936628216153 -8.444216562678083 -21.621661430045037
1170 -7.111823705548692 -17.782818760715276 -35.24679853890278
1827 -11.970395883662832 6.292821248234293 -5.752985578074288
404 17.508445001541695 -13.182642555524863 27.799217067589105
1146 -7.928143361753058 3.6175944114589798 -21.243998353999405
251 -18.553021192897436 9.873432426372329 21.62493732198624
2053 -4.125562509909427 6.648714840888229 -6.269766677250651
957 14.736054310972357 9.253523701531934 8.353972826297866
1073 13.213649410768344 10.0264309874601 -1.5260542362901444
913 10.223856002257335 -7.029830289557555 6.829932815871277
1278 -17.418088651761273 -11.507011105481068 -10.797525282975743
557 -9.109360179331155 -6.298768282051607 -4.736644946493994
1108 -8.50575902207326 10.931709146143072 23.03491745232512
1306 -18.164613748792384 17.379175768222673 3.64343767079186
1599 -1.919892314654579 -15.207696984787583 -2.404927443834851
2132 20.08271310067448 -25.51399704260308 5.934805080087979
285 -22.5526913591275 6.964934425705144 15.57027680093033
519 7.453532072162673 -0.7870979701718703 -5.42198977738141
1546 30.564065631728283 11.471216120342659 -7.450577576234987
906 4.497120051431185 -24.852106677454863 -1.0623438666972471
1849 12.651372211909178 9.077963263914244 18.593767966945332
990 -17.804882487859274 -10.596838051485799 -20.90790311987844
1763 29.2699278084708 3.977529478755732 -5.192623884713995
1054 -8.576724343073286 -7.886956597603421 -26.63027554761121
442 5.336160119575009 -0.5750758000528524 -11.032603990702924
87 19.895236927639942 -5.034747881423251 0.6577893849758798
1057 10.00659643953389 20.920022648736424 4.883011626652151
463 -2.3842226857606588 -12.979340462360991 0.6497139130610567
58 7.3494739762041945 18.92261494965994 8.578235786244086
1020 6.1510677353791685 24.1882745304617 -6.815880384506944
2149 -2.0120473087899913 -16.39544178375016 0.26800875242862787
1921 24.961359237375294 12.090845376285095 5.3367078099615135
692 2.1860751662217 24.006610297523974 -9.722392695969718
633 10.301054165951664 2.7760036835209827 -1.149682616855733
730 -9.477755374848224 -12.368345903268853 -12.178716529100651
1466 5.299671510805751 -22.698064615395705 1.0655800576779573
179 12.043981288566071 21.022388400109588 14.269876313415223
1704 9.52007478511609 2.7283961284663283 -2.9005290627799156
889 -17.443280775469777 15.898917311532921 -19.084585880894466
151 -3.2432079854327904 6.86950876835895 7.913064577903947
46 -13.269409508349288 8.593498929258878 1.2485200380778285
50 -5.110252918420446 0.7269671610573514 3.9658446282522943
562 -4.355636116440834 21.14289330453801 -3.9161106811147386
1657 -3.397547636286548 -7.237177044759082 -12.243173174599251
177 7.362394995146529 14.41634302392511 -4.25062901243068
1317 4.953183543151548 -1.020879823244073 6.995217349698941
1469 -9.157314960552382 -5.51329181197084 3.561851088110277
1633 -8.90928739910446 -10.68719484754156 0.8643443527240716
1944 4.412360612831551 21.835679831589832 1.8020486883043727
1833 -0.24768583773919448 -6.997370858222639 21.93088859953851
1864 14.119843594225289 3.390427164792004 -20.502343482938453
213 2.9862493390048415 10.308018641417506 12.612665278916637
1177 -11.912481741305314 3.32137302689143 -12.102857576264546
1655 10.3145449216898 -13.293600067004666 0.027752556358083033
1348 -5.654073502884149 -5.197835718136537 -21.00995514922373
1098 28.799778085404732 20.598550874583662 -10.708811118223892
1132 0.22442653292766956 -4.693650155529273 8.434812465072227
668 28.49142475154772 32.76792468094329 7.514875929702629
1659 -1.3880664176535653 0.5544242199229287 15.084454709233375
753 -8.65212218746032 -26.10856469001294 1.316489435065472
1202 -8.804948044948775 -12.497960743977472 -9.52180715446095
1266 -5.738564697050684 10.377757984383631 22.40385619595519
438 7.881110928541352 2.2087867854050662 -5.5983519116248
1972 9.985466222276173 -5.0459870105060265 0.923276034870844
1889 -14.840131451212038 2.349576197086609 14.787880336517762
612 -9.822450848244946 -9.809029358261565 -3.3011899074272226
44 2.746301869353144 28.626386453480396 -5.133294164565127
1916 13.519010712042109 3.153728966261259 15.207903394372053
1862 -3.558539855104204 3.3417033401034697 9.870924631236234
1264 -4.1928710155106925 6.779111207443392 2.046330196917292
1879 2.965031434054768 13.222846783832022 19.396429652716915
2024 5.196833220854319 -6.678192981198081 13.293395020739453
360 -11.406180365164703 2.523795560411269 -14.342013595808202
1908 16.283551788285084 -11.360966436090482 -25.962351019389732
2068 13.174640438922893 -6.4336405518857145 8.717346167571337
1079 -24.223013118816127 31.847322249090816 8.719653903213821
1235 -6.3799197303979405 -8.597628870897355 -8.926803326774493
964 7.223024650067432 4.211201184773886 7.141002632657802
192 2.3454061281517604 29.552763192019338 10.694241539113072
1096 4.607935843936387 -6.597040383761706 1.5082641521080133
89 8.98297267199954 10.762480372989163 -5.897900678290436
384 -7.635486829503798 17.814504570353833 -2.6366994068490293
2025 5.60739315377244 8.136421941193124 2.0614272975393315
1660 -23.645668930119722 -6.546207827217759 -9.188515156370956
1032 11.6717039664216 22.209958149458867 -16.74603030767423
1816 -1.3617587523593548 -14.577949374928066 14.747403992581985
1628 10.812753256208518 -9.321424125853222 3.51231448297944
242 8.054514735458701 -19.936156782886464 6.034405729130012
820 9.591011204815018 5.67659772495312 1.4290010762877285
1795 -21.97928742978439 -13.184409468822356 0.36590229699205634
114 -5.284265030440066 -12.596014058022241 -3.0677937914244393
1376 13.9095087124525 -7.190735265767756 13.673420347441919
182 3.182350163274726 -4.107861362665722 -19.913250547637684
1750 -12.462831396578805 4.675322472858487 -1.1255310149947242
2101 -5.385816618888996 -6.897540276858861 7.567921851229761
848 -11.64210618872302 -3.3673664777860677 12.595782461565564
1746 -3.159044899439012 -28.999236416524155 33.93307385125224
430 30.57222262745553 -14.5058540594703 4.05176622306462
66 17.612390118006537 1.3948973541184178 -12.223354287617182
1405 -11.589266404773559 12.15679441503474 -9.263147543163445
204 -12.072081317242276 -9.038937053362844 -10.48400371376978
1091 -20.333268470762086 31.00049527552783 -0.9652062197784678
1936 8.63974715880031 11.497128483098829 12.193863802213498
536 -10.257953073884702 5.600040402291297 -0.5996767123441411
2081 7.111936049058232 -8.151573032834762 -12.590701529129374
615 6.437528380455525 -3.632207808455372 11.451297240449291
1901 3.9184959169124833 -9.527493147635418 5.218783355992536
1440 8.592402572378687 10.816498123753224 10.187244573068579
1842 -21.454022606264886 2.4363736746827644 11.047468588602516
484 11.288918065610826 -12.172405516652729 8.408921003735143
1055 -9.236756674596476 -37.393187360018395 -24.199346630476764
525 25.083110316088 2.5562662548227086 -1.898064560068016
373 3.46668868807019 -7.198230631108277 1.4710258864913885
420 18.61205221218775 8.183758450670506 5.540391009095862
1234 -28.694609900828176 20.747635185474664 -2.2010729486607388
1559 12.691461341856925 -17.520617729860845 -7.524857438933571
1297 4.3336747011771415 -26.080150549920603 -22.299100175294136
1438 -1.1436243400887556 22.79628896865922 2.306010361411998
1015 8.865048575522906 -19.203524609292415 -5.850690536561867
974 -3.583713726916664 2.7881346965763676 7.35836145399652
1390 2.6568267069783293 25.151159389234557 -17.99886453598633
1485 7.390871011527953 12.699500050051887 0.014664382435949261
2050 7.36416969548152 -0.9041908799305151 5.309943630563499
1723 9.482399454024959 -9.24320015154116 -12.0792539508614
853 9.900635347542408 -0.04663115031600313 -19.319969143967768
694 -5.220960621226114 20.411123198677224 11.783437805204453
1395 -7.631248060823944 14.839688201864531 9.659781714146003
1565 16.009143134859833 -7.708898221156088 -9.9002280905932
861 10.088385344459518 2.059624400828535 13.104710137263144
1397 8.578154846751277 -6.144288414281162 -20.721847204263714
1586 1.1462342410052795 12.823269683654138 17.716172363366777
1679 8.325995051658921 -5.478961069602326 10.618749482421372
1303 4.8140484826798895 30.60797940094345 14.820179861968947
685 0.2534629515235444 20.523899681320845 -1.905894962285044
18 12.04716351913676 -15.434975179815781 4.860608900972232
258 -8.951886959068979 -7.665619099109108 3.2913259755558713
37 -5.267573597988728 17.456685943988777 5.549829034782678
1902 -4.527499829503291 -8.57007415956368 -1.2061862735308477
2157 -7.186162879481751 8.897142058176431 -14.826115087868235
2031 10.444290267256061 18.12999794178282 7.356011900037693
1465 3.504925170716439 5.956025723242525 12.229717657653191
1229 -4.198888526931643 -12.203009853340856 -7.890373609810427
1454 -11.53224310634327 17.883807955767985 15.159988406171932
269 -23.526062605496467 13.792779263383606 4.224030111002625
1776 4.697429085805052 -8.199921424840015 10.053393411341952
1062 0.7910325795759794 5.791351450562908 -4.529631539338994
504 -6.796663830244753 10.415486133779433 -1.8753804852082532
1154 -0.7281599907503872 -4.884799033871537 12.12892897713012
613 19.58019138855732 4.481638919541293 -6.701711233019176
1817 14.184314139505497 -9.83037691140694 -9.337319275054952
220 1.3970304616202933 -39.41503792198858 -0.7569390737509859
716 -20.828145537226668 17.17812979968473 22.070262081897585
825 -7.914431127988855 9.61536149143851 -15.759818518672859
2078 14.988212539902593 -4.900665914124333 -6.142895447853847
755 -24.175684897179405 6.043026563369859 -5.536280435790122
765 4.021669818767632 25.96513114255977 4.542024801140696
31 -21.588784900475886 34.51894368723585 -3.402431611626892
1904 12.925192986507968 3.2358431018251204 25.432963715306293
1874 -1.8988939944233971 -4.380604692830917 2.3477892576939294
1560 5.836566764958111 -1.4847274578305354 4.39792214562976
1436 3.939495729146255 -21.9348230214353 -18.01192572277264
1797 5.0385237152553195 17.669905776680398 35.34979154251824
1652 -2.2900160869597044 4.0282743110359345 -1.1874744581528676
369 6.608957811004656 -17.05572077148418 -2.4940092923658472
1786 5.91504689513976 8.2288489489169 -5.011873696968181
1947 -14.34090927879929 7.512462351499446 -5.4408467430983105
1439 13.914927296989733 -3.453498755483818 16.672942197005362
212 4.139522968255748 7.254672801435714 0.955138986824982
1447 -17.10063936465423 -14.578835673453723 -19.437998872679767
303 12.652864594242638 17.480024584894856 -15.224606519051807
391 28.019419034922183 -7.7920991770225365 4.437623419831368
1585 -0.8409753326495293 11.836530562273122 13.582188269600747
1742 -4.6968774997424285 9.487246230772389 -7.141284897391588
636 6.62779532949468 -7.669597878851645 -13.972581623790783
1151 -1.0695924716574332 3.9310728799657295 -8.180321959982063
674 -0.5955237792935295 17.252587255945958 -27.440234020351923
1698 -11.834391635369446 3.451805097778257 -23.185072954251208
809 -3.166540221737157 3.4513485451234347 -16.74661136201753
94 -7.8233393511963225 -5.015737854662826 5.257064684387252
1854 4.587422019032685 -6.899446777403053 -31.917905240255767
1909 -13.865796635073538 1.0841019435335288 -28.182082325232116
287 -3.450395222166382 -25.009489466132273 -24.071049382661375
43 -5.818379187156518 -11.697717008554813 2.824126729808534
445 8.237083366558393 -3.5546496583270146 5.526869435945877
922 -7.195106714529356 -24.48202479754259 -10.372938546037382
1666 -15.443672392178932 22.13484312514239 0.41090269513507355
1609 -10.800698929521504 -6.509188554273285 -2.3276586776201698
1568 0.038353015963300145 3.961529049105011 12.359678161189136
2112 -19.732799865715823 -5.009987268155536 -13.493266922918203
766 0.5726878125210756 -9.727472699536424 6.995314458876281
1365 -42.05224318546458 -5.3015456319151255 4.342884200257081
757 -10.736821551133565 12.083039938767481 6.076354549390881
1688 8.030848544417761 -7.712485040026143 -4.901850753926585
1403 -26.816079743333884 -9.235683735495044 12.697526878654923
705 19.61034609909159 -15.772614556288234 -0.6589994639256457
1832 -11.178255174390221 -15.579977679142681 1.5384210724452954
335 -23.687709241812744 -22.831099311776697 24.958118626097345
783 -5.164053072201325 23.29216842997375 5.812965532410982
1086 -13.944616947682402 0.6591500504601637 8.65226266986215
2027 -15.648716155135135 17.204456573205185 26.23795615312144
2056 -8.127516722798624 -15.112895701990208 -1.4652988116518098
1890 4.8858854257636555 -8.606709489730445 3.941991551885087
547 6.241294790825769 2.9432349820804635 -11.061575603341545
905 -6.945971426063131 -4.884215438442707 4.320260661429173
1618 10.657517259235096 5.636835713282856 7.745564142096551
1814 -2.500945242932618 -1.8891485453500005 -10.226509973686884
110 18.967103991968713 -2.8737022325709067 -0.4226757484242819
1230 0.7914639492537389 24.01177750409766 2.7737895209352
900 -1.252262086403219 -0.12517593206628647 4.278000352960435
26 3.9943964479180076 -0.1558290842286881 9.03026870025469
387 -0.5152362461822113 5.746649135075263 -2.074291963292494
863 -7.559991034529374 8.8784356909608 -21.517697382902693
364 5.796894150570876 2.60586155955714 13.554599902682464
684 -10.600664583424942 -21.89083747623165 3.63156053484871
276 -1.046966085046045 9.584524236890179 6.384564042965229
1225 -15.398889822498086 -4.207136315592905 -15.324899133373366
2071 -36.348842703625074 35.67191094244351 2.640520578368719
656 -6.372595412334676 1.236866409563771 8.826908312100032
1287 -1.1836141006951058 11.94432114706574 7.717450389974
1025 -16.546534048502515 -28.154278507287835 12.619729206583104
328 1.7735920024826441 -2.726520416188653 -12.922274638451663
1828 -3.6921092584087796 14.837504521835212 -12.81656939137327
1870 3.622667838095655 -19.428696579608157 2.6856898827334694
2049 -4.214616761700501 9.172782980304063 10.497705592186469
972 12.185441731731999 22.660322053739172 -41.75582807952937
1344 7.331171851191351 -10.378520400855647 3.595218551662355
1504 1.9711038638985903 8.846638372735104 -1.3389940897173083
468 -29.779523492169226 -3.678783545358062 -10.026643753288202
1125 14.222556246294 26.823663589006642 -16.786161909521816
948 0.6439618806275783 -20.717749907709297 31.126760144101027
1511 8.26845007979006 -17.601804738682837 -21.583580705833597
2139 -8.859327457949208 -14.127796971014112 1.5981062068308443
1710 12.3584115258116 -22.96606668933645 -17.80465740063721
262 10.886453765411202 9.531206653565782 -0.3477168983060406
1002 -7.890307649105343 -10.0355333863577 13.329958768533364
1804 -2.219158731096137 -10.358414854287291 -17.62988509500356
1709 18.272278084779046 -6.266855320663294 25.76911992738031
1140 37.391942141659776 9.64108849773245 18.63993022958363
1374 -18.22143967072969 7.4795865950447835 2.6204322110977083
831 -10.011117271596206 -1.5057468779079564 0.06973745545386616
2041 -12.224134039865824 7.22334043478843 5.660136890344356
247 19.93192731407749 -4.276442301504084 5.2333093079040705
1078 1.7099895317909388 -27.650815465838406 8.153472016476872
1043 0.8246337883184142 -2.596392177065236 -17.54248203838401
495 9.846355887774227 6.462799153138164 10.90477439106155
129 -12.203300644587781 -1.0751871506578528 -3.9934900810682334
2043 8.82390627569524 2.365483784295646 6.277340813316443
1157 -6.421575439169152 4.675050102237251 -22.6036224274245
1992 7.155867676305441 -29.889241267993167 9.046678481282711
362 6.171375242890875 -15.415421994895375 -8.27401251881341
425 12.567006917216299 -21.6058878499943 5.467418790327051
558 15.941880415168084 -12.934818568944157 16.62137177221718
522 -2.793021253579459 -2.35213769733782 4.616126242704526
100 1.0024869117291522 15.778826288535447 -0.43181849641389286
513 -10.189568131770296 30.88979414401023 15.13633674916741
380 -21.776583839469982 -21.08824465066684 9.029915410759351
1728 -3.2292773467770575 -8.1693490940595 -2.5706757946735617
879 0.43967464403042594 -1.3360038135450845 9.214982303928005
1872 9.306921373284448 9.269184331537227 -8.382577556553462
336 24.10172667934773 -10.640788590363762 9.319218807404319
206 4.475058629797576 3.876612854632334 -6.955407826599441
875 5.309920385503045 -5.566211159342722 5.945735960752168
702 -13.03868943065082 -4.250795533289373 7.418799231460255
1779 -1.5304189965446002 15.919797783476904 19.23689645216761
191 16.43875382589151 9.318633327519011 5.926108167221457
289 -8.814347276727322 -10.67205070587287 20.716469411745422
1577 -13.88484628746357 -0.5129546743217158 5.068111405902984
600 -10.15788262493683 -45.28860811727321 7.916283344719578
1815 -23.768348485848815 -8.549457925823246 -1.1451033952482392
1129 12.897102513953849 -0.9133932327651745 -6.945523106833897
1760 -26.16931205530933 -0.5181119934890352 -10.027531332134094
987 1.360607807125233 1.3064150313484328 9.181993078587517
2148 29.002722590354892 -6.094979102363725 6.185334208743525
40 -7.6412997376229645 6.089037500905236 1.4189409413569447
739 -11.589533408568382 8.440787220323761 1.0344169306015645
241 -1.2914639762307047 7.115392408279822 5.875942438499993
1380 -19.098627093884772 -1.6122935107340242 1.843126732788811
292 21.189578515524992 -5.420397705396255 -12.979807531754574
1134 -0.5790882317821251 -1.7700628944597274 2.919459973892246
1506 0.7468554914869688 9.696946944186916 6.422651296700818
2123 16.34329591037103 -3.4354542769330703 1.0383772059160292
819 -8.984650728961494 0.8467053017828883 7.15117244152448
1281 15.173114925104326 5.04158057346708 19.35937478492959
239 -13.730818873010865 -19.678167871631505 3.1814953072015992
27 1.2796100750240018 -5.975086546431543 11.825309372283993
1620 26.532746257524444 19.19159434760613 3.8104072603251087
799 20.792416035473327 -15.783909852317183 14.962355614787862
1010 -1.4538424789526156 10.242243998769574 8.473184740129971
1255 15.564574636410752 -5.687264663834201 5.337229808692824
1573 5.239582494470044 1.826080119150266 19.068173352848163
199 28.681366516387012 -16.574448740018784 21.288242705883675
1686 14.727606596737482 3.482366481472071 -7.787877761160253
643 12.101302492971124 9.009586782095024 -8.155614337219314
1069 -16.487218158583676 -4.655402457937733 8.765095240613046
1260 5.349705489196523 30.031424740041544 12.13757392970956
666 -9.763140714028312 -2.4452952024244805 -4.350270585800903
1671 1.223339233710768 -16.35628980850754 -2.2031565494368706
1475 9.33856329724328 -6.1744804902183885 0.9933741463318135
1219 11.268340679105188 13.302362255671381 1.507797571209167
1885 13.451790513443871 -3.437064626006686 11.455189142626407
701 2.9533405814917653 -40.34073625134249 10.486041918772083
1138 -6.4743983962288105 24.418286656074265 28.596743176845692
432 -15.704151825334188 -17.708588712642346 -20.297204443001068
1050 -8.253766272117927 2.5428451020718685 4.232279587305485
161 7.225287734309657 -9.662916697295524 -20.899229813205395
748 12.519498316391958 7.556740011360918 -4.694901000868319
377 -11.599012080362261 8.138798932111941 0.17993227338522805
25 12.26501843393002 10.166292132338786 12.888236101946626
1018 11.043017656285288 -16.641255594885987 4.588972428960592
1384 3.55506646795689 -13.40049486545983 12.86593462411532
1399 -5.959988185013878 22.473583458606214 -24.56728841986191
1918 8.888975267238088 1.447377340774384 -2.2407527923779376
806 7.666765092873047 -24.899713508903222 5.1278482147618485
1557 -9.102154620304667 -39.0290167346651 -15.88631193248281
2007 -6.702192053988772 -11.76591583212255 -1.6562845129495334
2136 17.963207169099427 17.58627418153575 -11.063142389264923
610 -6.168025857854145 -14.583043060171217 -18.45717688718182
1598 -4.122603362123264 -6.0571978497877454 15.226762511231309
667 25.117693484831243 4.292083993418788 26.245264533160444
137 10.578940150064234 7.106426986197938 -15.78341961052235
1741 -5.670345097211192 15.124496714102035 8.307429296205846
1460 31.6460864699522 -10.68244884587816 -21.543113893217004
1848 -21.931759976509372 31.594088055707708 21.793928676603798
396 5.91747571429387 16.990458626619343 -10.865552281443454
530 6.237864821486852 -13.147897559916979 0.18920033553448137
991 0.6866225682366359 -36.778730839336276 -23.80029104089585
1945 -13.1380880666462 -25.097319762408734 -1.0860227939228804
2011 4.251436964688854 -6.38480999922404 -7.983533695537475
742 12.172745586720815 17.21734482411753 -2.389561462305492
1075 7.55300309204753 -14.43057023319488 -3.4256632244320575
573 -2.3680329698810656 -4.533092803155149 -17.928161576931316
881 -14.651916960981668 13.667091741602974 18.516620510627085
1588 -23.67149675647383 -5.832734805299757 -0.8505166470036226
1672 4.1936123306691035 -3.7551560804892374 -5.776373175114518
1752 5.0157042424432206 -0.6692520418122885 15.195653071441354
1419 -5.743888149538977 2.6791125174785604 -15.109233193962801
2143 -0.44105898869815774 -3.138936824209072 19.894002624277572
923 2.0398110839182104 -24.90090567614698 12.522098590780066
1367 -3.0279523371300505 -12.859478777795239 -4.31900900667705
97 -3.4257334772318138 -9.781971538016878 23.086026545429572
1016 -18.93033009537679 1.088518174255124 -14.270630275063976
1280 0.5822270948525322 -28.933012098825227 7.894452692416626
211 2.7504851010505873 10.108112216713305 3.545164509979901
2090 8.404114321853417 12.183755125422952 16.897309681213343
230 -6.87797825394952 12.686634821169061 19.86992823238415
307 5.646507221949605 -4.067800725053378 23.752619695944755
2042 5.355973526478085 -8.284101289493615 2.105758727964499
456 18.862487319773184 -7.2294739157594865 -31.023632964954558
165 -26.176097008597615 -1.5984072609178437 -3.176900397732345
345 17.073792806081443 9.077900689617579 -9.10360768898428
772 -5.191875613676172 -8.441306073034246 -6.168734443250179
749 18.705836529948336 8.211390423502582 14.907743222840212
1583 -1.066446520557452 9.954784547363383 -5.83715792249022
1194 0.6814327091199219 -7.69901838929458 20.4367725237603
1424 -7.9627634351626355 5.9216563369505355 -9.195195333948623
2030 19.669369274378145 -5.171701928209154 16.439183286106097
248 -42.42117682593051 -27.970800252988877 -15.106297083983113
1275 1.9293167117792105 3.5666299894517297 12.785779869791417
994 -14.059393134478237 -14.414870838352849 3.667038056467544
563 4.943696926617577 -21.87718073363557 2.140522913327648
1382 -6.2063713521144495 15.256815957798137 19.428259693026384
279 18.606921542630314 16.94548548228207 5.651889073366118
893 -2.6901298685781683 -2.20624227053488 10.621441606084545
131 -1.071407639333197 -28.893331693403542 -31.836418332206975
301 2.1163808240054447 1.9559788480624916 -5.4632437595004575
1674 12.196400354075216 -7.31906677113302 -22.546246743761497
570 1.9549475593887085 20.521489500140245 5.32275512585985
446 1.1448633251377347 -8.085736351405576 15.396308893070392
982 -8.355105500396132 10.078054183520136 10.473717698541225
1482 -19.259312955894288 11.582309026728376 7.787614113865237
1950 9.870770250065071 -11.310033072149215 -6.703386959249062
1708 -6.117906946576494 -6.4428168904609135 7.228659615604923
2088 18.803032668507342 29.43923068652866 9.28679710882116
1268 26.393179460794244 2.479479344008009 -7.959378016017192
216 2.896407400627746 4.273897444391533 1.1282858990605822
351 -7.37312830275839 7.778751264076022 -14.735215365655641
1584 22.082276247243446 -13.435721540845417 -9.72116843044853
149 4.203341550661834 -6.78554782733562 -7.200276014256661
1048 15.31026985268502 11.773067444711337 -5.097896428222665
1357 14.198613320382492 -0.4048902915607018 1.3724866821541053
526 -20.987662161006682 -1.5037238388413035 -22.435218535695757
1937 27.328552607146637 -20.818176942935423 2.5277038967537515
1549 -12.981926805513014 -24.26490661067324 16.743959731058304
1195 12.599033141009683 3.3237994787948892 10.168533289958601
1394 -2.974426746081696 31.615186722207365 3.087645381568685
722 1.9405467239042407 -4.13084976133183 -2.5124108457614724
2094 5.0146935049802925 13.376625837796139 4.940776594887139
2159 13.276318128328533 -10.853598050720533 12.532472872279918
1810 7.771219713841958 -9.026383299832132 -5.624477270255018
1512 5.659154774858126 -3.1993485682436993 -4.7122757617290345
642 -12.836035418945619 -3.3614931378203976 12.502600356731243
1713 9.3710339019701 -0.047079458350607895 22.853370652528397
1743 16.830914945162146 -2.5598587568014657 -12.114264626439367
1748 -2.6766429387576953 -27.291758409493063 -11.909256802578444
1654 3.396164550377118 -26.909677756499455 20.51877541103368
96 18.200687603585802 -4.561452718800539 16.987095555497252
1943 -11.671924897104876 13.684041742808683 -18.035595537038265
411 -4.311622530961488 -9.951519455174342 8.812001821048126
407 26.45619180769951 -13.54447572523849 -3.61087320688658
2085 -1.3945096164255602 -7.965655544016709 -7.079394515139548
410 -9.488626839171562 1.4051680872760404 0.006625940610570904
427 -41.96410398173315 3.379243459919568 2.391583409425768
781 13.369707863589662 7.229451111091695 4.9149398155762185
426 -13.59890243232447 -6.291343991899859 12.287817594077767
