LAMMPS data file via write_data, version 2 Aug 2023, timestep = 5000, units = metal

2160 atoms
2 atom types

-0.13095198564362853 30.269865365641856 xlo xhi
-0.13140961780978877 30.375648137808874 ylo yhi
-0.15165527673719126 35.055480726733364 zlo zhi

Masses

1 15.9994
2 28.0855

Atoms # charge

684 1 -1.2 5.001477025543783 1.648361301769821 0.9645959268544807 0 0 0
2018 2 2.4 4.917930244980679 0.1707693568410559 0.21487710526824555 0 0 1
1864 2 2.4 5.233495694903077 2.4999681385215657 2.3551401747240366 1 0 1
658 1 -1.2 12.809387947275617 2.8987656965135553 0.9090471053764302 0 1 0
1921 2 2.4 12.316579365176336 1.6900832418397782 1.8298793191273504 1 0 1
262 1 -1.2 12.919987430795127 0.12074239416890015 2.183307293169769 0 0 1
1002 1 -1.2 18.23100381154172 1.448307018902235 2.184928113490933 1 1 1
275 1 -1.2 20.727522639077304 -0.07816124624688818 1.842377333597257 0 0 0
1140 1 -1.2 23.707816895920242 1.2752725332462396 0.9693952620293513 0 1 1
1657 2 2.4 23.427253682009844 2.777727422232362 0.20368581106323594 -1 1 1
741 1 -1.2 25.94890320493165 0.49937954900694725 2.200025048806778 -2 0 0
528 1 -1.2 28.227897435098367 0.5859920808448071 3.073487445929417 -1 0 0
410 2 2.4 27.56620646873941 30.148724980932453 1.7960535552153378 0 0 0
678 1 -1.2 27.99996875597112 30.2496300725495 0.312764588369182 0 0 0
485 1 -1.2 4.816615076418867 4.221073827711825 2.131826017306957 1 0 0
1098 1 -1.2 7.976637190164795 4.376671919047194 34.38259170480094 0 1 0
240 1 -1.2 10.812262047589746 4.51905411163082 2.2058804288910943 0 1 0
1304 1 -1.2 9.257103673029983 3.0206680286858374 3.480527787264401 0 0 1
425 1 -1.2 12.687043907935674 5.739568293182032 1.0225634001381938 1 1 0
1828 2 2.4 13.613178939246223 4.355503747007872 1.3320167633271465 0 0 1
1677 1 -1.2 14.754227443721508 3.877012194694265 0.12758151771092782 0 1 0
380 1 -1.2 18.1311185312935 4.328671235178343 1.4291186710401025 -1 1 0
1972 2 2.4 18.59196267382166 4.793459390013784 -0.055835155680357 0 1 1
10 1 -1.2 17.2563588689853 4.135577754042718 34.24657123263783 0 0 -1
1606 1 -1.2 21.99531729384594 4.150201877039082 2.6922736254420356 -1 1 1
1317 1 -1.2 21.860709865772304 2.7958697082517157 0.1333040331916357 0 0 1
1561 2 2.4 22.09723604497869 4.6096087209664764 1.1981457137435352 0 0 0
34 1 -1.2 23.625161060576353 4.288077577304211 0.7253583554465921 0 0 0
1384 2 2.4 27.717133001778965 4.342956636855891 1.8143761383639763 -1 0 1
1879 1 -1.2 27.777966202837614 4.322776694222234 -0.1044965101495509 -1 0 1
1134 1 -1.2 29.08462667612993 3.623262802823509 2.394358569527122 0 0 0
66 1 -1.2 28.38523043971245 5.816377246323883 1.9577990381232884 0 0 0
1593 1 -1.2 1.2415299315078359 6.855076542158826 0.827467498524412 0 0 1
1671 2 2.4 2.7041744078465992 7.6419605636195165 1.1020466008425112 0 0 1
134 2 2.4 5.110668395984713 5.709587371267609 1.9586795451625818 1 0 0
129 1 -1.2 3.6075279028496494 6.312625159816098 1.8710695048433503 1 -1 1
1281 1 -1.2 6.049065973791767 5.920807153887849 0.5168364977753789 1 0 1
2074 1 -1.2 10.091068267641164 6.880764965046675 1.7086400206471601 0 1 1
996 1 -1.2 10.373563604552363 4.971436919801244 34.78956921763921 0 0 -1
963 2 2.4 11.021436357051801 5.646640845847986 1.0513981577914682 0 0 1
2028 1 -1.2 18.798846320259823 6.44411328410315 35.01378857595164 0 1 -1
145 2 2.4 19.044831365786045 7.485977010673299 0.9844347603412917 0 1 0
1984 2 2.4 22.017539699357595 7.665353307416396 0.4765386186460977 0 0 1
1270 1 -1.2 19.23499112928776 7.478913812999619 2.7225604232858456 1 0 1
2093 1 -1.2 21.84906543975371 6.126121054797114 1.0702318665178523 0 1 1
280 2 2.4 28.077359756739437 7.340963690602106 1.8183641353352307 0 0 1
140 1 -1.2 27.7044489544223 7.233524507753647 0.2006228256548135 0 0 0
163 1 -1.2 1.4488736591533355 11.248818098799331 3.068711406379246 1 1 0
1438 1 -1.2 2.21414626263346 8.842830166637556 2.0771352054059067 1 0 1
432 1 -1.2 10.108004857880584 9.11875231542296 1.851297141096349 0 0 0
615 2 2.4 10.418171076733097 9.863584741112751 0.37423595086858696 0 0 1
1120 2 2.4 9.29335808283207 7.90678092879116 2.8138359836712947 0 1 1
260 1 -1.2 15.116058684605276 7.532485733459031 35.01728130522033 0 0 -2
470 2 2.4 16.410214832759166 8.378307702595507 0.0844907644040045 0 0 1
161 1 -1.2 17.309513508358293 8.004803167773279 1.347999318484365 -1 0 0
444 1 -1.2 16.09337801533764 9.849850562951515 0.4093147946273812 0 -1 1
180 1 -1.2 20.539441871162623 8.179439789159392 0.6337665684478881 0 0 0
1558 1 -1.2 22.831230762679276 9.041079119904285 1.0268870480218657 0 1 1
98 2 2.4 24.08294266373887 9.92485366958697 1.7647523819262998 0 0 0
384 1 -1.2 24.505324052677338 9.539989470045024 3.1598433365923655 0 1 0
120 1 -1.2 25.500535300859145 9.909786222123762 0.6438504417807684 0 -1 0
1660 2 2.4 26.99510508978216 10.601029726917345 0.49857261394369456 -1 0 1
516 1 -1.2 27.502777712316117 10.29128236942127 2.1259037717292184 -1 0 0
1165 2 2.4 28.08677330307571 10.971915741081112 3.469648885672547 -1 0 0
1015 1 -1.2 2.126317321833646 12.369270423749672 0.3645071828452613 -1 1 1
879 2 2.4 1.780237979658854 12.474873139020568 2.0963447227937335 0 0 0
1752 1 -1.2 0.4897434663477571 13.556500577558113 2.076779474324516 1 0 1
1944 1 -1.2 2.7723955113813297 13.284796258023965 3.1699601833378437 1 0 1
254 2 2.4 4.180152142112269 14.032951531321203 2.9175959448293662 1 0 0
284 1 -1.2 7.078717287448758 11.603239660623005 2.0831778271126637 1 0 0
1010 2 2.4 6.302667867271233 12.826643744782482 1.2246103340472314 -1 0 1
702 1 -1.2 11.97237490162755 10.586275028734278 0.4057107220162057 0 0 0
1129 2 2.4 12.612418869626351 11.819544694369528 1.1104777866562143 0 0 1
1577 1 -1.2 12.23839633811268 13.35498358828884 0.6500469154145374 0 0 1
1220 1 -1.2 12.531738793168776 11.77216599617008 2.6949142874079954 1 0 0
1456 2 2.4 15.56405928816569 11.28075257084529 0.09809243288207915 0 0 1
598 1 -1.2 14.194020856588681 11.805562925503658 0.7948184755589498 0 0 1
243 2 2.4 17.902465029269628 13.149691506566638 0.7239437367849394 0 0 0
1234 1 -1.2 19.40934313572131 12.352431682849566 0.459844531432947 0 0 0
1169 1 -1.2 17.618668166946428 13.713908663364334 2.339423033199241 0 0 1
618 1 -1.2 21.126744796127003 11.239724917939293 2.675900210593885 1 0 0
2101 2 2.4 20.768606175099084 12.354321454565452 1.3204798469569135 -1 0 1
1928 1 -1.2 21.334700609009996 14.033239016098111 1.2810628680056093 0 0 1
1896 1 -1.2 23.623388587794224 11.47163102092236 1.7947661820111938 -1 0 1
302 2 2.4 24.454152740164336 12.822761698230268 2.4135290026403493 -1 0 0
574 1 -1.2 25.122395042798775 13.570440215783885 1.0451602788229035 1 0 1
1702 1 -1.2 27.314156048798587 12.261651676936577 0.4784185128140713 -1 1 1
731 1 -1.2 28.673426123652547 12.293435605656047 2.7730346990901835 -1 0 0
991 1 -1.2 4.852949207401659 12.959555225910862 1.8410766762973345 1 0 0
1186 1 -1.2 3.7615435456372386 15.628798116838423 2.2646895226801127 1 1 0
152 1 -1.2 6.945762518080526 14.18949060372477 1.4361198913499704 0 0 0
877 2 2.4 8.28857341682083 14.874572717803758 2.2241179683346157 0 -1 0
1055 1 -1.2 9.331538199550323 15.401510168516376 1.0457997241215775 0 0 0
2038 1 -1.2 13.845522484553953 16.088501120974477 0.9924327137059218 0 0 1
1696 2 2.4 21.28493157459652 15.542226902992082 0.9444934236349887 0 1 1
1590 1 -1.2 20.00513908158356 16.129368415466146 0.1536406422804383 0 0 0
1760 1 -1.2 21.54896675457417 16.468359631819265 2.2741574149148227 0 0 1
197 1 -1.2 23.20059517714353 14.366594613724669 2.7196271725850583 0 -1 0
587 1 -1.2 26.431409362401368 16.618146314901782 2.4117439640789278 -1 0 0
1197 1 -1.2 24.64603742455277 17.315567575248895 -0.14543977639574093 0 0 0
1457 1 -1.2 27.119186145798626 14.767929852277275 0.70290705312601 -1 1 1
542 2 2.4 27.115552261087114 14.959538248123902 2.2899093959427965 0 0 0
982 1 -1.2 28.80143824475819 15.270505436313094 2.6757755052490735 0 0 1
1094 2 2.4 3.1721733974969095 16.642515816451294 1.1716544995771474 -1 0 0
1295 1 -1.2 4.267133973370499 17.55660508167727 0.2563571986334645 0 1 0
1219 1 -1.2 2.3067519588508034 17.837252677625635 2.0746838530176226 1 0 1
1754 2 2.4 5.813315423884179 17.889252450334116 0.2927699473580446 0 0 1
1006 1 -1.2 6.174349945820431 17.549318548249186 1.8221000229386901 0 0 1
453 1 -1.2 8.21380219846976 19.19962111754612 1.8534090383025188 0 -1 0
2100 1 -1.2 8.211911387242482 16.58497680321126 3.066400913333434 0 0 1
1118 2 2.4 7.466115660223128 18.016834924146046 2.764410801011292 1 0 0
1391 1 -1.2 10.621235623456414 20.15289784836993 1.3392999244752324 0 0 1
396 1 -1.2 12.901715467113553 18.55481742707584 0.9495320913277193 0 0 0
530 2 2.4 14.567414997582713 17.657321908034255 0.6244400380313503 0 0 0
874 1 -1.2 15.727190962924068 18.340039863849082 1.3815455532189096 0 -1 1
673 2 2.4 16.21875622760885 19.565532918034005 2.1819691828332957 0 0 0
223 1 -1.2 23.76029543998131 17.137500909220837 2.8205260479659433 -1 0 0
1683 2 2.4 25.084046935675595 17.53857905934494 1.9291707140534113 -1 0 1
200 1 -1.2 25.135877505982712 19.11610210554142 2.017528554846956 0 0 0
1449 1 -1.2 0.7140737578917572 19.787745912196392 0.5487039686125299 0 0 1
1024 2 2.4 2.3390541742225808 20.756060124150526 0.48905507864654757 0 0 1
106 1 -1.2 2.823306135172541 20.519811841804668 2.0106551862008 1 0 0
514 1 -1.2 6.119742946440797 19.64408499161992 0.2658463344516541 1 0 1
1885 2 2.4 5.901536402672799 21.376644584962435 0.51861003531455 0 0 1
353 1 -1.2 5.941794945117994 21.912636854525903 2.245806756671839 0 0 0
2104 2 2.4 9.159002020583268 20.368204784927443 2.463633722074148 0 0 1
1306 1 -1.2 8.459237313317287 21.798566498769677 2.4882953581360217 1 0 1
1070 2 2.4 12.069014545534921 19.919279013994405 0.3590320536941858 1 0 0
703 1 -1.2 12.905710298952485 21.423566573223187 0.5838255699091879 1 0 0
2090 2 2.4 14.282335521071175 22.152109011407955 1.524373141424567 0 0 1
1607 1 -1.2 17.535165579940426 20.020730937380172 1.6924457324074649 0 0 1
1274 2 2.4 18.63736527548874 21.25327344871363 1.3742723104582735 1 1 0
1846 1 -1.2 19.746675795116463 21.339078555763397 0.30316375011662755 0 -1 1
1878 1 -1.2 19.807022482161045 20.650410119175312 2.6645498460235064 0 0 1
1560 1 -1.2 24.067636603614698 20.663134796077074 0.19206780276740495 0 0 1
2001 1 -1.2 24.861141797012134 21.636199118405163 2.3245876369822343 0 0 1
1189 2 2.4 25.383584178982787 20.52077757184322 1.1577414206927565 0 -1 0
1583 1 -1.2 27.06367323402158 20.715395355786203 1.1528470989471122 0 0 1
338 2 2.4 1.6433455274716668 23.990313474608183 -0.057970226565003016 1 0 0
245 1 -1.2 0.9458718661744464 25.0248149973212 1.440032195668275 1 0 -1
1250 2 2.4 6.205130398954192 23.534501354213262 2.483205468161188 0 0 0
2112 1 -1.2 6.602498012775949 24.562322412478068 0.8129261061699828 -1 0 1
682 1 -1.2 10.054012650772371 23.848310248093277 1.1716066107442509 0 0 1
2030 2 2.4 9.906753445229144 24.345124427466438 34.72030148280684 0 0 -1
1151 1 -1.2 15.224161298356613 23.057283052390932 0.6672601594530063 0 0 0
372 1 -1.2 17.738612549192748 22.492731941778356 1.432566844527516 -1 0 0
745 2 2.4 16.83024913723505 23.910073403449374 1.106621739254594 0 0 0
2014 1 -1.2 17.179482693538827 24.75947801320256 -0.12871276298186984 0 0 1
1482 1 -1.2 22.130353078151654 23.218193674285253 0.2868871739894433 0 0 1
83 1 -1.2 24.45668738838248 23.9724067482278 1.023446280939826 -1 -1 0
38 2 2.4 23.176475272416102 24.39913617689998 0.24420011199836641 0 -1 0
1228 2 2.4 25.014771789464234 23.38349120862494 2.39269929966245 -1 1 1
16 2 2.4 -0.11598939480365245 25.713696001128422 2.3996112106725507 1 -1 0
1114 1 -1.2 0.40858282687296593 27.0935129417203 3.2361155081672117 0 0 1
2136 1 -1.2 3.187370075431249 24.76301794354523 34.814274496284575 0 1 -1
1710 1 -1.2 4.785182483710035 26.860746416549038 1.1274953990887508 1 1 1
1632 1 -1.2 9.779049240968405 25.90487849546769 34.83190317895389 0 0 0
1801 2 2.4 10.89352758519014 26.95559808251823 34.73529474403989 0 -1 0
1592 1 -1.2 12.099629540911737 26.23370290626485 0.38091790798774866 0 0 1
1851 2 2.4 13.78220958286767 27.056480708338217 0.9228967187291512 0 -1 1
708 1 -1.2 14.11992966011846 25.566365490669305 1.691169086751677 0 0 0
198 1 -1.2 14.340123929361736 27.031392079601176 34.50365050163429 0 0 -1
1703 1 -1.2 19.8641879323042 25.47631650070035 0.8201358841732769 0 0 0
63 2 2.4 21.436769866625497 26.240974794805897 1.5620812462865235 0 -1 0
1145 1 -1.2 22.53396392619025 25.78170765378219 0.6570814951319958 1 0 0
365 1 -1.2 26.301895780521935 26.43888364827382 0.9980963242023622 -1 0 0
722 2 2.4 27.368354020286162 26.95244690454091 2.3531818751821127 -1 -1 0
295 1 -1.2 28.743597071777863 25.889282494759804 2.0978610204923926 -1 -1 0
1884 1 -1.2 1.1550553147158928 28.638889445168108 1.1886109346372216 0 -1 0
746 2 2.4 1.1590852754500813 28.51587479554757 2.7277009898245863 1 0 0
1988 1 -1.2 3.153445268395485 30.347249570592528 -0.01910017163279984 0 0 1
1361 1 -1.2 6.828749686107915 27.736036201669656 2.2119161876009965 1 -1 1
1048 2 2.4 6.144098886508392 27.751106392643656 0.6773667128475213 0 -1 1
633 1 -1.2 5.516801272490817 29.297308058991657 0.8785571380030601 1 -1 0
104 1 -1.2 9.961597423648918 28.232627740476403 -0.028127404746273395 1 -1 0
8 1 -1.2 13.798432960659751 28.61222190053611 1.5136449810823658 0 -1 0
1354 1 -1.2 17.13952411658839 29.176136549444024 2.1163965996444967 0 -1 0
568 2 2.4 17.844241651269353 28.785997006118016 0.6799223009452967 0 -1 0
1187 1 -1.2 19.398682047297402 29.24390750168799 0.047382986178164506 0 0 0
2142 1 -1.2 21.42429332835305 27.82643064670659 1.7373859358012227 0 0 1
50 2 2.4 20.830437187985197 29.114602558117628 0.808731416043806 0 -1 0
1488 1 -1.2 24.274339568741983 29.149232912101937 0.4716873782017687 0 -1 1
2125 2 2.4 24.51205800309144 0.14110102678540354 1.648981973380809 0 1 1
1668 1 -1.2 27.88721562975605 28.552831041263598 2.1362291725509595 0 0 0
1782 1 -1.2 0.3406134423283079 1.58742904706459 3.415402273575249 1 1 1
2092 2 2.4 0.7605052414862286 0.4327358690882746 4.43027825109098 0 1 1
437 1 -1.2 2.4401456009974956 0.2535189931874421 4.779259667863616 0 0 0
1912 2 2.4 3.5643668766852765 1.4907245755957912 4.842054981819544 1 0 1
41 1 -1.2 5.080156951725851 0.7277386116636647 5.371871911790528 1 0 0
2009 1 -1.2 6.598049450935252 2.3384601404324625 3.20746263181285 1 1 1
1464 1 -1.2 7.476949413780834 2.2345039406376865 5.675744696087768 0 0 1
1386 1 -1.2 11.795296443841792 2.373515753750117 3.223529396251565 0 1 1
1940 1 -1.2 15.216786727638596 0.9161137132387853 5.5202003012894405 0 1 1
229 2 2.4 19.76872731410313 0.8393893281801728 2.678552589965761 0 1 0
2012 1 -1.2 20.973977604751592 1.8160505456914147 3.4868897210366514 1 0 1
972 1 -1.2 19.089250263875996 30.123805258033045 3.6122191673471407 0 -1 0
471 2 2.4 29.14963991857191 2.1373755922728845 3.1933644303933315 -1 0 1
1043 1 -1.2 28.93951103193322 2.7431539968051006 4.651732955812602 -1 0 1
898 1 -1.2 3.4254941514231256 1.8548953521536737 3.1963848366826664 0 1 1
1647 2 2.4 7.815728490253088 2.914381960241089 4.193376282259699 1 0 1
803 1 -1.2 7.245235081215013 4.5032237234941395 4.407276990344622 -1 1 0
1453 2 2.4 10.717358793261235 3.492395746982442 3.4226103377748713 0 0 0
60 1 -1.2 11.570184855068508 4.10236814016294 4.869452149522424 0 0 0
768 1 -1.2 14.74324787808888 4.438429127612948 2.3879596284521676 0 1 0
1537 2 2.4 15.84568313833455 4.441268448997602 3.6976454451803953 0 0 0
1534 1 -1.2 15.051023151818816 3.6994308104396136 5.143083967992195 0 0 1
1156 2 2.4 18.156134201098297 3.042804507299574 2.7171844687129436 -1 0 0
549 1 -1.2 16.9077582252018 3.432127755519062 3.361414751144783 0 1 0
2109 1 -1.2 19.19102004043421 3.9029831591906805 3.7094006982884395 0 1 1
795 2 2.4 20.997693864031522 3.2772244819318375 3.9519744875038954 -1 1 0
2063 1 -1.2 20.842671061200175 3.9551827306276026 5.484239681017216 0 0 0
2075 1 -1.2 24.95561114114198 3.9683657339576164 4.9154779951487795 0 0 0
1867 1 -1.2 26.236811351110244 4.209276885049394 2.3905417054284985 0 1 1
364 2 2.4 25.728297087335463 5.054694866254532 3.76505120970043 -1 1 0
869 1 -1.2 27.360309908515045 4.7610945503553515 4.168320022458764 -1 0 0
1837 2 2.4 28.344760353461457 3.991034883044531 5.55891272416638 0 0 1
857 1 -1.2 6.453586641456177 6.4570154210387996 2.9109351052423094 0 2 0
1711 1 -1.2 8.774299102592332 6.553252636893989 3.9730527942065144 0 1 0
1900 2 2.4 7.120937489639494 6.051423226894539 4.386457842348579 0 0 1
948 1 -1.2 6.49239237527732 6.861257962171681 5.545036791725096 0 0 0
1056 1 -1.2 16.152683001491663 6.173459814035721 3.6381827338788866 0 0 0
1636 2 2.4 16.52333227798894 7.249729341710957 4.765803992455286 1 1 0
989 1 -1.2 17.865736536836167 8.014736874557196 4.7832392508252495 0 0 0
706 1 -1.2 20.418347407318468 6.424012879433844 4.807509942025608 0 0 0
1948 2 2.4 19.574835035604274 7.905701698512449 4.245330657009215 0 1 1
1475 1 -1.2 26.712962987149872 8.04478152847823 2.4668420292920326 -1 0 1
642 1 -1.2 24.734687691033105 6.505604634917461 3.402680719012014 -1 1 0
493 2 2.4 25.567526313802173 8.250235626386624 3.5875322783362957 0 0 1
1040 1 -1.2 25.751355630279747 8.08632075040786 5.155598648801626 -1 0 1
931 1 -1.2 29.45059554808497 8.041416233555141 2.5854264017972115 0 0 1
981 1 -1.2 29.313538113151704 7.485049634937333 5.281973519152246 -1 0 0
867 2 2.4 29.721855735613566 8.610696388921019 4.346370143408094 -1 -1 0
155 1 -1.2 0.8415789695552289 9.13476845061752 4.434395804582091 0 0 0
292 2 2.4 2.2021450414342145 9.837304829303275 3.559068643569611 0 1 0
1990 1 -1.2 3.6641413725736385 10.411682404634389 4.386885767663762 0 0 1
27 2 2.4 4.9641837126741475 10.148264246626956 5.249542199295854 0 0 0
891 2 2.4 7.534328638794251 10.550083163670852 3.2392716669489197 0 0 0
297 1 -1.2 6.2685968579733204 10.174368434443023 4.315601458048171 0 0 0
1620 1 -1.2 7.92442188789178 8.93342437837203 2.8830676517220093 -1 0 1
1506 1 -1.2 10.105112782073721 8.537094962058475 4.149326070920395 0 0 1
596 1 -1.2 15.078082948849405 8.061953409668174 4.740929405266209 0 0 0
341 1 -1.2 13.503693800944454 9.137679072013793 6.315332143031188 0 1 0
2111 1 -1.2 19.901357790491573 9.452258944124262 4.519366926684913 -1 1 1
1516 2 2.4 20.31771206070321 11.087062534580975 4.008873159880215 0 0 0
1218 1 -1.2 28.97996246485178 10.025240561783237 4.492858646691425 0 0 0
1104 1 -1.2 5.232831146487312 11.304167890457014 6.384592515436235 0 0 0
1182 1 -1.2 8.390130042109831 11.66646799239552 4.308527874600912 0 0 0
315 2 2.4 8.593226554622381 13.145982767968587 4.513633597195493 0 0 0
1171 1 -1.2 9.982549889589958 13.430097154306369 5.517121466549256 0 1 0
750 1 -1.2 12.133790672502853 10.961594014784971 5.232311071889312 0 1 0
1826 2 2.4 12.65077646089988 12.133771740365319 4.26930397627279 0 0 1
1497 1 -1.2 14.341600766083207 12.284232842011027 4.211882733940365 1 0 1
73 2 2.4 15.465054829507201 12.063119597128836 5.250060935406797 0 0 0
1415 1 -1.2 16.868601783970142 12.399849120701223 4.779825738368499 0 0 0
2055 2 2.4 17.809787854550358 13.050120151886778 3.708216980912607 0 0 1
1799 1 -1.2 18.95094980488498 11.948386867213868 3.8147698347880623 0 0 0
1728 1 -1.2 21.64494726714636 11.445510187192141 4.9404724655186065 0 1 1
228 1 -1.2 26.782363868414688 11.245788981871868 4.433225631953126 -1 0 0
1924 2 2.4 26.13249782143556 12.778384301598587 4.5558599119485015 0 0 0
21 1 -1.2 24.588297487040506 12.459588665273804 3.950602349308251 -1 0 1
421 2 2.4 29.480777206646405 13.773954629115059 2.8679038447021847 0 0 0
1967 1 -1.2 27.065805574153046 13.497618396431266 5.792454542280211 -1 0 1
96 1 -1.2 29.433425170755047 13.830064343889685 4.407203836880196 -1 0 0
1446 1 -1.2 4.998761421550198 13.861595059833334 4.384378968290563 0 -1 1
1201 2 2.4 6.000033369647237 14.560558243645383 5.45391469185795 1 0 1
1726 1 -1.2 7.556982701659995 14.180148904924533 5.316640962167493 1 1 1
1329 1 -1.2 5.687992494066997 16.15827820392479 5.570561644739049 1 0 1
800 1 -1.2 9.008840855128307 13.702018650226883 3.0127814376522517 0 1 0
789 1 -1.2 12.02006681893251 13.562883627707654 4.157792302215839 0 1 1
1388 1 -1.2 10.472538463266156 15.671357524722533 5.398009202826022 0 0 0
1333 2 2.4 11.24050050350176 14.289305146923924 5.657649908356503 0 0 1
600 1 -1.2 14.442755848999614 16.82657366390992 3.7058555163973455 0 0 0
794 2 2.4 18.388210875332415 15.539060229802823 5.159482425946894 -1 1 0
2105 1 -1.2 18.760351781768136 14.12098303184682 4.533772607860577 -1 1 0
917 1 -1.2 19.86835691372146 15.795894082608717 5.782560946265059 0 -1 0
301 2 2.4 22.789004583482424 15.896399775706643 3.349589079274508 0 0 0
1518 1 -1.2 22.594147871424298 15.512395484002907 4.8568495306490425 0 0 0
1700 1 -1.2 26.381207905393744 13.879684405191433 3.3515936966489277 -1 0 1
248 1 -1.2 30.03447533324623 19.517044040481235 4.648102293817885 -1 0 0
1272 1 -1.2 4.32326339908442 17.876908139921458 4.050517561739115 1 1 1
1429 2 2.4 5.576807522830387 17.71096472908482 4.950738929042442 1 0 0
1452 1 -1.2 7.055688598296767 18.275176883856453 4.371898739617998 0 -1 1
405 1 -1.2 5.472928934895789 18.7882696308024 6.242482250706858 1 0 0
257 1 -1.2 15.960551318217089 19.073453234040777 3.74253218300279 0 1 0
1408 2 2.4 15.6456858944133 17.463682261541127 4.413445886811753 0 0 0
1740 1 -1.2 17.56122466567123 16.51480939437723 4.122015124827711 -1 0 1
910 1 -1.2 27.348352367357172 18.847906235353342 4.594392163523433 -1 0 0
1897 2 2.4 28.83953984408101 19.19686881885003 5.505700946510364 0 0 0
868 2 2.4 1.0793331901179577 20.5908380530346 5.096828870088738 0 0 1
392 1 -1.2 2.160802532151707 19.627156972101673 4.3214532341456575 0 1 0
299 1 -1.2 0.8611461627118963 22.042629920197026 4.253109138205552 0 -1 0
1444 2 2.4 2.8533659943979166 19.091164329292628 2.971808174554531 1 0 1
1427 1 -1.2 10.098285864515722 19.91950048040402 3.713995885042966 0 0 0
2076 1 -1.2 12.24768153253779 20.796511862820207 5.152288501416636 0 0 0
1698 1 -1.2 14.91808896855036 20.6921165963291 2.0256130694460732 0 0 0
1685 1 -1.2 21.980298010953078 21.79527105306165 3.7183924352787625 0 1 1
818 2 2.4 19.92015146712614 21.803351974557895 3.766550838026765 0 0 0
886 1 -1.2 20.03310138502132 21.45559491089857 5.337077454115902 0 -1 1
354 1 -1.2 26.047305529179038 21.79936050412787 5.4267045842898805 0 0 0
903 2 2.4 26.465218169019597 20.19043663175744 5.55762822714257 0 -1 0
2094 1 -1.2 29.789681312242184 24.630451145279764 3.7163213396345993 -1 0 1
216 1 -1.2 5.80769342289402 24.561357939998814 5.719883752103799 0 0 0
567 2 2.4 5.543255561382906 25.4507254022853 4.540614473184145 1 0 0
1111 1 -1.2 5.240336352169234 24.52096668205262 3.3334827580347777 0 0 0
1860 1 -1.2 7.658382071036048 24.038384031913242 2.7721885814814673 1 0 1
1105 2 2.4 9.18984712634853 23.312119761122535 2.482752122270452 0 0 1
1553 1 -1.2 9.681931613417145 23.67230392551671 4.103265388886083 0 0 1
1381 2 2.4 10.74747584764096 24.795607043971444 5.042974442060653 1 -1 0
899 1 -1.2 12.296822157784884 24.36488153710671 4.64723981396001 0 -1 0
1420 2 2.4 13.683688009208064 23.767467949011497 4.340870044686888 0 0 1
309 1 -1.2 13.505097233925584 23.105589360256133 2.763371281707732 0 0 0
559 1 -1.2 14.759467869976351 25.053212494833712 4.308063404758967 0 -1 1
1653 1 -1.2 16.69355638095678 24.87909102022103 2.3399748111409764 1 0 1
1883 1 -1.2 19.526990838052818 23.570682622832443 3.534685386348336 -1 0 1
343 1 -1.2 21.746133448372667 24.356857997244397 5.170688828008388 0 -1 0
1569 1 -1.2 24.03026943991046 23.466211597995272 3.85166932100416 0 0 1
2140 2 2.4 22.679791864334042 23.027151927526585 4.707199234894465 0 1 1
812 1 -1.2 26.562410756564013 23.87145921241851 2.7684090814950952 -1 -1 0
1166 2 2.4 26.901646642594915 23.000816283035586 4.491837192185765 -1 0 0
2151 2 2.4 29.873383112608664 23.03057696357518 4.566762690786865 0 1 1
342 1 -1.2 28.28022361324983 22.303602912835213 4.241391344460156 1 0 0
1806 1 -1.2 2.674676703783331 28.331702683900232 3.4572614366330328 0 0 1
1758 1 -1.2 4.408937602139641 26.705705355263454 4.884687619725377 1 -1 1
1336 2 2.4 3.4133723280885553 27.891071136333732 5.1171508645937145 1 -1 1
2062 1 -1.2 7.001361052312708 26.389618892088286 4.348935899169401 0 0 1
1611 2 2.4 7.263690715741034 27.915731166809085 3.76109356325359 0 0 0
1598 2 2.4 10.255378023557546 27.833606311971867 4.376110916771479 0 0 1
1920 1 -1.2 8.835154424851256 28.3626476465949 3.492058887035506 0 -1 1
1460 1 -1.2 10.514730978406455 26.37384801135726 4.602736815754082 0 0 1
939 2 2.4 15.455019578190365 25.784713841911252 2.9277525501828428 -1 0 0
594 1 -1.2 15.890000291643755 27.389305727307956 2.8216788569509306 0 0 0
1430 2 2.4 18.624127768879433 26.677534070767447 5.210445683944448 0 -1 0
414 1 -1.2 18.029111347896627 26.89820302726834 3.6181127549786 1 0 0
157 2 2.4 20.63260388542991 24.776922724025518 3.919829181342384 0 -1 0
1422 1 -1.2 21.502263038750876 25.777434348066066 3.1494796842366726 1 0 0
1626 1 -1.2 19.80198207346371 25.54312070931717 5.074348337359476 0 0 0
1222 1 -1.2 26.92263255083383 27.072188884527613 4.00666473912501 1 -1 0
663 2 2.4 27.110958920332948 27.79148482782393 5.7086944705941045 0 -1 0
2047 1 -1.2 0.4916572397559997 28.200681264183196 6.216602663136895 1 0 1
141 1 -1.2 0.2773477312715732 29.701741270357317 3.491651429175981 1 0 0
1521 1 -1.2 30.114694517016755 0.055987417322107054 5.627614025875207 -1 1 0
449 1 -1.2 4.016755385312354 29.17810192253314 5.940608873299832 1 -1 0
1526 2 2.4 5.673726400007279 29.546733022142668 5.500216015108269 0 -1 1
1566 1 -1.2 6.154745363077377 29.1876325847972 4.081973627475079 1 0 1
1372 2 2.4 13.117847409555583 29.331272813672733 3.145620764735233 0 -1 1
667 1 -1.2 11.53914116736985 28.677843882315116 3.3722003474573183 0 0 0
2145 1 -1.2 14.455099093550766 29.709446107728837 3.7223375723529752 0 0 1
985 2 2.4 15.32978524904988 29.981172373664055 5.072054230096719 1 -1 1
1115 1 -1.2 16.758505848516094 29.067068957908983 4.66938371823002 0 -1 1
1803 2 2.4 17.12043541738554 28.260880617736603 3.346513162058808 0 -1 1
1214 2 2.4 19.90672297089737 29.695522966153362 4.986520943920758 0 0 1
407 1 -1.2 19.433117289734003 28.256496974108636 5.736047594198394 0 0 0
670 1 -1.2 21.495368101605834 29.510507287670254 4.630130306021434 0 0 0
956 1 -1.2 23.79239075994241 29.7506446276188 2.648021335212819 0 -1 0
1374 1 -1.2 23.722372679173688 27.78306981774063 4.567889141950879 0 -1 0
866 2 2.4 23.063976779105793 29.28023101354901 4.036719939970256 0 -1 0
1065 1 -1.2 24.043141790540624 30.143444870053347 4.931159445964967 0 -1 0
1089 1 -1.2 28.266814630544925 28.694605683741152 5.38512230536634 -1 -1 1
1524 1 -1.2 1.9945740417325069 1.7866467926272969 8.081180164737518 0 0 1
9 1 -1.2 3.1352128436145335 2.833018720655497 5.735152682845841 0 0 0
1963 1 -1.2 4.922104587106819 2.6105938789693073 7.985610062367423 0 1 1
1681 2 2.4 3.046674022056929 2.7955334909100986 7.398118490041758 0 1 1
644 1 -1.2 9.391596345168422 1.832456275251476 7.16720717844974 1 0 0
399 2 2.4 9.62437978276297 1.094963223297985 8.69370978828085 0 1 0
2033 1 -1.2 13.184295502716 2.438649522489596 8.799015106117057 0 1 1
1337 1 -1.2 15.328670446778677 2.2077226643226235 7.630109356216482 0 0 1
290 2 2.4 15.73499718299184 2.304610402965244 6.174445564420246 0 1 0
660 1 -1.2 17.55971930626589 2.188422434694387 6.50025791030652 -1 1 0
481 2 2.4 18.763576753458047 1.1079678667713497 6.978162618721506 0 0 0
45 1 -1.2 19.758303969637637 2.0908744043961356 7.882188238929052 1 0 0
77 1 -1.2 19.641696070238925 0.48554175453959625 5.782842249478857 0 1 -1
503 1 -1.2 23.69351475899403 0.8355543959193802 7.237468901606944 0 0 0
2116 2 2.4 23.98999066823012 2.272910260693366 8.016659956132573 0 1 1
1262 2 2.4 24.717951273362875 0.25772023604210753 6.1785603360401256 -1 1 0
184 2 2.4 27.13251423030026 2.1972967430914374 7.312808174006215 0 0 0
834 1 -1.2 25.99659961730722 1.0202730974169671 6.223901459851966 0 1 0
1133 1 -1.2 2.7984610277057413 4.385204045322592 7.951674152167779 1 1 0
1753 2 2.4 3.603202852851781 5.636298663716209 8.537434025350679 0 0 1
785 1 -1.2 7.20338659317294 3.9036198784364147 7.57403453155752 1 0 0
327 2 2.4 5.984231601999034 3.7722808959474037 8.698309092279692 1 1 0
52 2 2.4 8.1674125463279 2.8854368859600545 6.912513733743364 1 0 0
195 2 2.4 10.628150702237477 4.686061240015849 6.24328453482581 0 0 0
1318 1 -1.2 9.177664357784446 3.8929460787754984 6.020479908092514 0 0 0
150 1 -1.2 11.432345768818877 4.165401765687184 7.683078112219721 0 0 0
1383 2 2.4 11.55113224967599 2.9759396250024173 8.981973337241111 0 0 0
423 2 2.4 24.225283871071753 4.829792739028996 6.166727036540074 0 1 0
1243 1 -1.2 24.06946919431904 3.6591851645540294 7.230210803499969 -1 1 0
89 1 -1.2 29.292012737370154 4.780639988475182 6.517231565211388 0 0 0
2002 1 -1.2 26.99467925894163 3.5616114167013206 6.366787513247099 0 1 0
2087 1 -1.2 4.501160538458995 6.1351683656937555 7.0308027212148145 1 0 0
147 2 2.4 5.47370852107486 7.511505353513456 6.648982246070898 0 1 0
912 1 -1.2 6.101843916453199 8.647772971851234 7.758269174973462 1 0 0
630 1 -1.2 10.6407861103767 6.385788727188368 6.229883706894664 1 0 0
807 2 2.4 15.55471353692877 7.068888122126948 7.499977218083717 -1 1 0
1649 1 -1.2 14.139163951527078 6.896442819659172 7.869850752909664 0 1 0
1248 1 -1.2 16.096682981905662 6.552665668845548 6.042060073651521 0 0 0
409 2 2.4 21.244038688909672 5.7526661231509895 5.913743379737756 0 1 0
945 1 -1.2 20.419862173059446 5.79127222467505 7.378228809814689 -1 -1 0
1825 2 2.4 19.913917407950876 7.163929682713783 8.21857356706138 0 0 1
552 1 -1.2 22.759881932129616 5.7878565836672005 6.091549305312698 0 0 0
1373 1 -1.2 25.024494012811516 6.07083094525342 6.88095554489789 -1 0 1
1981 2 2.4 25.85729847084226 7.320956916786519 6.406130503373281 0 0 1
2123 1 -1.2 27.197826275764346 6.612716349686589 6.6719469163976495 -1 0 1
806 2 2.4 28.77273549862184 6.413132799005877 6.5729890010957295 -1 0 0
1757 1 -1.2 29.783929222322655 6.669968589083875 7.961080792417173 -1 0 0
1545 1 -1.2 3.106712389530819 10.8474990131879 8.344323401231296 1 1 0
561 1 -1.2 4.4702399869185605 8.839543104626141 6.261266395466795 1 0 0
1362 1 -1.2 7.956286335894803 10.407811780872995 8.102589134886639 1 0 1
56 1 -1.2 5.53443943197219 11.954366174596439 9.010980423710716 0 0 0
255 2 2.4 9.949638830192193 7.973031084401844 5.777155897580847 0 1 0
136 2 2.4 7.875602389050552 8.791275313308116 7.905694426094219 1 -1 -1
1061 1 -1.2 8.619593227444355 8.710306654116055 6.3527888747144 1 0 0
1229 1 -1.2 10.96525580419575 8.761096297963977 6.653736972772037 0 0 0
950 2 2.4 12.014642356447645 9.929160037671494 6.687475160180946 0 0 0
1978 1 -1.2 13.244239156660118 8.667406198092424 9.755521316862259 0 0 1
112 2 2.4 15.08282562972058 9.070056563206906 6.02546269239457 1 0 0
954 1 -1.2 16.081937924231674 8.625711796556326 7.320625588899092 0 0 0
1555 1 -1.2 20.60197459669199 8.50680955698012 7.438671427492129 0 0 0
1861 2 2.4 21.873484143057876 9.070468224254668 8.362668821749505 0 0 0
210 1 -1.2 22.333817957507385 10.110666008035363 7.086636977054281 0 0 0
791 1 -1.2 26.006898613085806 8.454609714218057 7.633638853186326 0 1 0
1343 1 -1.2 0.8793838561362742 12.057065993126653 8.440152430107863 0 0 1
1009 2 2.4 29.658914682249858 12.653533558252432 8.275915015982738 -1 0 0
1730 2 2.4 4.336749881055645 11.578950798147323 7.572420561094515 0 0 1
908 1 -1.2 3.5574939200810696 13.109036768270881 7.893287042423677 1 0 1
308 1 -1.2 7.509550164301195 13.076941726069588 8.66085560380368 -1 0 0
1432 2 2.4 7.210471816600664 11.572008838703672 8.942446772245107 1 0 1
751 1 -1.2 12.110494978759256 10.601873249608461 8.154677192676013 0 0 0
522 1 -1.2 15.29743766333101 10.592195786312534 5.8400872727870645 1 1 0
466 1 -1.2 17.35408645558429 12.991482208529487 7.819290981321474 0 0 0
815 1 -1.2 18.41043465465226 11.279553736511584 9.340797744746464 -1 0 0
1254 1 -1.2 20.056051709026896 11.968621331669215 7.223574653684448 -1 0 0
1095 2 2.4 19.929112081504915 11.084276773919015 8.861395155694293 -1 0 0
2005 2 2.4 21.560802264436504 11.495660890620039 6.652591100410596 1 0 1
1244 1 -1.2 22.695768117422492 12.921010831170763 6.587632119373317 -1 1 0
588 1 -1.2 24.83115033142324 13.110037639616339 8.353041802074653 0 0 0
1755 2 2.4 28.614818704616386 14.087700432627495 5.789832623194915 -1 0 1
1039 1 -1.2 27.36384757296688 13.353809462249954 8.817751376679805 -1 0 0
752 1 -1.2 29.184188062956064 13.08283177046613 6.726956942940527 -1 1 1
1762 1 -1.2 5.790300577923954 14.14881955690768 7.047665262718767 0 0 1
759 2 2.4 6.563446524131593 14.298423703076168 8.402502368242821 1 1 0
1608 1 -1.2 7.82094066502744 15.319119464741728 8.598926065977873 0 0 0
1715 1 -1.2 12.533897654063294 14.363002450474069 6.893046774274229 0 1 0
876 1 -1.2 10.926328083122414 16.07619595033695 7.81281611991786 0 -1 0
578 2 2.4 11.97322591005381 14.926200572279116 8.30247695114936 0 0 0
2046 1 -1.2 15.015700295279538 13.320300582558879 6.076437392959573 0 0 1
1877 1 -1.2 16.062154766739276 15.542534752071942 8.117255629911483 -1 0 1
231 2 2.4 16.10896885579315 14.092972511430991 7.170540901390734 0 0 -1
907 1 -1.2 17.089497912960606 15.046227807828956 6.167855101977521 0 0 0
76 2 2.4 22.993286518382227 16.281763672012673 6.293607374253851 -1 -1 -1
1502 2 2.4 23.524621131232465 13.849284458393468 7.7586326044894065 0 0 1
238 1 -1.2 23.958437600830933 15.404780584918447 7.4745306548073955 -1 0 0
282 1 -1.2 22.60476549452196 13.918983161148267 9.084285077768314 1 0 0
2147 1 -1.2 28.71561951050276 15.604518361808266 6.0819775194005725 0 0 1
1326 1 -1.2 28.21395236933017 16.341221498708123 8.308211218423345 -1 0 1
852 1 -1.2 6.048579825882049 17.42459385656421 8.38910396414325 1 0 0
123 2 2.4 7.6954739718650425 17.045065953560066 8.286108754561944 0 0 0
1339 1 -1.2 8.645543445930302 17.098327586086107 6.975066086427426 0 0 0
952 2 2.4 10.207468271970466 16.820189929007547 6.562734874727401 0 0 0
2155 1 -1.2 10.69830396200077 18.413419914511866 5.938627014260925 1 1 0
512 1 -1.2 15.929742431415553 17.753465607621692 6.103271350239233 0 0 0
693 1 -1.2 19.40925079485721 17.072505969799952 8.01600848451797 0 0 0
208 2 2.4 20.162777649664598 17.38160394068013 6.628377397531502 0 0 0
539 1 -1.2 20.42257928119401 18.960172295896115 5.8216510744612044 0 0 0
187 1 -1.2 24.121060692595414 17.406434071453567 5.859884698691231 0 0 0
1853 1 -1.2 21.815578138702044 16.979865263029744 7.158579612710928 0 -1 1
1092 1 -1.2 25.305068148255167 17.653989548197632 8.350817935384999 -1 0 0
122 2 2.4 25.259874589476585 17.636892838395145 6.766453900088646 0 0 0
174 1 -1.2 26.649107530290078 17.07371320062145 6.260670545344883 0 0 0
1033 2 2.4 27.99049931593455 16.729103864066317 6.958901517474542 -1 0 0
1894 1 -1.2 29.03830098304582 18.07049711351072 6.800128154402634 0 0 1
1257 1 -1.2 1.0707069493271681 20.577777252076825 6.9348605456696255 0 0 0
1360 2 2.4 1.5696798959233529 21.729300568163737 8.099614859071938 1 -1 1
1658 2 2.4 4.632541575429118 21.462169849688507 8.209920203722328 0 0 1
1461 1 -1.2 3.0263837275415333 21.26788660543052 8.394979863195669 0 0 0
2070 1 -1.2 5.1840837693365796 19.898087245923108 8.576816642627058 1 0 1
927 2 2.4 6.14471253579294 19.001087350762464 7.66239635202571 1 0 0
1289 1 -1.2 7.507591302924938 19.51771224687412 7.031019582677642 1 0 0
737 1 -1.2 5.252973917766878 22.045806417200108 6.931691672215199 0 0 0
724 2 2.4 8.259658655227646 20.966197664147717 6.814740267529207 0 0 1
72 1 -1.2 9.883971514937937 20.520104026480283 6.422702106398988 1 0 0
859 1 -1.2 8.892965845350044 21.633572102853584 8.233159814823184 0 0 0
194 2 2.4 10.786256963247938 19.82404375036954 5.231208764364315 0 0 0
316 2 2.4 13.533523263040802 21.21876701477327 6.1161478177481845 0 0 0
1724 1 -1.2 12.958361824582628 21.813993381526807 7.47234614523525 1 0 1
20 1 -1.2 14.47598733675855 19.883180906645652 6.143266401469602 -1 0 0
734 2 2.4 15.940752930087998 19.428234626751536 6.3855245331027195 0 0 0
138 1 -1.2 16.65364258544666 20.024981757908012 7.916355675343568 0 0 0
226 1 -1.2 17.10652696816573 20.44528706797843 5.6951648732120965 0 0 0
2102 2 2.4 17.481153109068497 21.06288600035359 7.269296618373447 0 0 1
725 1 -1.2 18.93344362694272 20.497184956656138 7.591681755045162 0 0 0
267 2 2.4 20.285593249872118 20.30610407029875 6.563782922609049 0 0 0
838 1 -1.2 21.652120988429424 20.526211913806968 7.315713087035181 0 0 1
651 2 2.4 22.572050194846057 21.87860870691371 7.70924868803153 -1 0 0
413 1 -1.2 25.54845060108013 19.354777931056173 6.524170931053527 0 1 0
1158 1 -1.2 27.943182272634658 20.598576234959165 6.17247569682923 -1 0 0
1233 1 -1.2 1.457297786861555 23.25781618113015 7.636780649763333 0 0 0
1646 2 2.4 0.28985166861904965 24.152745251881715 7.334116004315356 1 -1 1
1224 1 -1.2 0.7937686744460255 25.453946403138357 6.595730985634647 1 0 0
677 1 -1.2 7.5301119898588915 22.240993386268354 5.774179547637425 0 0 0
967 1 -1.2 6.830060149001126 23.84203551462326 7.797119788343363 0 -1 0
1957 2 2.4 6.41744657624754 23.194820618886762 6.404714504896477 0 0 1
1625 1 -1.2 11.10870414388253 24.41607847100167 6.530321058829491 0 0 1
638 2 2.4 11.406059373251226 24.575741665278656 8.162796892030169 1 -1 0
1471 1 -1.2 14.09705413939902 22.41474392893538 5.179285467557227 0 0 1
1919 1 -1.2 17.45013531367204 22.708075929419913 8.047780614661338 0 -1 1
1407 2 2.4 18.254545627318322 24.005900969575567 8.683657782555967 0 0 1
219 2 2.4 21.031983776091312 24.647382327616782 8.126412255755056 -1 0 0
320 1 -1.2 19.49768349690004 24.84583787921162 7.574626713059749 0 0 0
586 1 -1.2 23.16967758518588 22.425323536817878 6.048270238039605 -1 0 0
1445 1 -1.2 21.793124292294856 23.205124090447057 7.4974520031047325 -1 0 1
1787 1 -1.2 27.06762161029271 24.209333471126527 5.707910493801664 -1 -1 1
1256 1 -1.2 29.77145808115746 23.101156314374357 6.230450350964958 0 0 0
1084 2 2.4 1.3085119814629396 26.940239564398496 7.15761350809933 0 -1 1
1305 1 -1.2 2.6654565332513727 27.638425223300942 6.802440046148693 -1 -1 0
476 1 -1.2 0.9384063632672278 27.23895078456576 8.713788448303653 1 -1 0
233 1 -1.2 5.943762910241121 27.340341162781286 8.416061560362586 0 0 0
1774 1 -1.2 12.834082871612505 25.849094164668635 8.28126238105249 1 -2 1
1563 2 2.4 16.974360275497194 26.779507504998275 7.867298142306728 0 0 1
91 1 -1.2 17.08588779643619 25.294211435953926 8.474990429542805 0 -1 0
2131 1 -1.2 17.26783478078067 26.49602994860504 6.310024552389584 0 1 0
1193 1 -1.2 21.76576496053565 25.971945555729327 7.145047110138544 0 0 0
153 1 -1.2 24.948856565420368 25.84429007184445 6.039831629118302 -1 0 0
2160 1 -1.2 26.044229566747866 24.555591191356047 8.231893516331386 1 0 1
1490 2 2.4 26.2948480725956 25.34639631902989 6.703554126016001 0 0 0
720 1 -1.2 27.411317850393548 26.501184128822313 6.836826446963002 1 0 0
1162 1 -1.2 8.267840264550154 27.748847376896038 7.480379023288731 1 0 0
188 1 -1.2 6.702335002259992 29.64531113202455 6.791504971020251 1 -1 0
507 2 2.4 6.8600563740405 28.691276834795936 7.986644667642927 0 0 0
635 1 -1.2 10.60615056817284 27.453657103543964 8.105562805278584 0 0 0
417 1 -1.2 10.165182767798145 28.61729423781839 5.953838964379003 0 0 0
1690 1 -1.2 9.930063490222915 29.9281309572872 8.293248446957454 1 0 0
1899 2 2.4 9.592283522654972 28.63775256968573 7.425044470828033 1 -1 1
1567 1 -1.2 13.135698529981056 28.532647588826478 8.15003472381351 0 0 1
2061 1 -1.2 15.936495884943024 28.00461237881933 8.226102979630536 0 -1 0
271 1 -1.2 14.76088757589217 29.211958738396348 6.345130719296818 1 0 0
4 2 2.4 14.585042264009951 28.85537971607317 8.037008679271871 0 -1 0
144 1 -1.2 18.342028328564037 30.159440971003168 7.842877291488317 0 -1 0
1292 1 -1.2 18.37776953617003 27.51736710917005 8.21777850279743 0 0 0
599 1 -1.2 20.765375926149094 28.85043152212497 7.739575778672953 0 -1 0
1863 2 2.4 19.17197341671105 28.976359753416105 8.363483632444082 0 -1 1
1705 2 2.4 21.94519878492032 27.496002986721038 7.931042686656467 0 0 0
382 1 -1.2 23.080449045872935 27.982998974729345 6.919271998722949 -1 0 0
2113 2 2.4 24.374995896443323 27.551931045074003 5.997458935759431 -1 0 1
190 1 -1.2 25.79323555533842 28.653722430082652 6.21517725619863 0 0 0
1 2 2.4 29.78183333175759 29.144459195875662 6.163540917130416 0 -1 0
767 1 -1.2 29.02667593879669 29.508345455777782 7.627494657929445 -1 1 0
1263 2 2.4 1.103800838022947 1.5431894734602156 9.469515291573957 1 0 0
533 1 -1.2 2.2793187762221017 1.242754648290311 10.585550872596952 1 0 0
1352 1 -1.2 3.9098774029073686 30.044069898833015 11.699646784160683 0 -1 0
121 2 2.4 7.740020219393159 2.2950911994041876 10.815073990934426 1 0 0
30 1 -1.2 8.000713324277445 1.251459108979107 9.2179943724247 1 -1 0
524 1 -1.2 11.051363421073837 1.5386292235039547 9.007401735800766 0 0 0
139 1 -1.2 14.587969911926283 30.239729968521956 8.939700405257309 1 -2 0
817 2 2.4 14.560477072183993 1.6454382049714082 9.027763126907935 0 1 0
1100 1 -1.2 14.947211997577279 1.3980430084483515 10.677333193928492 0 0 1
2021 1 -1.2 20.599945820357508 1.855641947121202 10.251196010319166 0 1 1
247 1 -1.2 22.791689716593726 2.3107094099672594 9.142756906521987 -1 1 0
979 1 -1.2 25.636098274005345 2.2584882675448394 8.379254297879553 0 1 1
1097 1 -1.2 28.45004155365035 1.6416572729075873 7.9142963415915775 -1 1 0
1519 1 -1.2 0.2015053409220221 2.698391965063327 10.445427350476383 1 0 0
763 1 -1.2 28.054086283462453 2.8922843969748455 12.076023964788885 0 0 0
845 1 -1.2 5.084186963158327 5.20879794804161 9.192155512732624 1 1 0
691 1 -1.2 7.281046493159335 3.699696944389156 9.989330996929333 0 0 0
1014 1 -1.2 8.80186089160958 2.5015778365750245 11.994631856285656 0 0 0
1773 1 -1.2 11.08530869760794 4.001728171233478 10.31541109781994 0 1 1
675 2 2.4 11.240009253357794 5.548271290909174 10.98762258777583 0 0 0
828 1 -1.2 12.390335242865648 5.843408497946759 12.321783431430262 -1 1 0
1952 1 -1.2 18.40828142395821 4.852171251403083 7.802974317277556 0 1 1
395 1 -1.2 18.27564067810168 2.883286313848362 10.060512434802087 0 2 0
1804 2 2.4 19.147956340422 3.5032259354771504 8.654180800579976 0 0 1
1185 1 -1.2 20.719122019558764 4.195720979291299 9.118347258238497 0 0 0
352 2 2.4 21.57653077676973 3.216021990976752 9.988165792822935 0 1 0
1331 1 -1.2 22.88638569365292 3.9602925186628397 10.881423689213069 -1 0 0
639 2 2.4 23.69945050185804 5.289904686886248 11.261190152931905 0 0 0
632 1 -1.2 29.098048233427203 4.797507215887898 10.62751447812325 0 0 0
205 2 2.4 29.58132226169869 3.5362125550579817 11.665415770511052 0 0 0
1368 1 -1.2 2.0275429467833734 8.4273398585349 11.272596398518681 1 0 1
1933 2 2.4 0.48547203681863954 8.28466603608892 10.927934973448044 1 0 0
261 1 -1.2 2.4683666790847267 6.124724901717169 9.432073816026756 1 2 0
592 2 2.4 2.7771462380057885 6.8967794549091614 11.051348647599042 0 1 0
1042 1 -1.2 4.372499366008974 6.578174196044852 11.08532140415546 0 1 0
1807 1 -1.2 7.272338552300218 6.742736676003985 10.863287456375033 0 0 1
278 2 2.4 8.718715521161611 7.4648798880117315 10.61251962002746 1 0 0
728 1 -1.2 9.71987808594668 6.114793828966481 10.704992096626972 0 0 0
1830 1 -1.2 12.246941233325495 6.0494286759073645 9.731324795902115 1 0 0
1575 2 2.4 13.444565210614229 7.205378107485462 9.28395628688501 0 0 1
90 1 -1.2 14.674649692002447 6.9910973942600325 10.47701213259058 0 0 0
1269 1 -1.2 16.428239922348947 6.127980481617295 8.41342671556733 0 1 0
462 1 -1.2 18.053910442868528 5.669941340901316 10.585279545163308 0 0 0
434 2 2.4 17.83720199201576 5.949851642065398 9.02167366449013 0 0 0
1183 1 -1.2 18.539546037947794 7.30113926967938 8.82932590174641 0 0 0
564 1 -1.2 20.70961738092651 7.277631603263197 9.88259903361496 0 0 0
949 2 2.4 22.186765662039313 7.556268680132314 10.392349757115118 0 0 0
319 1 -1.2 22.60869184019236 6.374756455015455 11.218826255814122 0 1 0
551 1 -1.2 24.99508602078023 5.339052516008562 10.14707229850798 -1 0 0
1226 2 2.4 26.152842500163903 6.487582970880315 10.250979719661828 -1 2 0
1451 1 -1.2 27.58647562819057 6.523485672312199 9.422217489108123 -1 0 0
305 1 -1.2 29.703657016928993 7.286502747337664 10.558143491176628 -1 0 -1
1612 2 2.4 29.081622962132386 6.044807289592941 9.33768461573549 0 1 1
1572 1 -1.2 0.22980556476786762 9.874936930614775 10.28553122213147 0 0 1
1714 1 -1.2 7.716374333690481 10.673609648304916 10.278503787016499 1 1 1
1241 1 -1.2 8.318853526322266 8.045135802847671 9.204152681602862 0 1 1
1279 1 -1.2 8.607608443081942 8.694754587644928 11.71295920580552 1 1 0
1261 2 2.4 8.264272784989183 10.360602168926153 11.863229523720873 0 1 0
1514 2 2.4 12.656938619076401 10.247818444045768 9.636095504495326 -1 1 0
943 1 -1.2 11.1688583831094 10.469308972892682 10.333498939636254 -1 0 0
259 1 -1.2 15.736931982804677 11.757938346522602 9.36353443929493 1 0 0
884 1 -1.2 13.551617187675934 11.023733600177462 10.608504327876354 0 0 0
1844 1 -1.2 20.656333587372835 9.812015949834455 9.332516978402772 0 0 0
67 1 -1.2 22.63778810343092 9.07978195512571 11.343362541650986 0 0 0
1076 1 -1.2 22.985604679044112 7.916146728424737 8.921137661678035 0 0 0
849 1 -1.2 26.03479747301255 11.032610866836805 9.334860097117206 0 1 0
1511 1 -1.2 25.839469285136584 8.21606557792548 10.255070040804702 0 1 0
1732 2 2.4 26.096354883614563 9.41378978492431 9.221026048435226 -1 -1 1
1794 1 -1.2 27.967731498146783 9.119692241461415 9.465463795619483 0 -1 1
457 2 2.4 28.99805160925478 10.175893598128189 10.134394264838912 0 0 0
1790 2 2.4 2.4832697440204354 12.273663723881196 8.850472381619214 1 0 0
761 1 -1.2 2.8742576770784445 12.371730666411702 10.348862154463234 0 0 0
816 1 -1.2 9.601363956744992 11.158649697204433 12.331898563017395 0 0 0
1027 1 -1.2 11.003912192507217 13.683727269338592 9.187757475369805 0 0 0
159 2 2.4 10.992820209739481 11.139299608306104 11.801657707044102 0 0 0
887 1 -1.2 11.448305754790084 12.59199258110408 11.350198241856141 -1 -1 0
2079 2 2.4 15.035911688488403 11.344158898836502 11.074003231234915 0 0 0
986 2 2.4 17.230158993708777 12.246841341942416 9.202646466827561 0 0 0
1749 1 -1.2 17.452217695065976 13.239614485795565 10.73110368039523 -1 0 1
1997 1 -1.2 20.651183669582267 12.320937102017298 9.742062325552169 0 0 1
450 1 -1.2 21.67645916437297 14.03670799708654 11.473559918203225 -1 -1 0
1144 2 2.4 25.926492692188916 12.759845647176068 9.327033951811028 0 0 0
415 1 -1.2 25.437938744300652 13.202706130956846 10.779146203358977 0 0 0
1686 1 -1.2 29.025124161037347 11.767656870242645 9.54490539855181 0 1 1
1964 1 -1.2 28.162736988182907 10.684092430042858 11.635274110847146 -1 1 1
1172 1 -1.2 5.317730911911359 14.450424593209199 9.4099826491746 -1 1 0
1107 2 2.4 5.316832361847008 14.789378732066393 11.203351507238393 0 0 0
729 1 -1.2 6.873064135728293 14.843177644379818 11.541190688097226 0 1 1
1051 1 -1.2 9.382671859043601 14.215320605554957 11.412895427002995 0 0 0
865 2 2.4 8.435406019295947 15.114387423332992 12.217408442197357 0 -1 0
649 2 2.4 10.885012352594341 14.04092663648654 10.775240705199518 0 0 0
222 1 -1.2 11.881540273960269 15.210006209352235 11.343001377822745 0 0 0
500 1 -1.2 13.317901508484725 15.679128099276957 9.08747824690732 0 0 0
69 1 -1.2 15.327154740761143 14.856428165045001 10.48433960050858 0 0 0
517 2 2.4 14.865324995545233 15.895191597197668 9.257101255755316 -1 -1 0
1995 2 2.4 16.03506784163295 13.901946852501865 11.492905619470818 0 0 0
1271 1 -1.2 18.367398618890306 16.579199353143196 10.57701516180784 0 1 0
687 2 2.4 17.434308584830063 16.588240849385542 12.073002652736976 0 0 0
348 1 -1.2 20.534844338520113 15.14500571729887 9.50295850455665 0 0 0
577 2 2.4 21.225223883926564 13.831035066871117 9.94009889363431 -1 0 0
2091 2 2.4 26.813311404183683 13.954664259446087 11.513134890102823 -1 1 0
116 1 -1.2 27.497546347348568 15.055649502152162 10.513426951487778 0 -1 0
1925 1 -1.2 29.705420181188593 14.15890964581531 9.212347886670067 0 0 1
253 2 2.4 28.22786746036661 14.713699692274947 9.0913818637105 0 0 0
1327 1 -1.2 1.5047849337328094 18.896403004659728 11.433313280153639 0 -1 0
2121 1 -1.2 4.292629856252517 16.050832294537987 11.278422030742002 0 1 0
2066 2 2.4 8.179713090209631 17.658271429158944 11.183063181840659 1 0 1
65 1 -1.2 8.35937494495521 17.774195982120002 9.553911600585483 1 -1 -1
1124 1 -1.2 9.256003077579642 16.50434263484873 11.615284167585843 0 1 0
1433 1 -1.2 15.394995932584147 17.26785334254718 9.579472186978254 0 0 1
1852 2 2.4 14.709067791399118 17.824998291987153 10.966264935971738 0 0 1
88 2 2.4 19.784959160079147 16.687188276668582 9.640391384777699 0 0 0
403 1 -1.2 20.494586214150537 18.11279912836257 10.06966833609754 0 0 -1
1645 2 2.4 20.888335422329767 19.17217457124928 11.14921527907658 0 0 1
1150 1 -1.2 24.450394220687574 17.391840099274777 10.990895314944066 0 0 0
1131 2 2.4 25.689548494156508 18.02792389903776 9.833272018612053 0 0 0
1258 1 -1.2 27.26669591935527 18.00332814763608 10.144536369197006 0 0 0
1035 2 2.4 28.291369954976798 18.652573446313884 11.162156341320353 -1 0 0
439 1 -1.2 0.4519711229129706 21.09487384221583 9.39782234099449 0 -1 0
518 2 2.4 0.5817185442655032 20.224673728826215 10.819338269054061 1 -1 0
1664 1 -1.2 8.624476433928132 19.143014921412828 11.811618865183485 -1 0 0
1161 1 -1.2 10.661206567098244 21.70544684741637 9.730401660908516 0 0 0
419 1 -1.2 13.13869030375224 21.30996874362566 10.297585361707617 0 0 -1
1684 2 2.4 14.68121132772626 21.063679541497027 11.214880831866916 0 0 0
1980 1 -1.2 14.66242000715289 19.45558965411112 10.992137207081457 0 0 1
929 1 -1.2 22.4138039886283 19.85478465361619 10.917985341519016 -1 -1 0
1426 1 -1.2 23.58446823750426 21.274044144485188 8.691666357989943 0 0 0
1478 2 2.4 23.93359835515172 20.656917028768287 10.17480114533907 0 0 1
1663 1 -1.2 25.268583670201743 19.73164914018816 10.097248926888287 -1 0 0
379 1 -1.2 29.615133334912517 19.401534432640247 10.24562203339305 -1 0 0
605 1 -1.2 5.192132939058414 22.269179531751472 9.439188941985925 0 1 0
1370 2 2.4 5.450723660210097 24.053194465568424 9.207128115371107 -1 0 0
1223 1 -1.2 6.661562719208773 24.276293825692857 10.396889703288279 1 0 0
169 2 2.4 7.57439020276268 23.662964702440153 11.636148738817914 0 0 0
386 2 2.4 9.428401890973701 22.834765258445156 9.340836689125078 -1 1 0
498 1 -1.2 8.8224591755959 22.89719038245114 10.844359447304358 1 0 0
166 1 -1.2 9.764803212270042 24.345896415759544 8.712657675929808 0 -1 0
502 1 -1.2 12.221906093529249 23.688493050257392 9.49788344323552 0 -1 0
1178 2 2.4 12.413661749542612 22.145139048901665 9.05928426679747 0 0 0
1074 1 -1.2 16.15089765515604 21.762148412282382 10.363780453794499 0 0 0
2119 1 -1.2 18.777491597156025 23.388374866703394 9.962551942701689 0 0 1
2008 2 2.4 17.36748724563801 22.949549311151564 11.023874902636539 0 0 1
2072 1 -1.2 17.252069343193003 24.622107812190745 11.052312364423956 0 0 1
186 1 -1.2 21.243183317888448 25.208730241486574 9.835420593605836 0 -1 0
773 1 -1.2 26.390030061177523 23.527878662363346 10.742590516072012 -1 1 0
2086 1 -1.2 29.88770486351981 24.59825006637104 8.875600221280985 0 0 0
22 1 -1.2 1.1909512276401397 25.78089900033858 10.889624211456129 0 0 0
170 2 2.4 0.08646903464020914 25.94376273674858 9.579626016409152 0 0 0
771 2 2.4 2.4760135694999055 26.681059667520902 11.433961556407402 1 0 0
1987 1 -1.2 4.446388237163074 25.324981539190357 9.34543670789684 0 1 0
1119 2 2.4 4.945477813634942 26.988414333115795 9.711072870758306 0 0 0
310 1 -1.2 3.400418602177723 27.5074879172643 10.399994231576489 0 0 0
1536 1 -1.2 6.231521262631848 26.93955389136784 10.802416949953324 0 0 0
1196 1 -1.2 22.744445285101435 27.183024451576806 9.376713700453838 0 0 0
1210 1 -1.2 23.827261176588895 24.757248378732367 9.801868199379157 1 0 0
1203 2 2.4 22.740201417896152 25.755115369518172 10.127764539024954 0 0 0
880 2 2.4 25.537244510661345 24.590018212507527 9.786816064603311 0 -1 0
947 1 -1.2 26.31343750846144 25.765629315951273 10.54140969625281 -1 -1 1
381 1 -1.2 29.246338068236362 26.839069863965598 10.181438186592562 0 0 0
1345 2 2.4 27.712334342035987 26.558944684423977 10.988297917718402 0 -1 0
1570 1 -1.2 0.19739947790977974 0.3501404037422065 9.239816225408122 1 1 1
2084 1 -1.2 7.069290003191378 29.296423547721485 9.391586604087207 0 0 1
448 2 2.4 7.0152102144559425 28.421629028372646 10.823172658842456 0 -2 0
486 1 -1.2 8.592689121046087 28.194382153092945 10.829128092033159 0 -1 0
1455 2 2.4 12.19869512678137 27.350587394713887 8.524003267383614 0 0 1
201 1 -1.2 12.078017409574418 26.629384325122036 10.357572259771114 0 0 -1
143 1 -1.2 14.56200205675046 28.702008246218163 10.7224316516411 0 1 0
1996 2 2.4 19.11614688876628 28.841394487726923 11.36911274732793 0 0 1
930 1 -1.2 19.748869470644948 28.79259728455155 9.88296630665008 1 -1 0
769 2 2.4 26.967029672297215 29.61208769125946 11.078813485657912 0 0 0
1363 1 -1.2 25.277410227269144 29.41792844239619 11.691651777984854 0 -1 0
1887 2 2.4 28.95437975304105 0.10152060087043044 8.90671817422882 -1 1 1
1307 1 -1.2 27.725132937800463 29.877704652936924 9.616970916687015 -1 -1 1
631 1 -1.2 2.6466788480755885 1.1323714453238616 13.349679406615495 0 0 0
148 2 2.4 2.0814496406768033 0.1532156911121446 11.857109143202223 1 1 0
2089 2 2.4 5.389598062633534 0.37927411925176036 12.0472310222029 0 1 1
1236 1 -1.2 6.753134088341804 1.120202626982279 11.785695773711058 0 1 0
1221 1 -1.2 5.06471697951074 0.17135570781020776 14.402679145801732 1 0 0
334 1 -1.2 8.089592380434949 1.569241426614928 14.207055745455907 1 1 0
1501 2 2.4 8.875867321386169 0.09712296764738293 14.379654527554125 1 0 0
760 2 2.4 16.015927362402614 0.28369605337091014 14.092785058785388 0 0 0
1727 1 -1.2 15.917977720610537 1.7837133690574873 13.123550727278653 0 1 0
1290 1 -1.2 17.553375261687957 30.317547344425485 14.513098811291167 0 -1 0
1276 2 2.4 21.076338604978776 0.7551256431773625 11.705701405659182 1 1 0
1821 1 -1.2 21.267410632431112 1.7452064314343905 13.026172480626977 -1 0 1
2114 2 2.4 21.003639314157173 2.427572727135238 14.465516308671516 0 1 0
2117 1 -1.2 24.528171115165186 1.076993202100494 13.039295583979204 0 1 0
1316 1 -1.2 26.948725131072305 1.3223982513469266 14.30407246352543 -1 0 0
398 2 2.4 25.376014045913188 1.3107980384683955 14.48799732400616 -1 2 0
579 2 2.4 28.075423238437228 1.3854339579805177 13.008164535565209 -1 0 0
933 1 -1.2 29.473369518981396 1.5720067032313794 13.7703017339951 0 0 0
1635 2 2.4 30.148946516497205 1.3253650459745376 15.367550880720328 0 1 0
556 2 2.4 0.18336256584078026 3.920310504828 14.674363805644912 1 0 0
1314 1 -1.2 1.7139301563678704 4.459591454356756 14.725113978986327 0 0 0
1364 1 -1.2 4.351436768358749 4.483297595588396 13.151220064350806 1 0 1
3 2 2.4 2.8381037748938898 5.109984255594164 13.581988126348723 0 0 0
1941 1 -1.2 6.962044011003271 3.881321309887016 13.226261518052931 1 0 1
1717 2 2.4 5.822555510016461 5.0808169795022415 13.57278616948374 1 1 0
135 2 2.4 8.2871470892944 3.088222774632736 13.698595891708651 1 0 0
1532 1 -1.2 9.266920475156695 4.275178389156483 13.985351614632055 0 2 0
488 1 -1.2 12.093919532219337 4.45151224146193 14.296148837021807 1 0 1
2138 2 2.4 13.530373939899173 4.597070066249664 13.260146002493613 0 1 1
946 1 -1.2 13.309029594492745 3.31576152353192 12.303851457198892 0 1 0
723 2 2.4 14.914031213182664 2.588058621832313 11.989703627988611 -1 1 0
792 1 -1.2 15.823507452619376 3.8793222981841553 11.351998764803165 0 0 0
1624 2 2.4 17.463062025632347 4.120568755421 11.055098829407294 0 0 1
355 1 -1.2 18.616033869424573 3.9537231503380372 12.617103475757691 0 1 -1
591 2 2.4 19.133118380320106 5.069757219122523 13.546753196323136 0 1 0
1841 1 -1.2 20.55003272686295 3.830983602269959 14.30510319077778 0 0 0
2130 1 -1.2 24.714074931706204 2.890036428620228 14.791920445052467 0 1 1
1462 1 -1.2 24.40647005483127 5.214302594026103 12.764460223547758 0 1 0
2144 1 -1.2 27.00711509907403 5.558340916523415 14.337542782637382 0 1 0
1751 1 -1.2 0.2708307127673311 3.471309063444234 13.05602834388516 0 0 0
1437 1 -1.2 2.166058483873585 5.965983071752895 12.399361110833311 1 0 0
780 1 -1.2 3.5153005062346425 6.52282161267726 14.275008682247755 2 1 0
892 2 2.4 5.789291966494858 7.285768310160214 11.405658390134684 0 1 0
2022 1 -1.2 6.234082680281569 6.471185311595464 12.661226037763647 0 0 1
33 1 -1.2 14.72822984945964 5.806200471409067 12.716840133959337 0 0 0
28 2 2.4 15.114886348181697 7.189066124320297 12.166231037090128 0 0 0
408 1 -1.2 16.378743159608224 7.827841436501127 12.722846529858861 0 1 0
1164 1 -1.2 19.08683589976903 6.715156409648356 13.079132756505887 -1 0 -1
376 2 2.4 19.683737507756582 8.419028570540664 13.561511965108338 0 1 0
19 1 -1.2 26.272423705972162 6.604124892519053 11.936839308847285 0 0 -1
277 2 2.4 25.76845966926166 5.885804632782337 13.322609175517654 0 1 0
717 1 -1.2 24.70558829973233 6.873645178632884 14.594409542138624 0 1 0
1003 1 -1.2 29.115836052495442 7.039793585794451 14.163427601753547 1 0 0
699 2 2.4 30.191467441513243 8.369546317598365 14.135746295100622 -1 1 0
550 1 -1.2 0.1794456098264592 8.477707268292333 12.594016690189802 1 0 0
1301 1 -1.2 5.8174137520322065 8.901228365827022 11.566392618694533 0 -1 1
1538 2 2.4 5.415430103327564 10.201840973263577 12.550083699189969 0 0 0
1127 1 -1.2 14.082863181949605 8.290860902506472 12.82288325382216 0 0 0
619 1 -1.2 12.157730696210178 7.735923012655689 14.15955543895799 1 0 0
808 2 2.4 13.106521411950384 9.197200333171098 13.758137126969773 0 0 0
1313 1 -1.2 12.414066282234788 10.422383692839155 12.992332163758158 0 -1 0
71 1 -1.2 16.292488323383537 10.338378597822608 11.71726433612943 0 0 -1
1393 2 2.4 16.747894823701337 9.200411557538088 13.259893366552626 0 0 1
527 1 -1.2 18.385791968317207 9.47269163371966 12.95336778194981 0 0 -1
1699 1 -1.2 21.170351734938905 8.89773803469654 13.40431823268296 0 1 0
1829 1 -1.2 22.19373304349868 11.110807342219921 12.595005813910118 0 -1 0
2044 2 2.4 22.529674989747704 9.443565340626282 12.80816866645032 0 1 1
1793 1 -1.2 23.456583216865216 9.383188048218708 14.106577602986103 1 0 0
196 2 2.4 24.683159503047676 8.528322185261752 15.09477147358273 0 0 -1
1835 1 -1.2 26.471107791834452 8.81744733249721 14.718357276049101 0 0 0
62 2 2.4 27.746363288310576 9.990109547970622 15.115053853507519 0 -1 -1
911 1 -1.2 29.551435001150626 9.77433678855075 14.699895717329262 -1 0 0
1442 2 2.4 1.023719280291274 12.502186119368698 13.586485477695883 0 0 0
1412 1 -1.2 2.384111213560556 11.419999783561456 13.01200495758242 1 0 0
1167 2 2.4 3.561711903266048 12.349142195282539 11.817418266381797 0 1 0
851 1 -1.2 4.663271661093918 10.989522895325875 11.505396379973915 0 1 0
2146 1 -1.2 6.966740511122985 10.79191317609053 12.870360182284527 1 0 0
479 1 -1.2 14.937027218551444 12.698942365648298 11.957758548945362 0 0 0
2016 1 -1.2 19.994798670237824 12.618450926065755 14.174924397243544 0 0 0
218 2 2.4 21.85565178216565 12.300470029757626 13.96075544345724 -1 0 0
1523 1 -1.2 22.54012018365164 13.766574503890622 13.784607904883098 0 0 0
2158 1 -1.2 27.685437108137958 13.125319560574685 12.564487744783001 -1 1 0
942 1 -1.2 28.03331475489754 11.53951221491351 14.330252097639628 -1 0 1
1293 1 -1.2 -0.13018032983923183 12.168926490958361 12.471342581183366 1 0 0
1489 2 2.4 28.662568114537695 11.760631596251608 12.750526744716472 0 0 0
1342 1 -1.2 1.432161525611981 14.082663098352002 13.588941962413669 1 0 0
460 2 2.4 1.8418971732848572 15.811332928601667 14.222246699394194 0 -1 0
1053 1 -1.2 4.484271349019004 13.667380199156696 12.35258219066442 0 0 0
263 1 -1.2 3.409619243988011 16.068748689566437 14.853924026206618 0 0 0
1638 1 -1.2 8.322437392506272 15.618415152154158 13.674400713201187 0 0 1
915 2 2.4 12.340071441608853 15.935798366039162 12.578877111598572 0 0 0
690 1 -1.2 11.12693837552089 16.33607764150174 13.454849317726238 0 0 0
461 1 -1.2 13.519724913033997 15.180810119072712 13.677269116688576 -1 -1 0
1481 1 -1.2 17.082537851990306 14.904791463796405 12.626479406760673 0 0 1
499 1 -1.2 20.900870014022075 15.877599082864105 12.95192981602069 -1 -1 0
1346 2 2.4 22.256792214004502 14.922749501923747 12.643464560210562 0 0 0
321 1 -1.2 23.327840854959867 15.932283712508925 12.38533377437934 0 0 0
829 2 2.4 24.82482421751474 16.13426472001398 12.25391294111887 -1 0 0
2036 1 -1.2 25.85313796990468 15.004832936140822 12.623835068062538 -1 0 1
1533 1 -1.2 1.28145732390537 16.726002940850897 13.091239477048836 0 0 0
978 1 -1.2 4.181941981586203 18.432946912202933 12.904289237990254 0 -1 0
306 1 -1.2 6.58677896104364 17.524588511600186 11.503795049594892 0 0 0
535 1 -1.2 5.636682403537187 16.434615552402384 13.576149508072646 1 0 0
565 2 2.4 5.189459909964373 17.209604272053834 12.148216502885553 1 0 0
340 2 2.4 9.464199374679714 16.70820757819067 14.042714174640805 1 1 0
1691 1 -1.2 9.360321386615805 18.244826082164156 13.838366701499538 0 1 0
1589 1 -1.2 13.158969023027206 17.073148886345603 11.739257488982066 -1 0 0
1413 1 -1.2 16.134989241286878 17.452115738569148 11.86551382621461 0 0 0
1721 1 -1.2 18.272197034733182 17.445035334548553 13.376129984570865 1 1 0
710 2 2.4 20.05969266995565 17.268050780118667 13.472198253071975 0 0 -1
103 1 -1.2 20.944411395180644 18.6788905316826 12.752382944207845 0 0 -1
548 1 -1.2 25.19270806474322 17.2559098943575 13.494557902466557 0 0 0
272 1 -1.2 26.328088816495214 19.053869648463454 14.522443990321108 -1 0 -1
162 1 -1.2 27.546718448815096 19.751603432871505 12.077052437240798 -1 -1 0
1731 2 2.4 0.3293567609619924 18.164897055038683 12.845973739026673 0 0 0
283 1 -1.2 29.22076024760584 17.711003142584417 12.123419487893331 0 0 -1
489 1 -1.2 0.35309526442795913 19.345979718802234 13.823826830772163 1 0 0
895 1 -1.2 0.04729196024185863 21.499374286245548 12.051006282164453 0 -1 1
388 2 2.4 0.9390022279447664 20.98811764857094 13.204284896044497 0 1 0
1678 1 -1.2 2.480322596073763 20.381391815566577 12.796478182994807 0 0 0
733 2 2.4 3.7107308591093098 19.853695448508038 13.693094040550903 0 0 0
883 1 -1.2 5.007359822213006 20.775129632910414 13.206616781284609 0 -1 0
1093 2 2.4 9.345300767772576 19.835191044818032 13.178247096484665 0 1 0
107 1 -1.2 7.961439218036388 20.902613676526492 14.116104729265883 -1 0 -1
969 1 -1.2 11.045369732896603 20.070406215050102 13.152634820591423 0 -1 0
595 1 -1.2 12.782496762717816 21.398862226388577 14.547795355665698 0 -1 0
608 1 -1.2 15.064387953408332 21.677973401680457 12.808111511810914 -1 0 1
436 2 2.4 19.33748677436116 21.148711228811376 12.44902465250858 -1 -1 0
1932 1 -1.2 18.331874127372185 20.341640142630354 13.585995689027351 1 -1 1
2141 1 -1.2 19.714982219045567 20.206603221295218 11.188378794757009 -1 0 0
1031 1 -1.2 20.594616265019553 21.73508134274589 13.505037884068184 0 0 0
1783 1 -1.2 24.341197221608702 21.811437529015024 11.220647607746242 0 -1 0
433 2 2.4 26.96754994056088 20.155965600532056 13.456210312381005 0 -1 0
1483 1 -1.2 25.888129755787084 21.691134410277705 13.209245971695426 -1 0 0
1037 1 -1.2 2.067959124331079 23.910259851643342 14.149030175330156 0 0 1
1954 1 -1.2 4.7034226386815785 23.46478492331138 13.809777257221123 0 -1 1
1756 2 2.4 5.842835194889584 22.207295832107466 13.75787176890209 0 0 1
298 1 -1.2 6.89740567608048 22.635616324619836 12.721967427769364 0 0 0
1067 1 -1.2 13.40720526805503 23.406053166124046 13.159118184801018 0 -1 0
1216 2 2.4 14.071226572483502 22.25822704391222 14.018183355906514 0 -1 0
1596 1 -1.2 18.34100500922192 22.371969513858808 12.317208999062105 -1 0 0
1486 1 -1.2 22.254591219908495 24.835307993628838 14.328242113893822 0 0 0
2083 1 -1.2 24.68645603395247 24.416339213203123 12.497031467022968 0 0 1
435 2 2.4 25.497937032287183 22.820825967602786 11.917601550450335 -1 0 0
904 2 2.4 28.35242922841355 25.285120602815667 13.739155843828689 0 0 0
1366 1 -1.2 27.93242446145368 23.551640446447987 14.35568244265984 0 -1 0
544 2 2.4 3.816896805128955 24.771344607876266 13.778777777165056 1 -1 0
607 1 -1.2 3.071414263168412 25.2946310867346 12.516976878553992 0 -1 0
1417 2 2.4 8.2828149992498 25.785877239764595 13.852264283665104 1 -1 0
1761 1 -1.2 7.559299703918831 25.086820358683692 12.570666724860859 0 -1 1
1881 1 -1.2 7.0866526515709705 25.584878475818442 14.99339050020857 0 0 1
156 1 -1.2 9.640925935771524 24.826711538880627 14.342811138423624 0 -1 0
555 2 2.4 11.8581101343286 26.80066339837313 11.981116668230193 0 0 0
400 2 2.4 12.722467863312804 24.65723658019962 13.78307412948191 0 0 0
1927 1 -1.2 11.75640446043375 25.292303202548624 12.638186626958477 0 -1 0
1675 1 -1.2 13.929301225467038 25.27339014410966 14.820638286759493 0 0 1
2048 1 -1.2 16.077478133725567 27.013651197092035 11.910521596314569 0 0 1
1530 1 -1.2 18.507150876431943 27.177860652644753 11.818704918019472 -1 0 0
111 2 2.4 17.389771070069823 26.021963682893926 11.984729986872884 0 0 0
234 1 -1.2 18.383495999222657 25.19581127737744 13.058903778629432 -1 0 0
443 1 -1.2 22.537496529029426 26.25841894324784 11.775056980392222 -1 -1 0
1312 2 2.4 23.30272541034047 25.2751556731295 12.989707968585554 0 -1 0
585 1 -1.2 27.518191390004258 28.101072018628795 11.532197430115144 -1 -1 0
1689 1 -1.2 27.927861291853088 25.456578833521956 12.151733668207886 -1 1 0
368 1 -1.2 2.0875378098794637 27.702333963489547 12.593584605451326 -1 0 0
700 2 2.4 1.6418291755906245 28.702832901049124 13.710743343819054 1 0 0
173 1 -1.2 0.9786508494364039 29.788049158191548 12.486889450328675 0 1 0
909 1 -1.2 2.981628714420833 29.106721867478473 14.57578301970531 0 -1 0
655 1 -1.2 6.177428654385184 29.33234815858492 11.930768748645093 0 -1 0
1163 1 -1.2 9.102696244389234 27.155359243531265 13.636000528568486 -1 -1 0
801 1 -1.2 10.90244858018586 28.18348045981506 12.36084102644644 0 0 0
300 1 -1.2 8.550265225354899 29.5740926610697 13.175337328450468 0 -1 0
1480 2 2.4 9.268778314811094 28.319956021702744 12.429540719548815 1 -1 1
2065 2 2.4 14.161446512350318 26.86557104299268 14.303336633605577 0 0 1
2110 1 -1.2 13.325792393321215 26.99259027074496 12.952583471595391 0 1 1
1792 2 2.4 15.929104857497313 28.425028172088773 11.575746227103508 0 -1 1
2095 1 -1.2 15.808523441260354 29.3211559861814 13.125314658000578 0 0 0
1893 1 -1.2 17.222053895431046 29.185719085183695 11.009382010139289 0 -1 1
418 1 -1.2 20.003261528698356 29.8921209848774 12.014205723977842 0 0 0
984 1 -1.2 22.408527043540776 0.11831240029114494 11.113847749098241 1 0 0
1780 2 2.4 23.855572005667682 30.2605190866875 12.263975585843674 0 -1 0
1823 1 -1.2 23.315141323791185 29.030986670537235 13.189902976350794 0 -1 0
1351 1 -1.2 27.91600125405487 0.024054325872886105 12.137523767919495 -1 0 0
1977 1 -1.2 0.4612965570644508 -0.035301078040298056 15.778030015615107 1 0 0
1875 2 2.4 3.4007849107703865 0.3670528522001334 14.446440083458343 0 0 0
864 1 -1.2 0.485738225894992 2.7325355090958707 15.725395852341538 1 1 0
671 1 -1.2 2.9975806087957717 1.3365473734735378 15.947234282429072 0 0 -1
584 1 -1.2 10.351013049526328 0.4864963453037703 15.128076058098218 0 0 0
762 1 -1.2 11.12103174667688 0.7014158628992515 17.81234554831005 1 1 0
940 2 2.4 11.49805999751541 0.21525000812571488 16.215546251105582 0 0 0
1041 1 -1.2 13.051456447450573 0.898418443062511 15.716044986679584 0 0 0
1347 2 2.4 14.254564234624548 1.2320694363378013 16.669685141629774 0 0 0
330 1 -1.2 15.442941161676037 0.47822589339735905 15.555400163980003 0 0 0
469 2 2.4 18.593790276005638 0.47345130771041477 15.679971166578396 0 0 0
511 1 -1.2 18.319504554165903 0.5247364365842313 17.15865710329441 0 0 0
606 1 -1.2 19.55511350186564 1.8095748670876888 15.186170083697535 0 0 0
1423 1 -1.2 22.487254438132013 1.8842277995334764 15.281607815350922 0 0 0
1000 2 2.4 23.72357598563878 2.3843887007098172 15.975599889209972 0 0 0
569 1 -1.2 24.91549493066846 0.938599268187214 16.077664061796852 0 0 0
740 1 -1.2 6.24576919857795 5.761973084980413 14.994296145719892 0 0 -1
709 2 2.4 10.54492574578777 4.6001000490326724 14.902992842901915 1 0 0
774 1 -1.2 9.866559486528653 3.781341722451352 16.155438275717152 1 0 0
467 1 -1.2 13.794072363314092 5.261074467558034 16.63396585527253 0 0 -1
490 1 -1.2 14.378506014818814 3.842745915591746 14.621351263841525 0 0 0
1603 1 -1.2 14.441958380844648 2.98345715789129 17.205994797923637 0 1 0
1669 2 2.4 14.86942560670848 4.3342788439552775 16.098423099507308 0 0 0
1582 1 -1.2 16.361660931990194 4.747288994112708 16.353869149451267 0 1 0
941 1 -1.2 18.577306179288648 5.5629052156991765 15.189109594978357 0 0 0
1974 1 -1.2 23.050607439389047 3.39659979609814 17.223678911370047 0 0 1
1508 1 -1.2 29.512453055075895 4.803174596346164 15.353128256841014 -1 0 1
447 2 2.4 28.311066865583566 5.995084324647884 15.037114645216871 -1 0 0
2017 2 2.4 2.588224930352689 7.146924400641823 15.471611259294638 0 1 0
2108 1 -1.2 1.2377311619912543 7.860013690870051 14.893784211651983 0 1 1
6 1 -1.2 2.4817268246466297 6.067592772325818 16.792553577836458 -1 0 -1
482 2 2.4 6.326107141151066 5.521105312500593 16.64413254409126 0 0 0
1353 1 -1.2 7.310046284338446 6.666094387702078 17.493764669987744 0 0 0
167 1 -1.2 10.243758715291799 6.107687203758537 15.583335362626105 -1 0 0
2103 2 2.4 11.386429435792776 7.366179297015556 15.387116339672424 0 0 0
1325 1 -1.2 12.15688214489516 7.397681567215837 16.897805301515074 0 0 -1
1600 2 2.4 13.842706447887815 6.765815663276718 16.7823626058613 -1 1 0
2098 1 -1.2 14.478784002223593 7.508380068728689 15.397295101963143 -1 1 0
1071 2 2.4 17.697118037868478 5.784589858358648 16.53782212368134 0 0 0
1474 1 -1.2 17.652023347458616 7.3033372070804345 16.851192530619645 -1 0 0
1441 2 2.4 19.094617731231818 8.19787699620319 16.783596860827334 0 0 0
1341 1 -1.2 19.361686799694567 8.333789780110596 15.124208971988761 0 0 0
944 1 -1.2 22.987491892292123 7.647508816415196 17.378542595538537 -1 0 1
1099 1 -1.2 27.806370059278496 6.3039529009158475 16.635053165109817 -1 0 0
224 1 -1.2 3.7604501167956927 8.067289917344052 16.410427828627782 -1 0 -1
961 2 2.4 5.017549966400065 9.444229909681276 15.689673773768144 0 -1 0
1554 1 -1.2 6.725025530448229 8.954458568212232 15.690083020893313 1 0 0
473 1 -1.2 4.951058590825558 10.886334243826447 16.50239466025848 1 0 0
2015 1 -1.2 4.971367271488313 9.656579794242573 14.041942237107856 1 1 0
1106 2 2.4 7.073934166747936 8.373982119540274 17.253405787853623 0 0 -1
236 1 -1.2 8.437736812208433 9.174336986721135 17.756764114384655 0 0 0
130 1 -1.2 10.016678936392502 9.025408902020184 15.575106948186486 0 0 0
1836 1 -1.2 13.9068230133114 10.043165961136832 15.133050216702342 0 0 0
281 1 -1.2 16.453792988214026 9.478675415721298 14.85411803803296 1 0 0
1515 2 2.4 15.090095284418295 9.144248830654771 15.744087122750264 -1 0 0
1434 1 -1.2 15.370001560648273 10.035602437820552 16.97165729238269 0 0 1
70 1 -1.2 19.177153081647457 9.510551463587076 17.864309481759072 1 0 0
1983 2 2.4 23.494577146426426 9.25008491069575 17.6603928868966 0 1 1
1775 1 -1.2 24.727936045643148 9.069116567981936 16.45045411336351 0 0 0
1128 1 -1.2 22.20255936447652 10.111984981206282 17.74683169074735 0 0 0
288 1 -1.2 27.790317669398195 10.128982685656846 16.636145499218728 0 0 0
520 2 2.4 29.02752937327607 10.63387177062992 17.523060004940323 -1 0 0
1285 2 2.4 1.0994556495736791 12.0810902796672 16.63719608913697 1 0 0
1781 1 -1.2 0.6881172245848155 12.764944876088379 15.223726434533184 1 0 0
5 1 -1.2 0.13932213365018012 10.632558818539355 17.12031306086458 0 -1 -1
1951 1 -1.2 1.223376299345944 13.088008593694862 18.068441799276982 0 1 1
1716 1 -1.2 2.6881100982361468 11.6853874337198 16.42965509162528 1 1 0
1052 1 -1.2 4.7068670344964945 13.330447915046692 17.44762731849486 1 0 0
770 2 2.4 4.020406227402525 12.01934064015189 17.227064059240522 0 0 0
2059 1 -1.2 15.86559593101833 12.352793217514808 16.038192257709458 0 0 0
938 2 2.4 16.210308839102087 11.445281848249639 17.21274154440281 0 0 0
648 1 -1.2 18.080569746075337 13.90290187570292 15.732429028465884 0 -1 0
51 2 2.4 19.654422400196257 13.472336262013345 15.517428887072684 0 0 0
1602 1 -1.2 20.112470917115537 11.833997384390797 16.573217681728963 0 0 1
154 1 -1.2 22.535536247650093 11.661734231312442 15.352875469774423 -1 0 -1
916 2 2.4 22.14486772140913 11.598011645884714 16.979154516839404 0 0 0
1063 1 -1.2 23.848775865938617 12.167295045761557 17.39950866743241 0 0 0
1722 1 -1.2 28.84058300336457 12.189266393060086 17.591051646894506 0 0 0
350 2 2.4 5.013373125482058 16.299046294742478 15.109025322215704 1 0 0
1733 1 -1.2 5.790889555845665 15.227853878812176 15.846022247263154 0 0 0
483 2 2.4 5.757483325230972 14.530329723483275 17.440852205731307 0 0 0
571 1 -1.2 9.512691324114336 16.333570390571456 15.579186645517183 1 0 0
614 2 2.4 9.8662464520157 15.768627346784974 17.128871083420314 0 0 0
756 1 -1.2 13.890443667353125 14.502712944363756 16.428381273567965 0 1 0
1477 2 2.4 12.943828056433054 15.48571243522336 17.422221410398915 0 0 0
1277 1 -1.2 11.495459236023121 15.280802659979548 16.980175520172782 1 1 0
1209 1 -1.2 15.552538024756275 14.303382755445826 14.692420771499721 0 1 0
458 2 2.4 14.269738679321943 15.264498853666616 15.022854118097657 0 -1 0
1334 2 2.4 16.422651156590625 13.97060191430569 15.902761099713922 0 0 0
1811 1 -1.2 16.51436134823829 14.729057828203556 17.376092015366336 0 0 0
1188 1 -1.2 20.818450843326538 14.507145943636575 15.897557828222158 0 0 0
1840 2 2.4 21.036694588310777 16.216801922151735 16.14821179943028 0 -1 0
1217 1 -1.2 22.705683367271483 16.300683788355833 16.138112762615105 0 0 0
1601 1 -1.2 27.80377447075124 14.400345199113815 16.706621729493012 -1 0 0
1529 1 -1.2 0.7811236660924292 16.194369407159233 15.485102126697592 0 0 1
1670 2 2.4 1.6559073754493336 16.820055242686472 17.180335338769826 0 0 0
2013 1 -1.2 2.6500818703354705 18.19181864636342 17.242829234323633 1 0 1
521 1 -1.2 5.077092213965826 17.58055735734137 16.11959665447471 0 -1 0
758 2 2.4 4.070327995892219 18.782752657262034 16.581167372010107 1 0 0
1242 1 -1.2 12.902308473826078 18.822623188525483 15.116203259993851 0 0 0
1324 2 2.4 13.980622393209604 18.107091997269517 16.218389088243885 0 -1 0
1470 1 -1.2 14.517030725484192 16.88660912457561 15.453778984726876 0 0 1
378 1 -1.2 17.923097932315176 18.788443667424396 16.420845823181473 0 0 -2
814 1 -1.2 20.54061841076356 17.406020340344607 15.048258316661698 0 0 0
472 2 2.4 23.55414867504811 17.56343900455258 16.948669984630612 0 -1 -1
1548 1 -1.2 24.564887440599602 18.23075239344881 15.82779656863589 0 -1 0
1286 2 2.4 27.31208177581334 16.004055469515983 16.82771137941826 0 0 0
1629 1 -1.2 26.68016695158337 16.43456523784779 15.591209038201375 0 0 1
109 2 2.4 25.91552850762546 17.593990047319053 14.752354648078473 0 0 0
1064 1 -1.2 28.63410067163341 16.79744411697018 17.157170819004815 0 0 0
1895 1 -1.2 0.3974953479095407 21.323312374651458 14.773456200165224 0 1 1
654 1 -1.2 3.74313758737591 19.756750937132264 15.349085035305691 0 0 0
888 1 -1.2 7.211284852066259 19.5451373444407 16.369415460182932 -1 -1 0
1876 2 2.4 7.311448338159574 20.951511295095628 15.603266790312523 0 0 1
252 1 -1.2 10.683362186976094 20.547111682980344 15.797644698666199 1 0 0
1467 2 2.4 10.876793807956577 20.75724273296164 17.372588943372097 0 -1 0
580 2 2.4 11.976328512957187 20.058577149047558 14.504512475845807 0 0 0
590 2 2.4 18.068214733889068 20.232062838229822 15.318352889363279 -1 0 0
1278 1 -1.2 19.19703467120676 21.182850647712936 15.791818680127163 0 0 0
1764 1 -1.2 16.549762817230206 20.837466667501086 15.867126093717511 0 0 0
1994 2 2.4 20.7496613837673 21.58080804272592 15.168336543189461 0 0 1
1642 1 -1.2 21.676010808480495 20.43403828639909 15.584881607637588 0 0 0
337 2 2.4 22.478386763383675 20.353374600779123 16.90121373660101 0 0 0
1148 1 -1.2 23.622744838295123 21.628012630625314 16.55671936781447 0 0 0
1375 1 -1.2 28.036034589973692 21.047630910378505 14.19217302242159 -1 -1 0
999 2 2.4 25.035678857899455 22.407728209347447 17.206016210372784 0 0 0
1389 1 -1.2 26.138394684378014 21.855881987213248 16.164708127213235 0 1 0
1130 2 2.4 27.598940018221867 22.183449756503823 15.302123196583835 -1 0 0
1662 1 -1.2 28.843654998982053 22.127073061739175 16.60967486123737 -1 0 0
1240 2 2.4 0.885069348852107 24.623102467030776 15.018765404741593 0 0 0
1101 1 -1.2 0.9181116159460923 23.47491227527165 16.103007406459195 0 0 0
506 2 2.4 -0.07770072462573997 22.0392499181284 16.164188840006254 0 -1 0
576 1 -1.2 5.973057346931604 21.7759116242245 15.318143233662122 1 -1 -1
824 1 -1.2 8.330293869704972 21.972376264189876 16.450164284264226 0 1 0
665 1 -1.2 10.223119777211563 23.931666231018106 17.325442330734198 0 -2 0
2118 1 -1.2 11.944393197383189 24.26785549293316 15.228049170770811 0 0 0
24 1 -1.2 14.904500439673296 22.8283117026932 15.323577917724332 0 0 -1
2115 2 2.4 15.698304401615504 22.02527040854744 16.502816655884466 0 0 0
1029 1 -1.2 16.406561011480143 23.66316694866575 16.98805874975074 0 -1 0
906 1 -1.2 21.19167910159837 22.682311057000778 16.300765538121926 0 -1 -1
1695 2 2.4 21.556234678494118 24.183215143850884 15.83882273498145 0 0 0
918 1 -1.2 19.903445050050482 24.57154455538673 15.315136993106591 1 0 0
1173 1 -1.2 25.32434378095893 24.08672148120645 17.287556866160596 0 -1 0
698 2 2.4 23.810594855636236 25.157736336635924 17.6953280993987 0 0 0
1542 1 -1.2 22.4653538185707 24.70895301757857 17.052891731895112 -1 0 1
331 1 -1.2 29.944703758291094 24.979036814977302 14.035945438464983 0 1 0
64 2 2.4 0.44198089413791064 27.505025318750246 16.338382508075167 1 -1 0
168 1 -1.2 0.9713709871234134 25.9158048228337 16.013586540796915 0 -1 -1
402 1 -1.2 4.503625769868423 26.135384271943025 14.615517641932986 1 0 0
158 2 2.4 5.873494494649191 26.582946572728577 15.568954187354818 0 0 0
357 1 -1.2 6.136057152816635 26.197810904942983 17.190088142375732 1 0 0
1610 2 2.4 10.630366988113174 24.80913444283518 15.944451506038947 0 -1 0
647 1 -1.2 10.993902100661854 26.463093138509414 16.532917450767446 1 0 0
988 2 2.4 16.536789555037117 27.167926858138383 16.12719215794016 1 -1 0
363 2 2.4 18.862542551929074 25.559628693661235 14.769875974086087 0 0 0
1416 1 -1.2 17.716145129231755 25.961102770453582 16.108066376176744 0 -1 0
1340 1 -1.2 19.64447116424344 27.06473321851583 14.8675258316891 0 -1 1
1332 1 -1.2 24.040815694475967 26.45620732462163 13.848161007217694 -1 -1 0
1701 1 -1.2 24.337401903013337 26.540037502906813 17.201677010562925 0 0 0
84 1 -1.2 26.501637028946814 27.838589345042912 16.29724143983594 -1 -1 0
890 2 2.4 24.96183394893639 27.885948391005766 16.800753529760886 0 -1 0
102 1 -1.2 27.8756356553702 26.4197457080194 14.746124092938542 0 -1 0
2020 2 2.4 27.790902838122246 26.764926268041457 16.40748716754062 -1 0 1
491 1 -1.2 27.442903014969545 25.522836660432976 17.533197729287433 -1 -1 0
1090 1 -1.2 29.259394476710998 27.238035952271005 16.860805863648306 -2 0 0
2010 1 -1.2 0.5367541797463762 27.865151489529737 14.60895772708588 1 0 0
477 1 -1.2 1.2136547348901146 28.606364818137486 17.250014125831697 1 -1 0
264 1 -1.2 5.866077091715984 30.324845398929646 17.080770035606058 0 0 -1
960 1 -1.2 6.003946058958827 28.15334250660706 15.327143553689654 0 -1 0
531 2 2.4 6.185807831585864 29.797268160155177 15.408439333397508 1 -1 0
1414 1 -1.2 7.704892972548272 29.832808965785063 15.334511410266416 1 -1 0
1499 1 -1.2 11.50717894827113 28.98938265663911 16.57023769450071 0 0 0
1320 1 -1.2 13.502385757943827 27.691231133894192 15.742076569643297 0 -1 0
1299 2 2.4 12.262895040430205 27.450784191953595 16.97274466705227 0 0 0
1109 1 -1.2 15.853424095373688 27.14859572788973 14.655692223088861 0 0 0
837 1 -1.2 17.247047418340046 28.725493650237578 17.025343112298014 0 0 0
1159 1 -1.2 19.6846659109473 29.469845643946627 15.706794384652254 -1 -1 0
841 2 2.4 20.5190917440291 28.245903728509845 15.862938519883734 0 0 0
2082 1 -1.2 21.210949487305598 27.955695839530602 17.45190655179095 1 0 1
784 2 2.4 23.370626141980843 27.84874164645257 14.21823484653637 0 0 0
1796 1 -1.2 21.87335457038996 27.87979761297679 14.794254005975715 0 -1 1
1820 1 -1.2 24.624821965710183 28.358257508880936 15.381457739918341 -1 -1 1
850 1 -1.2 28.700599406771 1.0768921336546033 16.28978382249643 0 1 0
1550 2 2.4 28.341730421999042 0.3421287595834498 17.626963208133045 0 0 0
901 2 2.4 2.6050856299093526 1.596920159298643 17.48611910177933 1 0 0
1619 1 -1.2 1.5459318995945113 0.5490554283482711 18.234820573688957 0 1 0
2039 1 -1.2 4.189954683013058 1.2616532690199709 18.11884818644528 0 1 0
1179 2 2.4 4.845605192555785 1.0854770809558343 19.74748615112308 0 0 0
1001 1 -1.2 6.465545417598166 0.8847661235046103 19.235504983399036 0 0 0
1868 1 -1.2 8.821961350764363 2.5184632479372397 18.221287188583315 1 0 1
686 2 2.4 9.484514356214538 0.9791089513363168 18.483045705066445 0 1 -1
788 1 -1.2 9.582738227479085 0.4844141820782283 20.106136389705217 1 0 0
566 2 2.4 13.4636248763861 0.131848493462711 19.800425550215902 0 0 0
293 1 -1.2 12.197664714035456 1.203413063993389 20.16056111173032 0 0 0
119 1 -1.2 13.90905360934774 0.27289713735370597 18.234754554620377 0 0 -1
1213 2 2.4 16.381842399338055 0.6149613567264266 20.645012348058128 1 0 1
23 1 -1.2 16.897685716361515 2.1345795646978076 20.874053325252028 0 0 0
1791 2 2.4 26.755300475712346 1.4703853366811173 19.701251309566608 0 0 0
1349 1 -1.2 27.4370792538714 1.449621509181227 21.144841570596306 -1 0 0
1030 1 -1.2 27.871690972238397 1.5652747543538172 18.716463649759966 -1 1 0
1472 1 -1.2 1.7799054049177754 2.794846893928357 17.826248813120184 0 0 0
2019 2 2.4 1.4479282237344546 3.9699661021705097 19.19251803755458 0 1 1
597 1 -1.2 2.652873467017149 4.941089841377924 18.992797268900837 0 0 -1
1544 1 -1.2 30.13828503129082 4.44085241504472 19.143092477251127 -1 1 0
1026 1 -1.2 4.696333511996033 2.667733691979122 20.074322051059188 0 0 0
203 1 -1.2 7.373389140636806 4.384304635231984 16.67768924939168 1 -1 0
1142 2 2.4 9.004938700867822 4.1253279798480875 17.53028597141655 1 0 0
451 1 -1.2 9.138251350826584 5.193837473839884 18.903044181734224 0 -1 0
1656 1 -1.2 11.882576471503294 4.947754816144845 19.335610170426502 0 1 0
572 1 -1.2 15.501674412432893 5.232439905798695 19.19015323803175 1 0 0
2037 1 -1.2 18.1299917044945 4.948616924657927 17.85230649639687 -1 1 1
747 2 2.4 17.21505116383271 5.490795626471035 19.190938659884708 0 0 0
858 1 -1.2 22.08359588237338 3.0170039813682217 19.811740517141644 0 1 0
1640 1 -1.2 21.763602753055366 5.150514502813335 18.425501157297326 0 1 1
268 2 2.4 22.70512276655464 3.872016300851624 18.741510269045417 0 1 0
669 1 -1.2 24.061183566262518 4.49148550900794 19.635178356159457 0 0 0
836 1 -1.2 25.790297518650213 2.6525157110679176 20.109781859413744 0 1 0
1564 2 2.4 25.656649781207424 4.217145629174864 19.983754958968653 0 0 0
1004 1 -1.2 26.816388450939375 4.356433445930721 18.732620730476878 0 0 0
1149 1 -1.2 0.47130249472204294 6.603934362526069 20.857247750968053 1 1 0
2026 1 -1.2 4.902819078810903 5.227954153539432 17.1439262273841 0 0 0
529 2 2.4 3.5379983890252604 5.845305008145382 17.816080994436938 1 0 0
1207 1 -1.2 3.921044810806533 6.973825473358424 18.835286488238875 0 1 -1
1970 2 2.4 4.878570677587041 7.823634110064902 19.67233663188034 0 0 0
1522 1 -1.2 14.09904865899135 7.094895279168846 18.44999206577379 -1 0 0
424 2 2.4 14.685957762461891 6.075388837954828 20.194465305966638 0 0 0
2069 1 -1.2 17.62324974362192 7.1344863946172605 19.73681653059144 0 1 0
894 1 -1.2 20.193049745995737 7.333053143166068 17.885414735503357 0 0 0
601 2 2.4 21.67126782353023 6.866754406139219 18.231565617637514 0 0 -1
322 1 -1.2 21.90944536174376 7.491500292530245 19.664915519737786 0 1 -1
454 1 -1.2 24.47561553454838 7.08553635844479 20.43071036884822 -1 0 0
1198 1 -1.2 26.10301824836106 7.20550756734475 18.128422207560497 0 0 0
1190 2 2.4 27.311707091328564 5.88803519358031 17.955259319560202 0 -1 0
1913 1 -1.2 28.60297393488893 6.55576495169293 19.057515528636742 0 0 0
1168 2 2.4 29.689105290428607 5.861516746426735 20.23488084018687 -1 0 0
1398 1 -1.2 5.746487303648338 8.640456571595509 18.36660932598588 0 0 0
1847 1 -1.2 10.617644198240031 10.835431222023374 17.164286038617817 0 0 0
86 2 2.4 10.000729038316765 9.458452236899799 17.192941847201812 0 0 0
2058 1 -1.2 10.80479204189457 8.513664655484819 18.33057610907831 0 1 0
1597 2 2.4 10.42497545131441 8.94611452429836 19.930705012244662 0 0 0
428 1 -1.2 10.652537160197141 10.49698292414515 19.86796660080836 1 1 0
429 1 -1.2 17.69291471816335 11.924820641139236 17.43161518877175 0 1 0
604 2 2.4 19.12154802291715 10.992401530540864 17.781702204132067 0 -1 0
1966 1 -1.2 24.757184349855915 9.245038562628594 18.894290278758263 0 1 1
1322 2 2.4 25.517785937940342 7.861277677801505 19.47616464907963 0 0 0
1463 1 -1.2 26.80416278666249 8.57810719191871 20.209185628812833 0 0 0
1227 2 2.4 28.265314211199883 9.393849002281364 20.188995236087052 -1 1 0
754 1 -1.2 29.021765956230904 9.618785199977761 18.773550710077707 -1 1 0
325 2 2.4 2.522062290610328 12.823265819303904 19.309382961285305 0 0 -1
935 1 -1.2 3.588972874597802 11.684176558228737 18.794306479930505 0 -1 0
1630 1 -1.2 9.58920280170612 12.994339166941886 18.850456098760908 0 0 0
1012 2 2.4 10.649229600868155 11.728866187209439 18.731395561278223 0 0 0
1525 2 2.4 8.240680950516184 13.83260478037765 18.559865658970402 0 0 0
1401 1 -1.2 12.401529324407813 12.393492001994202 18.913833758622232 0 0 0
688 2 2.4 13.03325169631506 13.635638129604985 20.02380087784422 0 -1 0
1498 1 -1.2 15.385216813486037 11.857243099578044 18.577171013853366 0 0 0
2 2 2.4 15.645472709484139 12.512575960741653 19.99615155437049 -1 0 -1
1494 1 -1.2 15.919718849749623 11.43043839749452 21.116971085217752 0 0 0
993 1 -1.2 16.93705398891857 13.226394681295968 19.26978507311346 0 0 0
1798 1 -1.2 19.40202401249309 11.327752782089451 19.526964927954722 1 0 1
1369 2 2.4 20.729237178318044 12.13031642121891 19.794574815979992 0 0 0
2064 1 -1.2 21.256355820384606 12.89624256422243 18.37636584692091 0 0 -1
805 2 2.4 24.68441747713917 12.947826170006895 18.670011866022264 0 1 0
713 1 -1.2 24.44928980913802 12.481440032761057 20.36911919918804 0 -1 0
318 1 -1.2 26.270074639749954 12.734455784106295 18.367448731694704 0 0 0
1789 2 2.4 27.7755035057758 13.316160301819082 18.056551269009066 0 -1 0
1734 1 -1.2 27.957003185836555 10.777927646573612 20.77784686024809 -1 -1 0
802 1 -1.2 1.1491875605073265 12.782845727673731 20.269741653088037 0 0 0
992 1 -1.2 3.4789508381991854 14.08411328411501 19.942544013464897 0 0 0
2006 2 2.4 3.5217175926020277 15.496100480877628 18.966420773030148 1 0 0
1979 1 -1.2 4.8900427050825 15.67235168780623 18.19320488291355 0 0 0
2097 1 -1.2 3.7406162104709213 16.81089251288594 20.046516740252663 0 0 0
1882 1 -1.2 6.713369514553066 13.327923712949481 18.309555472917694 0 0 0
1206 1 -1.2 8.03141762397762 14.64219634850385 20.032432055192203 1 1 0
1917 1 -1.2 8.824601886147699 14.611104268259329 17.15750840820942 0 0 0
452 1 -1.2 13.679155097860686 14.950494164905999 19.020864984324827 0 -1 0
1747 1 -1.2 16.326874598797012 15.522528296010828 20.083456478667063 0 -1 0
1191 2 2.4 16.968648961537422 14.693410704127434 18.83325957519325 0 0 0
538 1 -1.2 18.8293178878055 14.755266201676953 18.756135936841773 0 0 0
2133 1 -1.2 21.13496862701916 15.325014527694874 20.142242657504944 -1 0 0
1176 1 -1.2 24.219179479455224 14.564946630516323 18.36107557626339 0 1 0
928 2 2.4 24.800529313691275 15.904400630124563 18.930372096389384 0 0 0
1580 1 -1.2 26.222149767691132 16.31981498630563 18.459816665253904 0 0 0
1245 1 -1.2 28.326243494158025 13.153364018302131 19.868821614941297 -1 0 0
1113 1 -1.2 0.5016729896013669 17.251884227745666 18.273201502983397 0 0 0
1102 1 -1.2 2.3805672208022135 15.562728641604242 17.88056302489798 0 -1 0
966 1 -1.2 7.513710984185361 18.633917254201222 18.666894516264115 1 0 0
1931 1 -1.2 9.346875601237384 16.89351364507612 18.08318578823798 1 -1 0
1971 2 2.4 9.063712823590835 18.453684315441617 18.650773417872884 0 0 0
1541 1 -1.2 9.927237838028569 18.46341131064168 19.87797976953005 0 0 0
1962 1 -1.2 13.014126975006043 17.307371638225167 17.436672128053345 0 0 0
896 1 -1.2 17.11687351130687 17.58224773328889 18.656421113573654 0 -1 0
1296 1 -1.2 22.624440273487416 18.822458000761134 17.278504884573806 0 0 0
1355 1 -1.2 20.65202740287578 16.45971177002301 17.677762145211066 0 0 0
1694 2 2.4 20.02525180882475 16.027082108362904 19.064329863252652 0 0 0
1152 1 -1.2 19.517434747682238 17.341031349824423 19.668640101283287 1 -1 -1
965 1 -1.2 23.730881623859368 17.180360625140285 18.541889704479033 -1 0 0
628 2 2.4 29.3742936354526 17.52976366779012 18.413485408369525 0 0 0
1616 1 -1.2 28.903175514490542 17.006571456613386 19.78559952444747 -1 0 0
1180 2 2.4 28.646354068907137 18.45744014741272 20.32919664384801 -1 0 0
270 1 -1.2 0.4162645673516593 22.082499200325 17.88107765401414 1 0 0
1080 1 -1.2 5.047277560338432 19.35762758226981 17.788369830837237 1 -1 0
142 1 -1.2 4.375879137071757 21.528263772014622 20.251980565386628 1 -1 0
830 2 2.4 6.60806043453832 19.606933823611588 17.757068032016416 0 0 -1
1077 1 -1.2 6.4054593736958765 21.328321526368832 18.42356477111825 0 0 1
541 2 2.4 5.797900596591949 22.161266032362043 19.601973804118746 1 -1 0
1126 1 -1.2 9.921347439781304 19.341228973844057 17.605649690423288 0 0 0
704 1 -1.2 9.936998784679021 21.616819618821495 18.719715017749408 0 0 0
846 1 -1.2 12.408370002697392 20.616601483362057 17.872813434207657 1 1 0
640 2 2.4 13.46416254923408 21.309539612117863 18.734876957477695 0 0 0
646 1 -1.2 15.084326686088144 18.890367394469873 17.109742502044273 0 1 -1
1247 1 -1.2 13.821531601512648 19.989834792474632 19.720867641063133 -1 0 0
1273 2 2.4 16.74945254174933 18.95785114985128 17.667959953343964 0 0 0
1907 1 -1.2 17.138293843179724 20.09684848749227 19.01348987718713 0 0 0
844 2 2.4 21.49046890713293 20.948512886677488 19.71659487992338 0 0 0
679 1 -1.2 21.41291700510904 21.038388516405373 18.13997792246738 0 -1 0
101 1 -1.2 21.12674888215666 19.349350118057416 20.24718931145201 0 0 0
1473 1 -1.2 25.42296851911566 21.857877555754545 18.656407508742777 0 0 0
523 1 -1.2 28.993246636203097 19.070159785925338 18.55439541312956 -1 0 0
764 1 -1.2 0.8236637723319087 24.251766764570725 19.79953553965625 0 0 0
871 1 -1.2 5.341343158041085 23.625298483401238 19.075772648436992 -1 -1 0
1969 2 2.4 5.870679744637428 24.623653965474016 20.720957558734337 1 -1 0
998 2 2.4 9.084491775051477 22.484253833952412 17.655055230736004 1 -1 0
329 1 -1.2 8.107471035827027 23.444701392410575 18.73916240372238 0 0 0
1049 1 -1.2 12.84140701125379 22.704902856512405 19.64997757721888 0 -1 0
1246 1 -1.2 14.552846251761132 21.73474713151719 17.75864258332964 -1 0 0
1459 1 -1.2 19.488273570532893 24.48380857247097 20.012758753311562 0 -1 -1
672 1 -1.2 20.48270715611522 22.177964557674 20.245915192333108 0 0 -1
1112 1 -1.2 23.653812067611238 24.91071199582145 19.312470778968024 -1 0 0
374 2 2.4 24.688752349810382 21.770582873170913 20.16256363883578 0 0 0
1143 2 2.4 24.870729793244237 24.59965534651677 20.428463742840954 0 0 0
1718 2 2.4 0.010406403877044541 22.977523002724208 19.09236671978749 1 0 0
1805 1 -1.2 28.76770632293454 23.597875189411866 19.105226305089726 -1 -1 0
1739 1 -1.2 5.742296584072144 26.062648375644613 19.614209064175746 0 -1 0
554 2 2.4 6.726453017019312 27.08814734425737 18.571794696333665 0 -1 -1
164 1 -1.2 8.343794842767387 26.820727337835542 18.806285910422407 0 0 -1
1989 1 -1.2 12.728594579495734 27.48624886812545 18.486487325608188 0 0 1
1505 1 -1.2 15.499333234174857 26.396632085825438 17.027961966552958 0 -1 0
1239 2 2.4 15.794389213407491 25.131219967201783 17.870823790638518 0 0 0
1291 1 -1.2 14.49979263198782 24.7052409454228 18.80112802013222 1 0 0
1778 2 2.4 15.582277716735977 25.316465271093453 20.21964203509606 0 -1 0
1005 1 -1.2 17.08728829797428 25.292584047270402 19.188250861224954 1 -1 0
39 2 2.4 18.580664065337334 25.830130702856252 20.047835034521203 0 0 -1
953 1 -1.2 19.430446582099727 26.65146226024247 19.11504327730906 0 -1 0
478 1 -1.2 26.67158781485263 24.337557747871287 20.171504571855284 0 -1 0
1396 2 2.4 27.83108423193482 24.99680294320195 19.127966614184526 0 -1 0
209 1 -1.2 28.569696308135313 26.39020832220115 19.806787700588075 1 0 0
1371 2 2.4 0.7084438242354362 29.68731455240747 18.40397278248396 0 0 0
1410 1 -1.2 0.9634069854921101 29.09111438607378 19.848722241643582 1 -1 0
47 1 -1.2 6.787277871572632 28.778408184648903 18.792691260667677 1 -1 0
532 2 2.4 6.803432244011745 30.189350787676773 18.35571532288544 0 -1 0
1025 1 -1.2 8.480553448765686 -0.12957779374459122 17.867908265398697 0 1 0
1409 1 -1.2 10.437357729405216 27.889692628088536 20.16706141854195 1 -1 1
1911 2 2.4 12.048760128458825 27.85429255597231 20.018531470825984 0 0 0
1184 1 -1.2 12.770676373838736 29.319935272507077 20.213259511964466 0 0 0
176 1 -1.2 16.896593201701574 30.288063649080783 19.250349028026726 -1 0 0
1777 2 2.4 18.06218258661278 29.638809060101735 18.062946840155004 0 -1 0
2154 1 -1.2 19.397835852376478 29.216592674498983 18.950039234547457 0 0 0
2080 2 2.4 20.388007643496522 27.86589111949613 18.9401436573788 0 0 1
2096 1 -1.2 21.436988889804923 28.58963899674132 20.007533920206356 0 0 0
1556 1 -1.2 25.688035434273782 0.12419791458227705 19.510542051461105 -1 0 0
1110 1 -1.2 24.923874213244698 28.526390436289354 18.31415958955745 0 -1 0
962 2 2.4 26.051686104355134 29.284211652811365 18.977135550474294 -1 -1 0
1942 1 -1.2 27.31426358607706 28.656011162535606 19.728626928674473 0 -1 1
53 1 -1.2 27.030941941104047 29.913129067911658 17.827384219168106 0 -1 -1
1007 1 -1.2 29.56173042565291 30.18858204747924 18.269526545371868 1 0 0
863 1 -1.2 0.46590754768604037 1.8087948605456212 23.02536025980342 1 1 -1
185 1 -1.2 4.7434491589215035 30.182288240843967 20.547191091081967 1 -1 0
1365 1 -1.2 10.194248117520004 0.8967947783909254 22.41185726763841 0 0 0
913 2 2.4 8.756397365593022 0.225086840693791 23.17521958615621 0 0 -1
823 1 -1.2 7.626894311804899 1.4032003829158777 23.660638568410644 0 1 -1
914 2 2.4 10.671246129580819 1.3118383205065844 20.820589631724285 1 0 0
1019 1 -1.2 14.860510339602317 0.5220454149432455 20.735296505409604 0 0 0
695 1 -1.2 21.083503657933303 0.6722396949730198 21.328926437560156 0 0 0
496 2 2.4 21.218338106477933 2.340046891214442 21.330393080999787 0 0 0
860 1 -1.2 19.64813410762244 3.296859154653166 20.9507974358027 0 1 0
970 1 -1.2 24.910970935272157 0.5502050414029319 22.905208761112267 -1 1 0
1587 2 2.4 26.49941897216812 1.2344301916143154 22.610540875051502 -1 1 0
1692 1 -1.2 26.338602239640103 2.601763921723641 23.51131616673124 -1 1 0
1998 1 -1.2 27.24912948355685 -0.012581031667273337 23.132741056892403 0 1 0
1655 1 -1.2 1.559319529235394 2.848239531084613 20.439423692484965 1 0 1
925 2 2.4 1.5844028642741648 2.884910155324021 22.048080785252253 1 0 0
2045 1 -1.2 3.2223438935618995 2.6095332671342133 21.980835570369287 1 0 1
637 2 2.4 4.596970193552382 3.4593361468690067 21.48414326101858 1 0 0
657 1 -1.2 4.31625648838399 4.940990671398221 21.972019457348352 0 1 0
1121 1 -1.2 6.360053009698582 2.8670788484912473 21.645785972551487 0 1 -1
1310 2 2.4 10.365677652605228 4.420388785141401 19.987423572915453 0 0 0
1175 1 -1.2 10.2379033317091 2.9716925051676886 20.200445181913338 0 0 0
32 1 -1.2 13.158395323845234 3.441710739383267 22.38770143126849 0 -1 -1
620 1 -1.2 17.69885223605776 4.524797831431791 20.426632923840987 0 0 0
1788 1 -1.2 18.136043163537042 2.688904165347532 22.914104457110554 0 0 0
1659 2 2.4 18.080548089310252 3.233620492880909 21.304598931601543 0 1 -1
2073 1 -1.2 21.591697363422565 3.194524845867898 22.81570461953287 0 1 0
653 1 -1.2 24.210614366965284 3.8090578567222 22.67281954489255 0 0 0
1839 2 2.4 22.81888105172632 3.83015146510667 23.622493552162073 0 0 1
1822 1 -1.2 26.226536697038522 4.889931304263508 21.487990870752043 0 0 0
973 2 2.4 25.837226698335606 4.072943809440777 22.820385117190707 0 0 0
1771 1 -1.2 28.70543564807181 5.4996526379428765 21.555032862802538 -1 0 1
1249 2 2.4 28.401444466282143 5.1262318099761774 23.135185236134028 -1 1 0
1929 1 -1.2 0.6332794997907923 8.310373025822914 23.144930861820917 1 1 0
1769 1 -1.2 3.4809870269697587 7.4335988260202415 21.99752409875675 0 0 0
1910 2 2.4 4.983201974241364 6.425242988690987 22.3673800177448 0 0 0
621 1 -1.2 5.681130626848907 7.13835976719312 20.98735416494041 1 0 0
1013 1 -1.2 10.413000891811585 5.541289250110253 21.22533543424097 0 0 0
715 1 -1.2 11.485885432618188 7.7001926596863415 20.286852207328455 1 1 0
1707 2 2.4 11.857055292273166 6.168953640320965 20.36708888533513 1 1 0
1066 1 -1.2 13.343763529115229 5.861739189257267 21.060596251220378 0 0 0
285 1 -1.2 15.954949166859965 6.273610501223342 21.227643766619767 0 1 -1
1765 2 2.4 16.818634249309817 7.577382861606313 21.10229897116489 0 0 0
778 1 -1.2 17.88000792489305 7.803638676998364 22.22680832680616 1 0 0
1491 2 2.4 18.872810221880865 7.747097863736593 23.59313439861718 0 1 0
777 1 -1.2 20.255373111967003 6.484703107936056 23.109242815333843 0 1 0
1082 2 2.4 23.110321499713862 7.631126187493552 20.81368703244806 -1 0 0
1535 1 -1.2 22.798650768652347 6.336814546585477 21.924471592937756 0 0 0
1960 2 2.4 21.809648208510062 6.57037733393993 23.307039040285588 0 0 0
1406 2 2.4 0.4485132848617742 8.206094581987962 21.501221680425015 0 0 0
465 1 -1.2 1.5731368430371755 9.097451329964114 20.563877443434897 0 0 0
1302 1 -1.2 4.449402323836231 9.272741492109178 20.18229616557774 0 0 0
611 1 -1.2 3.152256991391171 10.335919009048961 22.2802380993303 1 -1 0
843 2 2.4 3.156044072390916 9.018508986754776 21.31914055964633 1 1 0
641 1 -1.2 7.619475086348915 9.885517509154617 21.944848729547523 1 0 -1
1973 1 -1.2 9.218666126411662 8.323932604585409 20.714411636190285 0 0 0
1934 2 2.4 8.635669393317551 8.556550118658471 22.363109487858043 1 0 0
885 1 -1.2 13.748008056647704 10.141419434027426 21.6664963878856 0 0 -1
926 2 2.4 15.363279255171424 10.001812391029747 21.787101114439 1 0 0
1651 1 -1.2 16.057280250634253 8.895797947343214 20.857420320994628 -1 0 0
1487 1 -1.2 16.12064341305959 10.325463985959304 23.362858188049085 0 0 0
1493 1 -1.2 21.952823284667563 11.271297776714569 20.40505711631498 0 -1 0
1458 1 -1.2 20.665675035073985 10.377186036771974 22.766292562825658 0 1 0
1265 1 -1.2 18.881122320359413 9.382807618688659 24.042382240888283 0 1 0
1378 1 -1.2 22.804798076082026 9.12932766483108 21.622824590585804 -1 0 0
385 2 2.4 22.03610521392387 10.564232691475688 21.81909728696088 0 1 0
371 1 -1.2 29.51768997010125 9.050953681242818 21.110532572929657 -1 0 0
7 1 -1.2 1.7017517278290908 13.639295977091098 22.748171198030345 1 -1 -1
937 2 2.4 0.5645144194923832 13.593956854691365 21.696355350862106 0 -1 0
367 1 -1.2 4.127803350762887 12.73345837507864 22.57599112293641 0 1 -1
124 2 2.4 7.112777898298186 11.41102975403124 22.630015308080733 1 0 0
2156 1 -1.2 6.954428191724788 12.513133486490673 21.298295030437888 1 0 1
1212 1 -1.2 9.408992337477951 13.666184388503169 22.04570294158374 0 0 0
736 2 2.4 12.718945676001942 10.793785921771219 22.706123244622194 0 0 -1
1294 1 -1.2 11.507546624649082 11.860788381516128 22.765495787657688 1 1 0
674 2 2.4 11.005082580529477 13.400877823356327 22.391197901308725 0 0 -1
127 1 -1.2 14.524781001724934 13.566728935441622 20.61507630810079 1 -1 -1
202 1 -1.2 19.858183118771244 13.07291423978048 20.9417182372008 0 0 -1
1594 1 -1.2 23.349399151395108 11.52605412115061 22.542625942562715 -1 -1 0
508 2 2.4 23.895985327392413 12.843239752152067 21.958705254062412 0 0 0
732 1 -1.2 27.273827686009778 13.312897277059568 22.188518033449878 -1 0 -1
1648 2 2.4 26.88818755332532 12.525483064317823 23.653952585632496 1 0 0
612 1 -1.2 25.76970892573777 11.477534777508804 23.912967326971728 0 0 -1
2003 1 -1.2 29.719685176607868 12.501649678897333 21.731882571371127 0 0 0
74 2 2.4 28.368491092388275 12.304292054846654 21.163568917271547 -1 -1 -1
1404 1 -1.2 0.3490617958675345 15.13845793988869 21.21508597517067 0 0 0
1443 2 2.4 0.5004311686906324 16.567539588058086 22.149709865248354 0 0 0
1736 1 -1.2 3.5383499494499233 15.391781333884484 22.18368989761767 0 0 0
853 2 2.4 7.779120708952648 14.016345080372602 21.478894102111134 1 0 0
360 1 -1.2 7.028723559510259 15.423698839749546 22.16212917022098 1 1 -1
1854 1 -1.2 11.913415570639934 14.1411284367194 21.072098422421085 1 0 0
2129 1 -1.2 20.5835647188942 15.250226831750194 22.83695327686977 0 1 0
1036 2 2.4 20.828663410295402 14.313988042120853 21.458808905045416 0 0 0
1759 1 -1.2 22.408272514918387 13.702624712090387 22.086870801755957 0 -1 0
1385 1 -1.2 24.751940523614092 13.900820628934632 22.823885143330525 0 0 0
49 2 2.4 24.8905670209886 15.60390990153147 22.392603183823777 0 -1 0
1448 1 -1.2 24.820263526838517 15.628079225240603 20.780508530551533 -1 0 0
714 1 -1.2 26.49380307480011 15.886567068883606 22.816231291173995 1 0 0
1205 1 -1.2 1.8576872364372254 17.319860757646545 21.57359456800406 1 0 0
976 2 2.4 3.459761740855552 16.97401634457508 21.601910163200674 1 0 0
878 2 2.4 5.238896891242949 19.08557014292419 22.892654413982783 0 0 0
1953 1 -1.2 4.603830344050151 17.668382403918862 22.5104600326536 0 0 1
1507 1 -1.2 11.33907707559003 18.099720441349593 21.607019670324494 0 0 0
1155 2 2.4 12.460989187503904 18.36357229316892 22.8472493657047 -1 0 0
1697 1 -1.2 14.166216951309147 18.91468215410556 22.455078738686115 0 1 0
721 2 2.4 16.632782522569325 17.059106662118616 20.19985617512062 -1 0 -1
617 1 -1.2 15.343020681773698 17.964219984588766 20.229978311173817 0 0 0
2128 2 2.4 18.99476424288503 18.114511691045934 21.030106942500193 0 0 0
1356 1 -1.2 17.678448264587317 17.245661823225625 21.4635395651478 0 -1 0
1614 1 -1.2 19.83563481565176 18.049874042229135 22.385448172456908 0 0 0
1520 1 -1.2 24.21693225068498 16.470432309443417 23.435995561544058 0 0 1
589 2 2.4 24.13194880976832 18.327437490952857 22.6415721654409 -1 0 0
416 1 -1.2 23.183651543834422 18.37807045615582 21.420433988447282 0 0 0
1283 1 -1.2 25.75313398330177 19.029166603085752 22.659262612196883 0 0 -1
1282 1 -1.2 27.280898171721425 18.628998538866124 20.93077751298439 0 1 0
54 1 -1.2 2.0643573477426735 20.277077680323597 20.91884334842212 1 -1 0
613 2 2.4 0.3762825065232769 20.653994581113135 21.16762372292262 1 -1 -1
118 1 -1.2 30.248189086191857 21.966306276112793 20.340534828411112 -1 0 0
735 2 2.4 3.3992815732548585 21.251323628124407 21.410773233377522 0 0 0
401 1 -1.2 4.177770141131698 20.437938144462276 22.583575891078226 1 0 0
1335 2 2.4 7.5623911912728845 20.612352088171875 21.88546659539652 0 0 0
659 1 -1.2 7.172015798241758 21.9222279972681 20.762214605816375 -1 -1 -1
664 2 2.4 10.314810525712527 19.376828019081742 21.115194931789233 0 0 0
1869 1 -1.2 9.08374566404125 19.848407439610646 21.998607706069482 1 0 0
214 1 -1.2 11.30889067043272 20.690305954848775 20.74495818593672 1 -1 0
1958 2 2.4 14.674121206429128 19.448813879373912 20.99239701610674 0 0 0
1044 1 -1.2 15.851326989771366 20.691443320023875 21.434704955664436 0 0 0
1153 2 2.4 17.427977789527645 20.733810934433105 20.38895431111417 0 0 0
509 1 -1.2 18.401968481741644 19.574238759384098 20.964703586950044 0 0 0
1238 2 2.4 21.265125950133104 19.04255298070258 21.753635652891294 0 1 0
1146 1 -1.2 21.490469472551815 20.399901604033502 22.60859143459052 1 0 -1
1676 1 -1.2 23.195181426659314 21.18334959655483 19.994149795158283 -1 -1 0
2122 1 -1.2 25.412016929550976 20.903082249348582 21.15874538197144 0 0 0
1562 2 2.4 26.687272766600227 19.92927466654149 22.003386640753384 0 0 0
296 1 -1.2 27.857590359899653 20.52296527032983 22.85670915600179 -1 0 0
1800 1 -1.2 29.77137411842217 19.311814279916597 20.956475600355592 0 -1 0
474 1 -1.2 2.2979228816832316 25.54224693737595 22.17957252785118 1 -1 0
696 1 -1.2 2.849064528613287 22.85501956871075 22.22700591456944 1 0 0
2134 1 -1.2 4.815669676124304 24.76307928132355 22.03999319273471 0 1 0
1838 2 2.4 3.2608990102210376 24.336495648672802 22.63947871643398 1 0 0
1017 1 -1.2 7.5115037365345225 24.448011746954297 21.144891491215578 -1 -1 0
1622 2 2.4 8.750982372324918 24.02227122155161 20.15333117690499 0 0 0
1135 1 -1.2 9.834865567972765 22.921372253950377 20.899624622211707 0 0 0
160 2 2.4 11.50433544690333 22.22980126276836 20.690951869036933 0 0 0
932 1 -1.2 12.176760633650865 22.894205798181098 21.937654145858833 1 0 0
1315 1 -1.2 18.019601536019366 22.087045233556562 20.869138091723872 0 -1 0
237 1 -1.2 19.217965548463308 23.73170753832789 22.32913073221437 -1 0 0
1528 2 2.4 19.343188104442596 23.101466928135643 20.858158801908644 0 0 0
776 1 -1.2 24.337269763762233 23.2658283424716 20.998335076367002 -1 0 -1
2152 2 2.4 0.8641016174928063 25.247914477358826 21.32344183115173 1 0 0
1784 1 -1.2 1.0285290828693512 26.86157887735504 20.507460048632474 0 -1 1
389 1 -1.2 9.645132757602202 25.46271863867904 20.270179241217495 0 0 0
2106 1 -1.2 14.378209443613205 26.109205811511046 23.062323890893797 0 0 0
1858 1 -1.2 12.774106800409346 26.951507914714085 21.11191652421005 1 0 1
1428 1 -1.2 15.714230769548552 23.993013669058993 21.246528210330546 1 -1 0
232 2 2.4 14.829654055576322 24.415853606850245 22.747713814087483 0 -1 0
171 2 2.4 14.123640426968517 27.177822880997148 21.992774818385744 0 0 -1
344 1 -1.2 18.40390879378976 26.84155627483822 21.325667218643513 0 0 -1
616 2 2.4 19.227221610666827 27.502752663605854 22.77986177507099 0 0 0
811 1 -1.2 24.664647383745113 25.847555168424197 21.501899278240916 -1 0 0
304 2 2.4 25.331998767009125 27.161365548475732 22.112764077879426 -1 -1 0
1939 1 -1.2 26.884147809820558 27.132134314047697 21.781784857428452 0 -1 1
855 2 2.4 27.901893081148668 27.64002525739594 20.726240718413536 0 0 0
825 1 -1.2 -0.08571633589365976 24.80792632210708 22.547983096294537 1 0 -1
193 2 2.4 1.3789703494704217 28.29832287829587 21.3418637660698 1 -1 0
126 1 -1.2 0.8881892788436717 28.52430857642362 22.722779899455148 1 -1 -1
743 1 -1.2 3.2164950176011153 28.457734368459235 21.77370159644689 0 -1 0
1022 2 2.4 4.4828516878768 29.395569966777295 21.900589970370227 0 -1 0
519 2 2.4 7.225825434306816 28.05558913162821 22.537248197529554 0 -1 -1
1199 1 -1.2 5.581088810433873 28.212212791907792 22.377240341573096 0 0 0
560 1 -1.2 7.8582927540735295 27.246513468454502 21.251526232542417 1 -1 0
1738 1 -1.2 7.946440187513882 29.60747245248375 22.356153336896007 -1 -1 0
15 2 2.4 9.062290659162857 27.022476788361097 20.2683607551657 0 -1 0
2120 1 -1.2 13.879845440666108 28.801173183579582 22.36015554915081 0 0 0
1999 1 -1.2 15.315806612200733 26.94225570705957 20.73144892029399 0 0 0
581 1 -1.2 16.865057158721516 30.2550192683541 22.134160543187445 -1 0 0
1088 1 -1.2 18.076022625200082 28.392638009879153 23.254078039277736 0 -1 0
1888 2 2.4 16.892470360903037 29.5283969266041 23.60602773687468 0 0 0
1959 2 2.4 21.335613161310047 29.47476102134873 21.505037596609608 0 -1 0
2051 1 -1.2 20.170034480787777 28.53673380098625 22.069043505633783 -1 -1 1
1073 1 -1.2 22.508610965046614 29.398465222248028 22.50543253935257 0 0 0
1492 2 2.4 24.35681672598995 29.5666313257726 22.958753622082 0 -1 0
235 1 -1.2 24.89134831092907 28.669133303435892 21.711921012550057 -1 0 0
1905 1 -1.2 29.240307489062435 28.242250425847658 21.75788579629175 -2 0 0
1503 2 2.4 29.537627262209767 28.33519370905074 23.275975198140724 0 0 0
370 1 -1.2 0.12028819496022651 3.155763261704164 25.361507911684093 1 1 0
1834 1 -1.2 4.480618003001394 1.1960129192479814 25.31980400188863 1 1 0
61 2 2.4 4.6536090656848605 2.776943988361448 25.617397093805 1 0 -1
361 2 2.4 6.7400009766390045 2.8496194647382125 23.27191934476143 -1 1 -1
668 1 -1.2 5.5485289297295015 3.1613419662825324 24.29902493707823 0 1 0
1079 1 -1.2 13.52898280656849 0.8685822116184277 23.689260715227483 0 0 0
99 2 2.4 13.73108859943681 2.5470406519043727 23.681167742346275 0 0 -1
217 2 2.4 17.84319060000774 0.9219523648429035 25.842331520343663 0 0 -1
1411 1 -1.2 17.233376353625257 30.045262297606353 25.28363364161123 0 0 0
251 1 -1.2 17.00628251812965 2.4518276174928015 25.560624749864342 0 0 -1
151 1 -1.2 19.443612751794582 1.0354386881082918 25.751927685342487 -1 0 -1
1719 2 2.4 23.84724948993205 2.441715774113922 26.461081889219102 0 1 0
335 1 -1.2 26.975691582723755 0.3220795601627942 25.9161277156297 0 1 -1
1139 1 -1.2 0.9345702208177378 4.127831107180252 22.781100707298865 0 0 0
387 2 2.4 -0.009968925501574036 3.0380325364239513 23.7704173200291 0 1 -1
1745 1 -1.2 3.4798541686386373 3.9503068258592853 25.74242773182467 0 -1 0
1141 2 2.4 3.0022389289154 5.15546305339636 26.59097169198974 0 1 0
1915 1 -1.2 8.306664496641071 3.634712450731456 23.623528989166218 0 0 0
13 2 2.4 8.60589542790987 4.1769839324539335 25.273455252406837 0 0 -1
1908 1 -1.2 10.311183069658423 4.407765238008622 25.2588682878028 0 0 0
1709 1 -1.2 12.868988132979652 3.21138138182794 25.01937109352104 0 1 0
2032 2 2.4 11.710903936055532 4.016563289846426 25.817994137607446 0 1 0
2057 1 -1.2 15.320593645861733 2.566207819371487 23.800018089672864 0 1 0
1403 1 -1.2 17.07483221235111 4.855093001389278 24.05565677464759 0 0 0
2126 2 2.4 16.847061618020106 3.1430730021789213 24.145424872659003 0 1 0
1450 1 -1.2 23.586479389022756 3.046393024102352 24.941768866809454 0 0 0
29 1 -1.2 21.97347647551644 5.052273353135348 24.100042930450723 0 0 0
1627 1 -1.2 26.970681767536007 5.015843575846265 23.662135668340326 -1 2 0
2027 1 -1.2 28.964136873543666 3.5393197147044746 23.296226131321763 -1 1 0
1938 1 -1.2 0.7325107090416635 7.576768401607629 25.548579989665836 1 0 1
1540 2 2.4 2.0145186946572333 8.06007324117349 26.285198159306486 0 0 0
827 1 -1.2 3.099957670143352 6.738239683120729 26.179083355571585 0 1 0
1208 1 -1.2 5.750700997830514 6.723443106682507 23.858314094195606 0 1 0
1637 1 -1.2 8.245044836485382 7.067470183259435 23.107738930079858 1 1 -1
1816 2 2.4 7.293882125345223 6.724474881909696 24.595953722700447 0 0 0
1880 1 -1.2 7.312202323539345 7.909402840627934 25.67877431062466 -1 0 0
1308 1 -1.2 7.354563520660428 5.269735006005446 25.433319911702284 0 -1 0
623 1 -1.2 11.13411033176489 7.8608992826705375 26.001424962615456 1 0 0
786 1 -1.2 15.498430375536556 6.367122196897723 25.77311342646486 1 1 -1
1923 2 2.4 17.069670023498073 6.019333554533527 25.246444039090022 1 0 0
1665 1 -1.2 18.355708135103768 6.868400474260058 24.746198572997116 0 1 0
1181 1 -1.2 21.97593745831472 7.6820971874619275 24.371108578912494 0 0 0
189 1 -1.2 29.63283955181415 6.033497468298828 24.0677907961987 -1 0 -1
951 2 2.4 30.075739314181536 7.621450647890143 24.332448620132205 0 0 0
1350 1 -1.2 2.55026144585476 9.43177805711991 25.804246900296633 2 -1 0
1766 2 2.4 3.5603590094721773 10.620171796464348 26.197681455388512 0 0 0
2060 1 -1.2 9.614817386785466 9.04994193587023 23.5157395971689 0 0 0
707 1 -1.2 12.168287002540275 9.376370294249629 23.526935145223288 0 0 -1
1083 2 2.4 10.980497461892499 9.109289086770577 24.540954772426183 -1 0 -1
924 1 -1.2 11.169309299932582 10.757263596836882 25.233683398424006 0 0 0
1926 1 -1.2 21.39364193956325 9.932908193024009 25.04759846769255 0 0 1
1768 2 2.4 20.174879576491403 10.43221356983447 24.37592236710148 -1 0 0
1321 2 2.4 22.622935892686108 8.887743810864247 25.162326148377762 -1 -1 0
68 1 -1.2 23.892197759707173 9.945205401482996 24.402576011871364 0 0 0
55 1 -1.2 26.313027260372987 9.834362013703608 25.804317845397428 -1 0 -1
1096 2 2.4 25.109792312953864 10.679564053916364 25.12777133060687 -1 0 0
1819 1 -1.2 28.494120202559355 8.491636154513381 24.35312928046604 0 0 0
314 2 2.4 28.13646149096114 10.05666489845858 25.23632863989 -1 0 0
1809 1 -1.2 3.481459457534964 11.236102468656219 24.640348051732126 0 0 0
1623 2 2.4 4.150698707190089 11.10916977905454 23.21286090991046 0 0 0
1986 1 -1.2 5.596708538233343 10.980781049468778 22.793149618431517 1 0 0
1400 1 -1.2 8.215026330368065 14.272739435821704 24.67931851287282 0 0 0
1103 1 -1.2 8.365662720801287 11.81717694391709 23.577115992823376 0 0 0
242 2 2.4 8.338419473562883 12.632667106025387 25.04704353451886 0 0 -1
1440 1 -1.2 9.586647687501877 12.804805298778755 26.061840780330108 1 1 0
1712 1 -1.2 14.076212148396657 11.550375370480259 23.739987045346375 0 1 0
1842 1 -1.2 14.769015187351783 11.250147379033205 25.925182424302307 1 0 0
902 2 2.4 15.42764705866997 11.61856788331813 24.442731642115454 0 0 0
1604 1 -1.2 19.010695492315172 13.144473240173577 26.3355709571608 0 0 0
2034 1 -1.2 16.78934129184462 12.73614334688346 24.22561026430492 -1 0 0
1479 2 2.4 18.377884590921607 13.06450237913796 24.78871325146075 0 0 0
108 1 -1.2 19.44523534451333 11.893494953939866 24.63246398015962 0 0 -1
438 1 -1.2 22.51722775625677 12.882808280942115 27.286113013044552 -1 0 0
609 1 -1.2 27.215312795861493 13.830504532716917 24.420006987340745 0 0 0
718 1 -1.2 24.81838315289881 11.44334523504268 26.441727599456314 0 0 0
1865 1 -1.2 28.150420525505922 11.598399625494059 24.35424112355318 0 0 1
1613 1 -1.2 0.3278997287734999 16.226077480456716 23.811389897843632 0 -1 0
1060 2 2.4 3.4471560993937205 14.159542408938307 23.152912338934726 1 0 0
1903 1 -1.2 3.3505338872338486 14.836832016595768 24.685459975204505 0 0 1
291 2 2.4 4.729165429629812 15.061089947624671 25.48825205490435 0 0 -1
1581 1 -1.2 5.772161922085783 14.865717537515568 24.328835466499775 1 0 0
207 2 2.4 7.190324304175019 15.24436537942972 23.801282284458743 1 0 -1
1904 1 -1.2 7.870624314654524 16.600835503890078 24.68802296791436 0 0 0
1680 1 -1.2 10.501093707401532 16.180016288860912 25.091530663140357 0 0 0
627 2 2.4 8.898369945092721 16.320918357402668 25.977678087899637 0 0 -1
1485 1 -1.2 11.474825217184351 14.566364943745551 23.386704000601227 0 0 0
1874 2 2.4 12.071457244235091 15.693205975674275 24.324288266420194 -1 0 0
893 1 -1.2 12.904122317682928 15.445636302406603 25.82398417276247 -1 -1 0
775 1 -1.2 18.55436681303996 14.46469965727633 24.259733710156514 0 -1 0
1886 2 2.4 20.05207748951092 15.337002872245174 24.219908168088892 0 0 0
643 1 -1.2 20.967201369666753 14.678691691479377 25.329094301939428 0 0 -1
537 1 -1.2 23.034813947204466 15.516209207437413 26.538285544946355 0 0 0
1633 2 2.4 24.377884090240023 16.437153527068336 26.517391887318524 -1 1 0
676 2 2.4 26.698915833716118 15.531291863931111 24.33015961011153 0 0 0
1038 1 -1.2 25.602215359605083 15.638138723398038 25.549320240966725 0 0 0
738 1 -1.2 29.929373844152405 17.25590175533381 25.993822573059497 -1 0 -1
1418 2 2.4 5.803701674073875 18.23782036173466 25.82590822500315 1 0 0
2157 1 -1.2 6.124759297712225 18.921835474128077 24.207417882374255 1 0 0
359 1 -1.2 6.4492350340761275 19.40035142279837 21.582403307102755 0 0 0
1956 1 -1.2 12.752138121941442 16.83346415014671 23.476491331600567 0 0 0
1338 1 -1.2 12.126872748448553 19.38836736337541 24.10093812543485 0 -1 0
105 1 -1.2 14.172042275061154 19.492928863811972 25.61985734139513 0 0 -1
1468 2 2.4 18.88148147141929 17.797427262545664 25.687143288705073 0 0 0
1857 1 -1.2 17.110762709802955 17.99054030222519 25.60408056887806 0 0 0
833 1 -1.2 19.48335896075127 16.666889956599107 24.824856852405162 -1 1 -1
1735 1 -1.2 23.596527784092235 19.162733223699707 23.857532519687734 0 -1 0
1617 1 -1.2 29.267625280328577 17.152914733779088 22.343940108267727 -1 0 0
1866 1 -1.2 28.141339633225776 16.204423457303747 24.75104106549873 0 0 0
1873 2 2.4 29.461877344101243 17.075383195528424 24.529726436520484 0 0 0
273 1 -1.2 29.37739965423529 19.010652419069377 24.48512986588463 -1 0 0
246 1 -1.2 2.5508563864281353 21.074739555552323 25.761818899670573 0 0 -1
995 1 -1.2 5.374907257877837 21.791469672698383 25.15723629164489 1 -1 -1
1309 2 2.4 3.783140542700616 22.13491728391465 24.920051681778574 0 -1 0
934 1 -1.2 7.403237498848588 21.686632139655522 23.31720119291828 1 0 0
494 2 2.4 12.644060156802785 19.898546359650027 25.429205667233056 1 -1 0
2132 1 -1.2 12.595693884602266 21.511730854650267 24.68502380844927 0 0 0
757 2 2.4 15.909343596316535 18.942005337140944 26.117528063673905 1 0 0
94 1 -1.2 19.223026681485322 19.410201205938723 25.063744354174652 0 -1 -1
1513 2 2.4 20.55766739901484 20.43102194674011 24.24104973095211 0 -1 0
840 1 -1.2 21.88045171933742 20.894213828672218 25.167770699254987 -1 0 -1
1813 2 2.4 23.48780426790992 20.442920531398684 24.841349780166645 -1 0 0
1976 1 -1.2 24.23832964422367 21.765744196465675 24.300359663042677 -1 0 1
81 1 -1.2 0.2767809424805985 20.982753927909553 22.694523787728905 0 0 0
2054 2 2.4 29.368415476334913 20.533575377541446 23.78719070422957 1 0 0
971 1 -1.2 28.667812239909434 21.393650735355653 24.818522174878424 0 0 0
79 1 -1.2 3.619847362233677 24.129830235054254 24.37761889743478 0 -1 0
375 2 2.4 6.830413715838989 22.496589641935447 24.52435186385272 0 0 -1
810 1 -1.2 6.235961974660402 24.034180399891568 24.543497480166018 0 0 -1
575 1 -1.2 11.412264916944295 24.13462701054394 24.409907864520076 1 -1 0
14 2 2.4 12.351843610016399 22.915656763772173 23.64924096896682 0 -1 -1
312 1 -1.2 13.920868910219504 23.368708874013965 23.532732321744938 0 0 -1
1546 1 -1.2 16.24539050469211 23.329093755558226 25.30482786235847 0 0 0
835 1 -1.2 18.60375557153531 24.526079064031894 24.539403721820623 1 0 0
131 1 -1.2 19.261992784125425 21.70555337696548 23.996871712284964 0 -1 -1
602 2 2.4 19.616738348440265 23.291643015141045 23.70386078258464 0 0 0
431 1 -1.2 20.817415664241086 24.00419068010838 24.305626247559005 0 0 -1
1253 1 -1.2 24.62516925325737 24.63760999273763 25.16857823100022 0 0 0
662 2 2.4 24.72647853791933 23.131453150745564 25.41274406418513 -1 0 -1
274 1 -1.2 26.423813913054875 22.780745845377044 25.239093464318344 0 -1 0
1947 2 2.4 28.031252361207965 22.82081939965239 25.521489760488947 -1 0 0
332 1 -1.2 28.890694083581725 23.74471154931808 24.38012472809604 0 0 -1
1392 1 -1.2 0.6523620741032772 24.99227717167431 25.02444502784296 0 0 0
1641 1 -1.2 3.0116607468485035 26.707711452071088 25.271430231445194 1 0 0
75 2 2.4 1.4355814551595398 26.07108536753782 26.015311646211032 0 -1 -1
1046 2 2.4 4.398548115844127 27.521424684692484 25.62089528855408 1 0 0
183 2 2.4 6.048930635319956 25.262334380481576 25.65600310738512 0 0 -1
2088 1 -1.2 5.909555368870851 26.811713907493154 25.11984217847251 1 0 -1
1737 1 -1.2 16.38339636609191 24.913363160272244 23.357944089008672 -1 -1 0
287 1 -1.2 13.882016862526822 27.435864591149944 26.51769972149612 0 0 -1
1850 2 2.4 17.06643845343046 24.702697670535134 24.860109306401693 0 -1 0
1571 1 -1.2 20.160541969221956 26.33474957795636 23.57394636040536 0 0 0
1849 2 2.4 20.665763235486693 25.667679936893787 24.871045758235663 0 -1 0
1856 1 -1.2 22.328284745233717 26.08444565221616 25.02110301320065 0 -1 0
1300 2 2.4 23.851290277818762 26.078494529553495 24.723790360858118 0 0 0
1832 1 -1.2 24.886157281572803 26.784349881698258 23.62248954682632 0 0 0
1687 1 -1.2 24.247026989079608 27.01353781541619 25.9759694551296 0 0 0
303 2 2.4 29.85344242200805 25.261741161532946 24.05599114257238 0 0 -1
1421 1 -1.2 29.009337233677158 26.83562826471582 24.017944028652344 0 -1 0
1785 1 -1.2 2.5621421199200793 30.09982965184664 25.426870677591452 1 -2 0
57 1 -1.2 4.031738619677554 -0.08481054140251379 23.073730816640946 1 1 0
459 2 2.4 3.8053256199096963 30.36750575818016 24.68033258016823 0 0 0
882 1 -1.2 4.863355199638734 29.02810653085622 24.932367832443248 1 0 0
179 1 -1.2 8.110034801086526 27.7345200979249 23.907657994966677 0 -1 0
980 1 -1.2 9.276785708026683 30.27502055905717 24.643268535908057 0 -1 0
2000 1 -1.2 10.266567862870026 28.058121609218396 25.35746903445121 0 0 0
1599 2 2.4 8.690217567550965 28.56920368035695 25.17832132906534 0 0 0
870 1 -1.2 12.659692287795599 29.47347634947818 25.02165149925255 -1 -1 -1
2068 2 2.4 13.80005114007694 29.994742860854675 23.803603728972917 1 -1 0
1859 1 -1.2 15.417885782300347 29.401049652501708 24.059089786946586 0 -1 0
922 1 -1.2 24.263910279722584 29.127280535666124 24.433688296898453 0 -1 -1
445 2 2.4 25.115073500471425 28.391876847180775 25.663639338662783 -1 -1 0
1268 1 -1.2 26.61620968428175 28.492809100583337 24.894980148757522 -1 0 0
1323 2 2.4 27.470872159520727 29.868703446835113 24.595596194896398 0 -1 0
804 1 -1.2 29.41152412255301 29.660206498060617 24.173004434910943 -1 0 0
1547 1 -1.2 1.6306712758471125 1.7006967254699936 26.688860936949304 0 0 0
1215 2 2.4 2.159964578057277 0.052824506516483245 26.99811510424805 0 1 0
510 1 -1.2 3.2145684959094583 30.095895281890524 28.343401425261522 0 -1 -1
2135 1 -1.2 6.763091278827099 1.0098560029595869 26.840275904674353 0 1 0
213 1 -1.2 8.914422731059858 0.3649912366548838 28.532538168729015 1 1 -1
349 2 2.4 8.695553596176087 1.9757122158936355 28.85199175749423 1 0 0
975 2 2.4 7.4428453254728675 30.078705736002156 27.678250884764005 0 -1 0
873 1 -1.2 15.538343833164868 1.2618518731938277 28.271640731610148 -1 0 0
328 2 2.4 14.775481896545642 30.320139405172892 28.400538945185946 0 0 -1
546 1 -1.2 17.9673238520698 1.175858129231787 27.51064278742401 0 0 -2
1729 2 2.4 19.711788529809013 0.9528794778380192 27.475871769552278 -1 0 0
1230 1 -1.2 20.879129066762438 1.9130697660785692 28.059709554524787 -1 1 -1
133 2 2.4 21.967784451372456 0.7013837918605226 28.061098039280154 0 0 0
1639 1 -1.2 23.034247502233878 1.0305507330591999 26.804655512562917 0 1 0
955 1 -1.2 25.205994946763273 2.191863901853488 27.13446974616132 -1 0 0
256 2 2.4 25.832593237526844 0.6236005705544668 27.255564595836073 0 1 -1
990 1 -1.2 26.56535465002258 0.35008074605518313 28.52569518188149 0 0 0
241 2 2.4 0.7117962059877257 3.1321869006475627 26.731047630669853 1 0 -1
1930 1 -1.2 1.4886528996949822 4.456375600506594 26.971510263717306 1 1 0
1713 1 -1.2 3.0992788325384617 3.245409216517239 29.22943561882823 1 1 -1
727 1 -1.2 3.951819537491621 5.22347447525612 27.82750837997867 0 0 0
266 2 2.4 3.8229148963253916 4.776349599837017 29.40773916356134 1 0 -1
1311 2 2.4 6.977725709163148 2.7452948365187337 27.23032596340169 0 0 0
1650 1 -1.2 5.187080546507394 2.858183912621773 27.23367894050554 1 1 0
11 1 -1.2 8.498386113689426 3.731012956977924 26.9307885860644 -1 -1 -1
1748 1 -1.2 7.293077764714111 2.6133863441831835 28.99287576575761 0 0 0
1818 1 -1.2 12.163183195850813 5.485463468241237 26.337244652444486 0 -1 0
536 1 -1.2 11.423686505276038 3.275737785969586 27.378792062436478 0 0 -1
1943 1 -1.2 16.555670113993628 3.586600971580052 27.966417517256833 0 1 0
1814 2 2.4 17.169475683637504 5.181593726420936 27.942640320353245 0 0 0
1763 1 -1.2 23.243990983367162 3.7050413080404914 27.364143345090795 -1 0 0
2067 2 2.4 23.630433989203002 4.989664355675959 28.457105916491837 0 0 0
545 1 -1.2 29.988886227886958 3.086252993607202 27.816195037856552 0 -1 0
1531 1 -1.2 28.137318841550563 4.746791652332369 28.548018702446807 -1 0 0
492 1 -1.2 1.1686866502290292 8.228259896690112 27.84644954996796 0 0 -1
680 1 -1.2 3.021572058331982 5.756213390690273 30.28654956492577 0 0 0
875 1 -1.2 6.136276677961206 7.593799313462759 28.01219111465106 0 -1 0
1358 2 2.4 7.717008168574283 8.057843778567767 27.058440625302467 0 0 0
1068 1 -1.2 9.04238635533497 7.153242020772407 27.582794608460645 0 0 0
146 2 2.4 10.054883663642583 7.069155304467383 28.81802602356991 0 0 0
1922 2 2.4 11.939507710981042 6.973316205371217 26.935741003473883 0 0 0
1255 1 -1.2 11.72203332450486 7.059219278844764 28.528319456329445 0 0 0
525 1 -1.2 13.574771504908037 7.728040265023556 26.906281252067384 0 1 -1
856 2 2.4 15.256243317972691 7.534475968444935 27.013885710580574 0 0 0
1618 1 -1.2 16.026784171293432 6.511020307086242 28.18031137666515 0 1 0
1376 1 -1.2 17.786234530191084 5.506320165381424 26.53195696038535 0 0 0
1746 1 -1.2 20.664858187739643 8.401853238569656 28.384534126670566 -1 0 0
897 1 -1.2 22.485621696217265 6.21352575931723 28.17302402066632 -1 0 0
1720 2 2.4 22.27917144380421 7.6141995656500105 27.87596296351245 0 1 1
1918 1 -1.2 25.25447036765882 5.521982328837553 28.350175856815742 -1 0 0
480 1 -1.2 29.702935721579255 9.318352785398563 29.35758210068659 -1 0 -1
1059 2 2.4 0.783333070917378 8.553747107019309 29.26906558026726 1 0 0
1028 1 -1.2 5.1486154561843644 10.192625594170964 26.343893001064142 -1 0 0
959 1 -1.2 7.441377437835013 9.816849069081123 27.4757193378377 0 0 0
1348 2 2.4 6.404107870243835 11.039014120155766 26.83435083695229 0 0 0
1961 1 -1.2 10.227967214763675 11.199404983267064 27.827316748830395 0 1 0
501 1 -1.2 16.18360009277996 8.921267413371433 26.997562214868974 0 0 0
820 2 2.4 15.853026739956874 10.643623612395348 27.19684020246258 0 1 -1
390 1 -1.2 15.059887410352006 10.304504012171925 28.6257680178638 0 2 -1
753 1 -1.2 18.52418999491196 9.006068631563064 28.808158202602346 0 1 -1
294 1 -1.2 20.017349499690734 11.005384397319956 27.524895971502193 -1 1 -1
1395 2 2.4 19.907008355031564 9.700897168914116 28.559886747299824 0 0 0
1147 1 -1.2 23.0270161904447 8.228119422829238 26.642584377580224 0 0 0
1431 2 2.4 24.0010343845622 9.541677130087793 29.698331069069805 0 0 0
968 1 -1.2 23.841059799981117 10.696853236081209 28.429479745911348 0 0 0
377 1 -1.2 25.217970492570863 8.716568703858933 29.821579384397452 0 1 -1
1824 1 -1.2 27.32753513889186 9.874616945089308 29.035237777604664 -1 0 1
543 2 2.4 28.87182785769232 10.568846885147673 28.611291083224348 0 0 -1
1425 1 -1.2 3.101244071868706 11.86017868916717 27.08076011915923 1 0 0
1576 2 2.4 2.6925318120304653 13.11084662617209 28.05528801015487 1 0 0
1399 1 -1.2 1.1339003536560552 12.977622018731427 28.07929255722682 1 0 0
920 1 -1.2 4.123631455703913 13.574432511715273 28.64251981090124 1 -1 0
697 2 2.4 5.775455171996724 13.503515635974736 28.27993870178049 1 0 -1
1808 1 -1.2 7.000531733301002 11.996916408464632 25.811730674614004 0 0 1
1955 1 -1.2 6.037034859772971 11.957167518996387 28.24512693699746 0 0 0
2050 1 -1.2 5.544081018031428 13.979268698396853 26.723246559003638 1 0 0
1982 2 2.4 10.925247259366328 11.937322930946776 26.584249591686802 0 0 0
1723 1 -1.2 12.044909587988244 13.201325552108264 26.609973989649028 0 0 0
475 1 -1.2 17.19538971302911 11.474626697023108 27.13316882885504 0 0 -1
182 2 2.4 18.772516389828688 12.181092657059223 27.589871179049158 0 0 -1
1559 1 -1.2 18.5793531192508 13.246271627529147 28.911413254706876 -1 0 0
626 2 2.4 24.097215817305006 12.11466705082549 27.644505470908523 0 0 -1
848 1 -1.2 24.750988831637475 13.63888605052799 28.38226719503087 0 1 -1
645 1 -1.2 28.72706825817773 10.26607006728591 26.732632658856744 0 0 0
1527 2 2.4 2.1774196104433634 16.053952826229505 28.506062792701492 1 0 0
2035 1 -1.2 2.6861964143807664 14.868150144009231 27.374890792218846 1 0 0
178 1 -1.2 5.242979048396249 16.73474974933479 25.94647569902729 1 0 -1
1848 1 -1.2 8.263642360697594 15.602935692308268 27.27825813427084 1 0 0
181 2 2.4 8.295041359958727 14.506181867573199 28.770718537066546 1 0 -1
1465 2 2.4 12.03542188147319 14.791285571319843 27.250869504321827 0 0 -1
1032 1 -1.2 10.649663068029318 15.444517291368827 27.784785328472005 0 0 0
1045 2 2.4 10.495004492708677 16.419334431136882 28.985426247628062 1 0 0
2011 1 -1.2 13.304958089368201 14.739187472769247 28.439512616659176 0 0 0
165 1 -1.2 19.072918493403126 15.872115786378917 29.392655181854654 0 0 -1
862 1 -1.2 20.96399474719684 14.779977002388586 28.25447897911713 0 1 0
748 2 2.4 19.76150482298729 14.405055743899926 29.16470853905112 0 0 -1
484 2 2.4 21.865627190569505 14.507737953773702 26.752445283057966 0 0 -1
1831 1 -1.2 24.93086697332952 16.39213339453895 27.99602998203162 0 0 0
373 2 2.4 24.863466130517786 15.079951587367265 28.966958658789014 -1 0 -1
1397 1 -1.2 26.57880822435576 15.052850715631598 29.437212862423255 0 0 0
2052 1 -1.2 29.396196529025364 14.285841638623806 29.060042861710407 -1 0 0
921 1 -1.2 0.7829909722265563 16.306142560930535 28.046651083077883 1 0 0
1058 2 2.4 0.06672481389361708 17.72180181756363 27.434800933559227 1 0 0
821 1 -1.2 4.112561219775398 18.89932024955719 26.264261878865735 0 0 0
798 1 -1.2 6.656871642666562 18.88133659126183 26.943278532865737 0 0 -1
1595 1 -1.2 7.236967369206486 17.95502863733981 29.236661233769922 0 0 0
172 2 2.4 7.919009241749045 18.715946277335277 27.944673256270697 1 0 -1
1390 1 -1.2 9.003907164497651 17.918864480854584 26.791956543687153 0 0 0
872 1 -1.2 10.626072769131051 17.870764779103087 28.275764428936167 0 0 0
765 1 -1.2 13.250270188011939 18.646825282487484 27.799346521229715 0 0 -1
313 2 2.4 11.848305177890644 19.193041748792588 28.284880017268684 0 1 -1
2042 2 2.4 14.523314088565247 18.623097118925124 28.79125503740021 0 0 0
369 1 -1.2 15.884134532112979 18.61880876880162 27.730784067746615 -1 0 -1
1303 1 -1.2 18.8324868208497 17.485491258824723 27.171560998027786 0 0 0
25 2 2.4 19.080374046720927 17.585958791616683 28.6739216102475 0 0 -1
1008 1 -1.2 23.60453460633286 19.00744183579183 28.309488948520347 0 0 0
712 2 2.4 24.8036523897947 19.32329079136388 27.524069319031724 0 0 0
790 1 -1.2 24.845462706436308 18.264956573619045 26.310629028353542 0 0 0
1679 1 -1.2 29.481602196127405 18.51885127577467 28.55020589755542 -1 1 0
323 1 -1.2 1.488188706343647 19.0339925643282 27.185865209885208 0 0 -1
1935 2 2.4 2.796184070581016 19.77282230512998 26.837614479877566 1 0 1
1495 1 -1.2 3.7374315763943966 20.760148420079954 27.817261409490197 1 0 0
1609 2 2.4 4.189495089921603 20.99449073386616 29.277076118846647 1 0 0
17 1 -1.2 8.695526278285316 20.16796279260724 28.106719415933892 0 -1 0
593 1 -1.2 11.56505844310963 19.929226457885573 26.626930269859173 0 0 -1
636 1 -1.2 16.708363099395818 20.575196554040406 25.60389825703624 1 0 -1
573 1 -1.2 19.417857315417965 22.34635867716567 29.259185694475953 1 0 0
1776 1 -1.2 24.137184002879057 20.434000839308318 26.363516740212958 0 0 0
2004 1 -1.2 25.949233186131526 19.90031419123224 28.41710827625401 0 0 1
716 1 -1.2 27.626910411577633 21.981270573666816 29.6023398131582 0 1 -1
347 1 -1.2 8.00340397679145 22.49372169983328 25.855465385183244 1 0 -1
2153 1 -1.2 7.501548173950592 23.077961614320717 28.70592759485878 0 0 0
2150 2 2.4 8.09192456650381 23.42236809961492 27.33324616972194 1 0 -1
175 1 -1.2 9.807438303869151 23.599255899006195 27.386824775943975 0 -1 -1
650 2 2.4 11.009051658988398 24.074176671085997 26.324037439976365 0 -1 1
1211 1 -1.2 12.543511612330832 23.828515940207804 26.831620561815555 0 0 -1
279 2 2.4 16.44843056454817 22.065078070590157 26.120967877025556 0 0 -1
1108 2 2.4 14.068924319506326 24.144506843766713 27.60007664803991 0 0 0
656 1 -1.2 15.131009323488408 22.58773449113585 27.36692550048426 0 0 0
563 1 -1.2 17.65829159325164 22.138033499276386 27.07800761212354 1 0 -1
1827 2 2.4 18.346011003091153 22.90209970284018 28.380470375247558 0 0 0
113 1 -1.2 18.586054550448512 24.407829166567353 27.855010668618814 0 -1 -1
115 1 -1.2 23.438420532414888 22.801662425767688 26.431247068078896 0 0 -1
1672 2 2.4 22.777928501656227 23.42231028093535 27.964464553224097 0 0 0
1786 1 -1.2 22.197140261786846 22.092534493054135 28.589861767434503 0 -1 0
1634 2 2.4 28.042755415497417 23.490376131783922 28.7080320298517 -1 0 0
610 1 -1.2 28.46097450916674 23.168092618811087 27.13968173705663 0 0 0
276 1 -1.2 2.2508050467329883 25.146428576599998 27.115718139797032 0 0 -1
583 1 -1.2 0.256005453108478 27.121364221520675 26.42712943328363 0 -1 -1
78 1 -1.2 4.985175683656318 24.84945998966504 26.9008055851673 0 -1 -1
2137 2 2.4 3.9548365513744708 25.800321268786842 27.570339907509982 1 0 0
42 1 -1.2 3.9404452236418654 27.412720623860995 27.47598426890873 0 -1 -1
455 1 -1.2 7.321747965429726 24.91533966132046 26.72125108726006 0 -1 0
31 1 -1.2 10.793942318850084 25.624904249726235 26.06899364577491 0 -1 -1
905 1 -1.2 9.873980706797962 26.766955294586094 28.09261835039729 0 -1 0
1357 2 2.4 10.758113180737551 27.11486407987535 26.725436847315056 1 0 0
1509 1 -1.2 11.875477860751866 28.147693922926234 27.041035237243065 0 -1 0
1319 1 -1.2 14.902969981275499 25.13840751958338 26.85387828761574 0 -1 0
1192 2 2.4 15.38455338345255 26.62796070340352 26.825108179160715 0 -1 0
582 1 -1.2 16.302755293181953 26.887468058410406 28.005693642625662 -1 -1 0
1968 1 -1.2 16.711395187383253 26.29768838729376 25.440106254983643 0 0 0
1949 1 -1.2 20.14338787833537 25.779913963588406 26.40902837958487 -1 0 0
1708 2 2.4 19.900838976232397 25.16228781795262 27.990330198697226 0 0 0
177 1 -1.2 19.897005331518617 26.376131643499008 29.037456869328395 0 0 0
59 1 -1.2 21.423226581882577 24.44867177359347 27.74360088160496 0 -1 -1
249 1 -1.2 1.3095067881753646 29.281785714143847 27.25450956791567 1 -1 -1
1693 2 2.4 0.13979291787589362 28.283881338849763 27.664030970389202 0 -1 0
441 1 -1.2 8.074694638419464 28.65729828841132 26.650005875869663 0 -1 0
1591 1 -1.2 6.621630790514475 29.810554785423655 28.9319273792418 0 0 0
1688 1 -1.2 14.045764264482616 30.19766440940742 26.909954179591463 0 0 0
446 2 2.4 12.960429378528373 28.99487104886939 26.44609795970364 0 -1 0
2099 1 -1.2 16.42078187531138 29.752074198947795 28.343791896048472 -1 0 0
1195 1 -1.2 20.841256422900262 30.076859529299785 27.301813511168362 0 0 0
93 1 -1.2 24.882685343287026 29.607927672421564 27.134081630186913 -1 0 -1
1284 1 -1.2 29.03337666764818 29.10229531426707 27.546047827658896 0 0 0
505 2 2.4 27.89388698406853 29.77894404156816 28.909317311401168 0 -1 0
1500 1 -1.2 0.5229634463993227 0.5450151216223738 31.343723063283598 1 0 0
557 1 -1.2 3.4878959982947473 1.0321247721559321 30.592480252122908 0 0 -1
1742 2 2.4 3.308307362745 30.0353966058214 29.871656019070144 0 -1 0
440 1 -1.2 7.062576653800813 30.13775461869055 31.946859120682472 0 -1 0
997 2 2.4 18.753088848360942 1.423725089857711 31.32213508200298 0 0 -1
1704 1 -1.2 20.054527106673472 0.44096749599036417 30.08508373227791 0 1 0
726 1 -1.2 23.07954541535554 0.5325896839168272 29.38495149916617 -1 1 -1
46 1 -1.2 24.50259984452312 1.1459598420950994 31.367465703666987 0 0 -1
110 2 2.4 23.673737166573577 0.030507499458116757 30.81355659593525 0 0 -1
781 2 2.4 29.402346169559927 1.2817319435683974 31.08804351717388 0 0 -1
2159 1 -1.2 29.261045295562177 2.5942968132149633 30.197821335388223 0 1 0
822 1 -1.2 28.740877302921874 0.040843993266347085 30.147001890312662 0 1 -1
1802 2 2.4 2.8885722013583943 2.4686553276455503 30.664404728596015 0 0 0
1810 1 -1.2 5.160946430408228 4.35593349508176 30.08569443022057 0 0 0
464 1 -1.2 2.7457662095015 2.6334856619819424 32.30071435191554 0 0 0
1517 1 -1.2 9.667639168077459 3.195134910286203 29.35744244383566 -1 0 0
1287 2 2.4 10.953697966745544 4.034082050705469 28.770912780148286 1 1 -1
730 1 -1.2 12.244904597611823 4.350409746467906 29.634370867949677 -1 0 0
1132 2 2.4 12.693172095281364 5.209517626859693 30.87023085233703 1 1 1
1266 1 -1.2 17.765495895641802 1.8878903124370991 30.07863188180445 0 1 -1
889 2 2.4 16.975121533481992 2.130986497536961 28.61162856788512 0 0 0
629 1 -1.2 19.175739108611438 4.974027637519298 31.693072440603235 -1 0 -1
132 1 -1.2 23.291373618929676 4.273305263977158 29.850183111489216 0 0 -1
1504 2 2.4 22.99250865861805 4.880715715196992 31.328693193999868 0 0 0
1054 1 -1.2 0.312340087789016 4.49533177599634 29.928504970444312 1 1 0
244 2 2.4 29.464795881638985 4.019532505136101 29.07540428675012 -1 1 -1
1743 2 2.4 1.2162986750307416 5.840831520082096 30.37723287483528 0 1 0
1772 1 -1.2 0.63466681650129 7.3020280435078675 30.43479492517133 1 0 0
1078 1 -1.2 1.4196865670842826 5.045769546820365 31.97544979382963 1 0 -1
797 1 -1.2 5.412742758723982 6.442643311639009 30.73257582671296 -1 1 -1
1779 2 2.4 5.5818379007688455 7.607702815403194 29.68467681107837 0 0 0
1628 1 -1.2 6.890085644750264 8.707567141489154 30.188494500565827 0 -1 0
2023 1 -1.2 10.19625967205651 5.3739493111985865 28.9670104058119 0 1 1
1666 1 -1.2 9.638742354821868 8.601613790846866 29.585617298709206 0 1 0
1466 2 2.4 13.011480529138177 8.41863854407296 31.486114720063618 0 1 0
1889 1 -1.2 16.80963636499662 4.806036829737175 30.67866455934263 0 1 0
324 1 -1.2 18.499516825079954 5.051330394368345 28.86942159772268 0 1 0
1288 2 2.4 18.37279199420953 5.541337133897443 30.4197031774387 0 1 0
1992 1 -1.2 18.52022059496246 7.079635444969383 30.360906437279763 1 0 0
2040 1 -1.2 22.400531853642832 6.540332206966884 31.558743925912616 -1 1 0
2024 1 -1.2 27.120773381516 7.079718953911681 29.183256935529393 -1 1 0
87 2 2.4 26.91447442268782 5.591180472676682 28.965996475609657 -1 1 -1
1328 1 -1.2 26.61275967798956 4.904412786431632 30.475580187581016 -1 0 0
1872 1 -1.2 1.7759435994035342 9.631509248369964 30.179900584959437 0 0 0
1673 1 -1.2 4.179021147989072 8.680594436723643 29.63890277115685 1 1 0
1682 2 2.4 3.381000386973401 9.496390791990981 30.602141083839204 0 1 0
82 1 -1.2 3.5437970778638066 11.050369098897479 30.81860028787323 0 0 -1
1202 2 2.4 8.271748041465317 9.243802653118347 30.52561014306916 0 1 0
558 1 -1.2 8.616166240522924 10.920287083274426 30.260877782692 0 0 0
1565 1 -1.2 13.814822718698478 8.874730637085701 30.17173445327791 0 1 -1
2043 2 2.4 11.770116649613518 10.919515714322504 31.790201030485687 0 1 0
1379 1 -1.2 16.357764087892246 8.512212211811203 30.084852152198657 -1 -1 0
362 2 2.4 15.204862145562695 9.602771557178274 30.006600497368225 -1 1 -1
1985 1 -1.2 15.516637420480347 10.850093753430674 31.083629016520266 1 0 0
289 2 2.4 17.93208389389338 8.752868555471743 30.21252892476325 0 0 -1
1750 1 -1.2 18.424077532305983 9.37312822945633 31.5494366847893 -1 0 0
2148 1 -1.2 20.938338425018184 8.415498777685954 32.08002709242033 1 1 0
100 2 2.4 20.113860831604853 9.753897846900081 31.626880072712666 -1 0 -1
497 1 -1.2 20.495103200779 10.18963395475611 29.9935247907432 0 0 0
1916 1 -1.2 22.83962130030921 8.52888706724854 29.39585381507394 -1 0 0
192 1 -1.2 23.89898465349756 10.871022898540897 30.72207735765837 0 1 -1
1588 2 2.4 23.763187818993224 10.696552740226261 32.163461873609656 -1 0 0
964 2 2.4 26.864497435532066 8.645219294586814 29.926130479757305 0 0 0
1232 1 -1.2 27.46281997363809 9.166189021417212 31.408367936414834 0 1 0
1259 1 -1.2 3.491511288167537 13.548543060075211 31.58785255246055 1 0 0
1280 1 -1.2 6.821908194479457 14.070142391536717 29.22797019634912 1 0 -1
1138 1 -1.2 9.607202692762034 13.6119897099781 29.19084346264332 0 0 -1
1177 2 2.4 9.887417649675035 11.880356523720453 29.36496424070106 0 1 0
936 1 -1.2 11.017147461576648 11.540631378291346 30.36664536987272 1 0 0
333 1 -1.2 13.182515519057164 11.741033508739815 31.901824935753446 0 1 -1
44 1 -1.2 20.63215378377233 10.924695364493912 32.632866221157215 -1 0 -1
1557 1 -1.2 1.1686719381631807 13.207654948658803 30.388818448974693 1 0 0
983 1 -1.2 29.53990010947525 11.68817639491605 29.29041546309009 -1 -1 0
1298 2 2.4 -0.01810486876131824 13.064133595136687 29.17096835770845 1 0 0
1137 1 -1.2 1.79900858875155 15.461083703684865 30.05335447580859 1 0 0
1117 2 2.4 2.6698359709778834 14.924522193265865 31.382724197303908 0 0 0
809 1 -1.2 3.254183904209043 16.471186884695257 31.84212924105595 0 0 0
1367 1 -1.2 7.482403541997344 16.841951953015926 31.5983185537057 1 -1 0
1812 1 -1.2 8.930739146196759 15.862962738133222 29.480762358811052 0 -1 0
1476 1 -1.2 11.71364499833386 16.25068469863576 30.037022818624035 0 0 0
1909 2 2.4 13.24956633549171 15.798152046996625 30.08195400627511 0 0 0
694 1 -1.2 13.720993870200697 15.251864930083476 31.605038902794284 0 0 0
540 1 -1.2 20.199952387192244 13.923310584127643 30.68489381651823 0 0 -1
772 2 2.4 20.52366977011577 14.857587165075508 32.00518968049227 0 1 0
199 1 -1.2 21.8992948114691 15.62965976089767 32.01068951626649 0 0 -1
1643 1 -1.2 23.780100630627935 15.041516004817268 30.20881207974752 0 0 0
1586 2 2.4 23.108952134331794 16.147052936778312 31.121712158658955 0 0 0
420 1 -1.2 27.9785045712485 14.299033975560583 31.406693922463376 0 1 -1
1454 2 2.4 28.16683289369331 15.168499210595712 30.04048285805753 -1 0 0
1496 1 -1.2 2.6425416578035414 18.84887752718761 31.216579599665412 1 -1 0
1946 2 2.4 1.1463136341879474 18.844518467000757 31.87555152591184 1 0 0
1435 1 -1.2 2.798451646191005 17.201023689612864 29.3605180451886 1 0 0
97 2 2.4 3.581071024456054 17.622294749981183 30.79240449811286 1 0 -1
534 1 -1.2 5.166770870691506 17.464023884146574 30.738983252703164 0 0 -1
1741 2 2.4 6.703679447546767 17.94922633986154 30.75865812802205 0 -1 0
204 1 -1.2 7.233068689717671 19.279385176280318 31.72491461450518 0 0 -1
742 1 -1.2 13.992678717550078 17.34972867111813 29.694002167874093 0 0 -1
456 1 -1.2 14.219965647040276 19.63770979340469 30.00359276901377 0 -1 -1
1652 1 -1.2 18.401851699681696 18.677821249787993 29.563703474769778 1 1 0
832 2 2.4 17.6741422247112 19.461221464133406 31.04886155488104 0 0 0
1116 1 -1.2 16.84611927814243 18.290806523795858 31.702737592225887 1 0 0
1891 1 -1.2 21.00804521833496 17.490504364105856 28.471583321451803 0 0 0
1419 2 2.4 22.211623628749383 18.467899791130403 29.13834451863704 0 0 -1
1075 1 -1.2 22.704327169237175 17.636111370608347 30.48632366964916 0 -1 -1
406 1 -1.2 28.390926498288064 16.700851580449186 29.992596905147646 0 0 0
1021 2 2.4 28.835264167400304 18.20010687007785 30.106877175866057 -1 0 0
258 1 -1.2 30.20862824013761 18.193728012951215 30.9294519700436 0 0 -1
861 1 -1.2 2.888961750342818 21.283509285087305 30.150301014478618 1 0 -1
1661 1 -1.2 5.543192609978967 20.07129984921456 29.801117330038814 1 0 -1
974 2 2.4 6.347496726568475 20.462652455671865 31.200901750938147 0 0 0
1510 1 -1.2 7.5891799331478484 21.867396292071156 30.581503005783567 1 0 0
2056 2 2.4 8.499040399830609 21.59803213012852 29.05731486794036 0 0 0
1906 1 -1.2 9.640119819587508 21.83447105138638 30.10366465735668 0 0 0
1584 1 -1.2 11.450121300173308 20.46817504249775 29.071428828656757 1 0 0
793 2 2.4 11.267146047447845 21.47623333644412 30.149896348825006 0 0 -1
1237 2 2.4 15.144191807877618 20.774055913791656 30.868459427810706 0 -1 -1
1674 1 -1.2 15.5417724077391 22.372584223823747 31.23464455473057 -1 0 0
345 1 -1.2 16.66736123806595 20.411602853063783 30.172863206134895 0 0 -1
1122 1 -1.2 18.003563088452704 22.523809809685602 31.963738406875073 0 0 0
1359 2 2.4 21.022604805221583 21.41837707751748 29.479548098560414 0 -1 0
269 1 -1.2 21.23150809434795 19.80288761651774 29.41567016097123 0 0 -1
48 1 -1.2 27.79042838648183 19.328817785895417 30.40296438724795 0 -1 -1
1174 1 -1.2 25.89766861601951 21.062235892100144 30.939328688627054 -1 0 0
685 2 2.4 26.878903279997665 20.620034100904164 29.69887457015115 0 0 -1
854 2 2.4 2.3887318939140343 22.595618529190677 31.11761414983216 1 0 0
250 1 -1.2 0.738292282012441 22.593162691129166 31.047207804184158 1 0 -1
311 1 -1.2 4.976524052078385 22.610432412779183 29.31120601344373 0 0 -1
356 1 -1.2 3.035105422042026 23.874471958657313 30.43537213879403 1 0 0
351 2 2.4 4.412626467456998 24.097810387166465 29.766358581167015 1 1 -1
1402 1 -1.2 5.778642416457179 24.71841884482748 31.097100891500236 1 0 0
317 1 -1.2 11.310118735803549 25.153055628953513 29.35256839453428 1 0 0
994 1 -1.2 12.087502179757834 22.653167280154193 29.481302355378148 0 0 0
422 2 2.4 12.262863261119278 24.14068831153916 30.084874406079656 1 0 -1
2107 1 -1.2 13.622561099269591 24.76854561053519 28.995089868836235 0 0 0
358 1 -1.2 12.771182565704024 24.20513403336993 31.53050453369764 1 0 -1
1170 1 -1.2 16.780379664298795 24.951470465175912 31.33675169171756 1 0 -1
813 1 -1.2 16.849436967337027 22.979825477882482 29.31351363871545 0 0 0
1549 2 2.4 16.69391989852635 23.32287098862829 31.008489833495144 0 -1 0
570 1 -1.2 20.812987468499113 21.88484633267551 31.022440327115834 1 -1 -1
923 1 -1.2 24.088067965096933 24.071229844165536 28.672662949762344 0 0 -1
719 1 -1.2 26.63974142231876 24.19669479670316 29.088770075053084 0 -1 -1
397 2 2.4 30.019755504546236 23.842457257667796 31.19424628676331 0 0 -1
1568 1 -1.2 29.328852813011352 23.83683422395775 29.57687494466041 -1 0 0
1862 2 2.4 -0.08323786297524499 27.0184834019925 30.75074805504435 1 -1 0
1136 1 -1.2 3.913752686017858 25.7283119076383 29.160661473083028 0 0 0
1204 2 2.4 8.134362968929564 27.17205193964908 31.780394811769007 1 0 0
1744 2 2.4 10.452991957895216 26.60365438521733 29.74082193250909 0 -1 0
1631 1 -1.2 9.497921753906228 26.478206447901556 31.037153842475163 0 0 0
689 1 -1.2 11.578835243490895 27.61592822757362 30.412417408509558 1 0 -1
2049 1 -1.2 18.150314903524468 27.274322743910428 31.302329243033988 -1 0 0
339 2 2.4 19.163292135892554 27.62387867507862 30.11993200930733 0 0 -1
1574 2 2.4 25.159407701373123 24.866635559574316 29.653555666453244 0 0 0
900 1 -1.2 25.42889973109702 24.515805977898268 31.215018991949712 0 -1 -1
1579 1 -1.2 24.94358461659277 26.56633029090989 29.53972285866329 0 0 0
427 1 -1.2 0.05303618883952695 27.52879047531618 29.316149408555123 1 0 -1
1950 1 -1.2 0.3630465143530506 25.442727681871094 31.13968363385954 0 0 0
1251 2 2.4 1.3612205970709612 29.45927743229376 31.77415781532281 0 0 0
227 1 -1.2 0.4514649633842732 28.14114808684685 31.741240808190074 1 -1 -1
1725 1 -1.2 2.060756267704152 29.16084889289958 30.432087393297454 2 0 -1
128 1 -1.2 4.758616375252823 29.459955295007365 30.423211007580054 1 -1 -1
1767 2 2.4 6.4054915301791695 29.453840045422666 30.623143555846287 -1 -1 0
1871 1 -1.2 7.195209392663452 27.883181148529893 30.67483849243979 1 -1 1
526 1 -1.2 12.899947046580573 29.03430186956001 31.682681984893026 0 -1 -1
2071 1 -1.2 14.392740890185227 -0.07638449741133928 30.08990847348211 0 1 0
404 1 -1.2 15.173413596708603 27.981421041500337 30.412477416086865 0 0 -1
85 2 2.4 14.40633666408717 29.19803532712326 31.15405139134674 0 0 -1
2053 2 2.4 16.38446775593949 28.17789480807932 29.14701915256496 0 0 0
957 1 -1.2 17.942967579103822 28.455426461260757 29.440946699914132 -1 -1 -1
1991 1 -1.2 20.47958615589362 28.290857003793427 30.90173601236122 0 0 0
412 2 2.4 20.818554707031065 29.822143909755695 31.29623826227853 0 0 -1
442 1 -1.2 22.515040759859705 29.834898965378688 31.6566255128812 -1 -1 -1
36 1 -1.2 24.63574337663216 29.083719125880588 30.81447297011542 -1 -1 -1
95 1 -1.2 27.018547215354108 28.564082230800793 29.64374377108739 -1 -1 -1
26 2 2.4 25.777525146669014 27.865333677060114 30.384217130218286 0 0 -1
705 1 -1.2 26.127918968534228 27.345832668709882 31.91771352447445 0 0 0
1267 1 -1.2 28.759649541553852 27.10701600038784 31.28521376320151 0 0 0
1605 1 -1.2 5.440119018709483 0.5547469358236227 33.91200089201909 0 1 0
796 2 2.4 6.99112223905559 0.3963491624085177 33.41900230208774 0 1 -1
1770 1 -1.2 7.536215133983229 1.9584606662945487 33.11228039241943 0 -1 0
1667 1 -1.2 15.914501669072452 1.7475548655059985 34.65856964896129 0 1 -1
1898 2 2.4 16.29485853204922 -0.04578069978560606 33.5302712319485 0 0 0
307 1 -1.2 17.111553410108822 0.8006986713384444 32.31211974296158 0 1 -1
1543 1 -1.2 19.635587208107275 2.7613051920476894 31.722355705405388 0 0 0
1344 1 -1.2 24.15215463205801 2.401420616999373 33.916729666664075 -1 0 0
1539 2 2.4 25.26246375591865 1.651628963123558 32.84372121924204 -1 0 0
468 1 -1.2 26.11755623009251 0.6392618258290018 33.54572149973128 0 0 -1
2041 2 2.4 27.749973532000837 0.0809913660513672 33.72480832488491 0 1 0
683 1 -1.2 28.521669529663683 1.1651180294731562 32.605132698802 0 0 -1
1200 1 -1.2 2.2280001906688462 4.753747596555588 34.43547905346462 0 0 -1
819 2 2.4 2.565767134582799 4.2924396305247905 32.87727611282161 0 0 0
744 1 -1.2 7.064282462297858 4.258228452097126 31.703403641184618 0 0 -1
1034 2 2.4 7.861781001529137 3.5020678272309307 32.855946345319595 1 1 0
2124 1 -1.2 9.400029071082233 3.9443151885817946 32.55425930653907 0 1 0
1552 2 2.4 10.443850565654282 5.17435204037975 33.16631936062457 0 1 0
513 1 -1.2 11.893517075518497 5.021040400102548 32.365547968966254 0 1 -1
692 1 -1.2 14.372722787460903 5.117349948553206 30.739467787917487 0 0 0
977 1 -1.2 15.319459943039709 3.36045690874012 32.59196474615817 0 0 0
661 2 2.4 15.85247618458738 3.2345244161703977 34.36427223508284 0 1 -1
739 1 -1.2 21.87957858718491 3.8217120152240436 31.885493767979927 0 1 -1
987 2 2.4 20.36006307281538 3.9764279079997396 32.43472632346667 0 0 0
1235 1 -1.2 19.993840163668946 4.109273943907165 34.30479199203515 -1 1 0
1125 1 -1.2 24.455705639497637 4.781048279399711 31.733378974803873 0 1 -1
603 2 2.4 26.251154021553898 4.701683618703025 31.92756224509873 0 1 -1
1123 1 -1.2 26.168819730640063 3.102373811739674 31.981786600209013 0 0 -1
58 1 -1.2 27.07760140599131 5.625973021217389 33.11011391973503 0 0 0
2025 1 -1.2 29.679541181652542 5.931550528081919 34.271561843157016 -1 0 0
625 2 2.4 0.9658122593021767 6.258900387679909 34.406464099319926 1 0 0
1615 1 -1.2 1.155803500921818 7.447936815214096 33.27264017577922 1 0 1
1512 1 -1.2 3.390433793132096 7.97496191535501 -0.13331955813314522 1 0 0
1833 1 -1.2 4.1705078740333565 4.756920826098204 32.72983746545751 1 1 0
1047 2 2.4 5.626543313718204 5.2809569198596105 31.759099281436143 0 0 0
1225 2 2.4 7.405666020023929 5.899635969821051 34.26254014891298 -1 1 0
1469 1 -1.2 6.428633509308498 6.270422666513839 33.02130680641046 1 1 0
394 1 -1.2 8.338669384633361 7.049854925069319 34.70821115815951 1 1 -1
191 1 -1.2 9.757459253782878 6.71624841459939 32.53913415078617 0 0 -1
2139 2 2.4 9.159674331399593 7.972422623216082 33.5208642118401 0 1 0
847 1 -1.2 12.429116287598418 6.961208756934275 31.04454040333328 1 1 0
831 2 2.4 15.729948462669789 4.693135519852605 31.626817210719775 0 1 -1
1330 1 -1.2 15.708748341709953 5.879465785818357 32.76557761655508 0 0 -1
553 2 2.4 15.264046279671346 7.316320545382977 33.50797383268734 1 1 -1
40 2 2.4 22.414174736959442 7.766561753059227 32.42164049167692 0 -1 -1
1260 1 -1.2 22.242892922492253 7.146893197602777 34.15010036422527 0 0 -1
1057 2 2.4 28.039908076414264 5.935564179826547 34.518371956999935 -1 1 0
495 2 2.4 2.3127453972467746 8.530232059046403 33.69455748349542 1 0 -1
1062 1 -1.2 1.76094369370661 9.842376530276237 34.24624898347482 1 0 0
1157 1 -1.2 3.2637141849531095 8.789356076906133 32.32336595168327 0 0 -1
225 1 -1.2 10.154687638455401 8.604344814689139 34.5098450676487 0 0 -1
114 1 -1.2 8.363898246640618 8.880699643426198 32.229042922815644 0 -1 0
1795 1 -1.2 11.748729823938776 9.316493644552677 31.922263885966537 0 0 0
80 1 -1.2 14.250163051100168 8.41645826529126 32.696831637169176 0 0 0
487 1 -1.2 16.60976216752833 8.311449374321496 33.65417899534195 0 0 -1
430 1 -1.2 23.280087683404847 9.071300414867459 32.32520311148999 0 0 -1
1297 2 2.4 27.07749624875617 10.168740152611955 32.675414385949196 -1 -1 0
463 1 -1.2 25.425731571764555 10.176219883310388 32.60591282674414 -1 0 0
681 1 -1.2 27.79450528042965 9.969059013348176 34.12694730432848 0 0 0
624 1 -1.2 1.2162654385421574 12.184674120776299 33.17471739837389 1 0 -1
1551 2 2.4 2.2028367732921654 11.416906228161613 34.28628872632418 0 0 0
1011 2 2.4 4.047969981980675 12.15742206228329 32.100505551962875 0 0 0
1018 1 -1.2 3.770700822052297 11.985100574158093 33.68060968791631 1 0 0
1091 1 -1.2 5.668679820618485 12.555351466708757 32.17282739846763 -1 1 0
839 1 -1.2 6.647607760780284 12.623752720678093 34.92780499573917 0 1 0
1936 2 2.4 6.737121414470162 12.946358333927709 33.34102008170646 1 0 0
336 1 -1.2 8.011361160087686 11.815800330045114 33.18372503280672 1 0 0
515 1 -1.2 9.501422805139798 11.188720582312254 -0.02420095533041369 0 -1 -1
1706 2 2.4 9.339424507724946 12.209175128974902 33.872316705555264 1 0 0
1843 1 -1.2 10.669756978621024 11.287190385373721 33.00409267334311 0 1 0
1901 1 -1.2 15.431682368688488 13.17036985942035 32.15405469856908 0 0 0
1377 1 -1.2 15.061439152271891 10.801793554534697 33.78974652154208 -1 0 0
206 2 2.4 14.789600590324664 11.735858176877018 32.17889913573818 1 0 -1
286 1 -1.2 16.922466622349603 12.144277045475446 34.99957162357672 0 0 -1
1081 2 2.4 21.54675902991663 11.879491333842081 33.56874398642081 -1 -1 0
383 1 -1.2 23.227189976405253 11.553401424426916 33.36979539183695 -1 1 -2
1087 1 -1.2 21.49771778424336 11.52421785548094 0.089311214974021 -1 0 0
1405 2 2.4 26.441642753464567 13.549297790637931 -0.03299365613775748 -1 0 1
1154 2 2.4 28.006465093734835 13.309471853928361 32.749548243668734 -1 0 -1
18 1 -1.2 27.617469521405177 11.832010611359472 32.376681600084204 0 0 0
1264 2 2.4 0.7637369555074834 13.496795676452788 32.336520820204356 0 1 0
701 1 -1.2 2.4686352162942 15.85111860743763 0.10914558591359853 0 0 0
215 1 -1.2 1.538694010374806 14.862363111170962 32.7796066939703 0 0 -1
12 1 -1.2 7.2167721789534856 14.516803388000724 33.16852865067164 0 0 -1
2031 2 2.4 7.491572134542008 16.204448421825685 33.143685255308085 0 0 0
622 1 -1.2 9.904796248310006 13.713505650637149 34.17821089856502 0 0 -1
1573 2 2.4 9.750840747221684 15.27462093386554 34.75063677714331 1 0 0
799 1 -1.2 9.258735038916518 16.195953341074205 33.59270070851209 -1 1 -1
1815 2 2.4 12.86040956884744 14.879403274118237 0.048962011680595795 0 0 1
787 1 -1.2 11.409626590194119 15.44076763407313 34.76529257473912 1 0 -1
1050 1 -1.2 13.957054269123168 14.315289665032221 34.22076459892341 0 0 -1
842 2 2.4 14.654805542551498 14.627302098497028 32.8203879074785 0 0 -1
1578 1 -1.2 18.030455278222 14.572658870374697 -0.033127134548595435 1 0 1
393 1 -1.2 15.801581302473796 15.920444507389522 32.98305948184778 0 1 -1
1023 2 2.4 18.644072241972086 15.842961784800368 34.43958155893756 0 0 -1
881 1 -1.2 21.12294952474871 13.555029762723295 33.3573503945735 0 0 -1
1380 1 -1.2 18.995244831733412 14.89949625873247 32.9849217123674 -1 0 0
1965 1 -1.2 22.53818401348514 16.039812689286034 -0.13629380503867874 0 0 2
749 1 -1.2 24.083716289216518 16.002139251296615 32.54879910677113 0 0 -1
666 1 -1.2 26.8528037562459 13.923414056534785 33.60487534396996 0 0 -1
2143 1 -1.2 29.673619010521616 13.368002847168977 32.775291190766296 0 1 0
37 2 2.4 1.177068615204194 16.114794929606873 34.23649820565948 0 -1 -1
1160 1 -1.2 0.8251196698010335 17.631111164765006 33.62925861408055 0 0 0
2007 2 2.4 0.054235862530854544 19.262781066217734 34.29159493441156 1 0 0
137 1 -1.2 6.377847107973129 16.964287142495557 34.308492824057225 1 0 0
1436 1 -1.2 14.945448103736489 18.208842731762346 33.82286424639958 0 0 0
2081 1 -1.2 17.711584346150257 17.09682493028311 34.054509688240934 0 0 0
1945 2 2.4 16.289796846485196 17.474284941105118 33.131750540626754 0 0 0
1069 2 2.4 23.397735665027415 16.9972556613436 34.031286666853624 0 0 0
779 1 -1.2 22.82056989206438 18.583379734265627 34.098431008678496 0 0 -1
1484 1 -1.2 30.155085704294606 15.397633109381422 34.603019175456296 0 0 0
1902 1 -1.2 0.4717989774555952 19.923723905039726 32.82274751816226 0 0 -1
239 1 -1.2 3.114503496022273 20.236406304116365 34.210771484995895 0 0 -1
230 2 2.4 4.222285297314076 21.335204727378805 33.476127892320825 0 0 -1
1016 1 -1.2 4.662171336820884 22.13730720664932 34.84467553632103 0 -1 0
755 1 -1.2 5.30139652370983 20.816176184931457 32.34765598904565 0 0 -1
547 1 -1.2 7.053540933145989 22.14769600469373 0.015013510096880095 0 -1 1
211 1 -1.2 11.984106972263563 20.662102836512474 31.431703445692666 1 -1 -1
634 1 -1.2 11.833495908808338 19.771069341120374 34.02130432080266 1 0 -1
1382 2 2.4 12.933309023466235 20.47646479296191 32.65414188410849 0 0 0
1424 1 -1.2 14.605703236114655 20.615729936587282 32.33928682614442 0 -1 0
1797 1 -1.2 18.85687636677621 20.195947421377973 31.778580103729368 0 -1 0
1394 2 2.4 20.952651880966382 22.121164801497574 34.7782960841435 0 0 0
411 2 2.4 19.4511879493416 21.706512498699542 32.08533423418375 0 0 -1
1845 1 -1.2 20.301648690357474 22.497422570944767 33.289820916454566 0 0 0
346 1 -1.2 21.707936845135585 20.961389485441412 33.95727844152417 0 1 -1
711 2 2.4 23.137722278557213 20.113159899841474 34.13945481163633 0 0 -1
221 1 -1.2 24.44520004377574 20.01435463864995 33.11848908971147 -1 0 -1
1252 2 2.4 25.552335208188868 21.00344685630866 32.601339987603815 0 0 -1
1439 1 -1.2 26.88384003711021 20.612127132538497 33.4362651335455 -1 -1 0
1085 1 -1.2 28.717385975880465 18.96957449908398 34.20451850789753 -1 0 0
1993 2 2.4 27.96245019098503 20.354012957685256 34.614754033784244 0 0 0
117 1 -1.2 28.812217767134268 21.78613103552491 34.117076971486505 0 -1 -1
1892 1 -1.2 2.1986264022918944 22.469250184293923 0.6176706570545347 0 -1 1
212 1 -1.2 0.26240654808357733 23.961911474191066 34.170537897403484 2 0 -1
766 1 -1.2 2.9440469723261686 21.950114213580683 32.66595741740408 0 0 0
1020 1 -1.2 6.0010932951560605 23.883114020550057 33.44299946495279 1 -1 0
2149 2 2.4 7.086398703979404 23.657877187756064 34.81573414887665 0 0 0
1387 1 -1.2 8.826583441823912 23.453969968603303 34.015273375377596 0 -1 0
1890 1 -1.2 12.833549623577804 22.103902397481395 33.44091056804203 0 0 0
125 1 -1.2 11.2280980074984 24.309229575206896 33.69395617289575 1 0 -1
2078 2 2.4 12.565600385246707 23.670695968977775 33.10270432171276 1 0 0
1654 1 -1.2 14.05691797870744 24.61549001815046 33.73588506893255 0 0 -1
1975 1 -1.2 18.82143510708233 25.72670275635744 33.35728190366828 0 0 0
504 1 -1.2 23.39282374290926 24.364969377006695 33.73719777047676 0 -1 -1
1817 1 -1.2 24.948610978284847 22.40646273599832 33.11055156609925 -1 0 0
1585 2 2.4 24.71023278376845 24.136047682458045 32.7625150218394 -1 0 0
43 1 -1.2 28.32258058506411 24.22490533476939 0.0014220338358877822 0 0 0
1447 1 -1.2 28.87706521581905 23.83574828125388 32.308187642278476 0 0 0
220 2 2.4 28.991929297287186 23.255410605668786 33.934476274370724 -1 0 -1
265 2 2.4 4.1172399358200495 26.4610125968221 34.734747333140426 1 -1 -1
1194 1 -1.2 5.371324499533303 26.576034994532034 33.55031113797845 1 0 -1
391 1 -1.2 2.839441944676964 27.365232167600624 34.26521145802291 0 0 -1
958 1 -1.2 7.513740395945072 25.796772612101215 32.437183367300776 0 -1 0
1621 2 2.4 6.031379644360926 25.414795085921657 32.52676849066433 0 0 0
2029 2 2.4 12.317372925079953 27.477703803280875 32.07081764747959 0 0 0
35 1 -1.2 11.56295725307973 26.793725115692283 33.13503063389976 0 -1 -1
826 1 -1.2 13.766045375735965 26.645670595921235 31.917643879268166 1 1 -1
782 2 2.4 14.597983174706949 26.068831908741444 33.19082980554763 0 0 -1
149 1 -1.2 18.08014785267196 27.160249945468692 0.5828739813763958 0 -1 0
919 1 -1.2 16.3126628180198 26.493923761987894 33.118741253467256 0 0 -1
1275 2 2.4 17.620988255486445 26.109959878119877 32.202091568278945 0 0 0
326 2 2.4 18.60914663196713 25.900047459246874 35.05279134659591 0 0 -1
366 1 -1.2 25.851861932387063 24.821697392717006 33.89773382245571 -1 0 -1
652 2 2.4 27.07902543517568 25.25840366206751 34.862731707914094 0 -1 -1
1644 1 -1.2 27.697638681120985 26.420983802103997 33.63244799946932 0 0 0
1231 1 -1.2 1.5294094420854059 29.29178788370374 33.588385379462146 0 0 -1
1072 2 2.4 2.331356821265001 28.975479673570366 34.92756392004124 1 -1 0
1855 1 -1.2 7.203901934669333 28.050425245068364 34.70113613005278 1 0 0
1086 1 -1.2 8.757618770242571 28.286490035750596 32.749050055544615 0 0 -1
1914 1 -1.2 8.225479209477331 30.265209105979775 34.746450819745746 0 0 0
2077 2 2.4 8.661123713568424 28.746397746763137 34.40766432584727 1 0 0
1937 1 -1.2 15.116128917638992 29.554644573526552 32.59465988776685 0 -1 0
562 1 -1.2 16.874263024573214 29.497529904696265 34.67548322244191 0 -1 0
92 1 -1.2 19.779828758633524 0.17759038902834634 32.43195944311788 -1 0 -1
2085 1 -1.2 21.84926296772762 29.447535499339093 34.6708372422815 0 0 0
1870 1 -1.2 24.114164960524704 27.811568645569757 33.322397161052535 0 -1 0
2127 2 2.4 23.571101573756646 29.0026203658763 34.08592683888749 0 0 0
783 2 2.4 27.77161192637813 27.587473887609725 32.51780347836877 0 0 -1
426 1 -1.2 28.13805938503516 29.05755249352639 32.90930792218901 0 0 -1

Velocities

684 -13.461589963234827 7.249886888152214 -15.87309184642961
2018 6.152123329370872 10.118946616058997 8.19305352859029
1864 -6.1857190456548405 -1.4810963577443963 -1.2481659518974773
658 11.621211427872748 -9.632139569198563 -14.139184964217852
1921 19.63560845922757 13.652148523142879 16.15723419389776
262 15.306328732120937 3.590840067058046 5.460732241825439
1002 -6.982933300175072 -2.8365230649010442 -2.3296090825899807
275 -15.484405417729432 -9.717649798839163 2.9530897206281623
1140 -1.4634826783172965 2.9599187714115307 6.28261903397066
1657 -4.936268602289056 -6.32862172019955 -6.284216054668614
741 0.5981947755453724 -5.018530688858894 11.83378421827213
528 -7.941998419469316 -8.81510818144907 20.04671336653147
410 -10.45061042179165 0.13151336963173926 0.6824309878541199
678 0.7388287148283861 -0.681062028374511 8.52277399470935
485 1.1718519413888489 4.90475199646338 15.550382042474029
1098 -9.648604240244534 13.457435305637437 7.086655492018887
240 3.891617867143274 -10.578246811201733 -0.968212721103583
1304 22.5684270211542 -3.783175535213362 -0.43187668792953404
425 -26.51207498840402 -21.636091726929646 11.336645970650238
1828 2.5336705442289684 5.336930041010781 -8.84172749975038
1677 0.09296670292227271 -4.010299024753064 -9.26608176257712
380 -10.381298811412718 -8.753023597162008 7.708956100087827
1972 3.3766131907688344 -21.42519389934709 4.091005879878006
10 -7.582505586247498 -12.187692711157412 3.4734856352229433
1606 -8.454324007392009 -10.651397883631235 -9.316702028444194
1317 -28.515538694848352 -6.0481374554659375 -0.7549291488413187
1561 4.277057210578744 -9.706808373751421 -7.750320354363421
34 11.572870549011657 0.27841242647907627 10.731810324842682
1384 9.068367206110752 -0.3618109657426672 -1.779668361146415
1879 -5.879962352699849 -1.8830434937161125 6.612730632565487
1134 4.00692282344689 0.061647331726562046 2.2140055657746864
66 14.720073803404585 0.4027289192973827 -22.68348773490872
1593 0.05610720609501797 -9.98318466355064 11.834465691642563
1671 1.0043565835937658 9.169766184984779 7.107196407816576
134 8.511909134909379 -5.773293548715598 4.655311972879184
129 -9.148550264296187 9.248141022159702 -19.246494769765633
1281 3.7982486409987732 -12.189004787441938 14.91384556481401
2074 5.65989912308162 2.3107100258916593 -8.8860529026317
996 7.4630142509509865 11.615126557101027 11.7812380341966
963 -4.828552393270839 -5.435158556686582 -11.889563828515623
2028 9.77443625483978 23.65001482867917 -1.6460029849288755
145 3.9275945271136656 1.199565616593173 -3.0994160297054294
1984 -4.037777631319039 -9.909239514925522 -0.17131669054652054
1270 15.461244785655655 3.082147977151734 16.516392008421448
2093 -1.1007985831682625 -4.708666900218995 6.005988260006901
280 18.785790240557077 2.4762425422736256 4.2836323871560404
140 18.51426171832395 -0.09304040626172057 -13.130257649380399
163 6.416033139335472 -8.983028054053682 -30.007193853733085
1438 6.720022160015659 1.0058910437133695 18.605195330914423
432 -4.163894038758667 13.828920367361876 -9.028357334820084
615 -1.8744981363913076 -20.461380882317695 5.710070737553539
1120 14.367642061065629 3.0191211088969 -19.617555614145665
260 6.248759791017296 -8.885795035195727 -18.34272214450025
470 9.043323553535638 -14.771306380221189 2.505735991660945
161 -5.533115293257206 8.24910694188917 4.902700359539794
444 -6.058489301799103 -22.37202349416132 0.13171621155208513
180 -2.8872422843804153 -16.243362022971997 24.213009107274534
1558 -31.961286430739943 33.95422905948737 1.8648767080811481
98 15.730679168817867 5.202374146716202 -2.0630251003834053
384 5.899427232427125 3.298896964753019 -8.455548811374227
120 -10.869527198471197 7.268776484513177 -5.23531664253001
1660 7.510863400562384 -4.29732411481438 -2.3604059643251167
516 -0.01951893806713913 18.96286478262993 3.615371563958423
1165 3.1156400241490236 -8.411552116044172 5.397314602608583
1015 -9.318620635617926 7.134004053438898 -7.731456984547032
879 8.673443534508099 6.321407556518529 -11.166526717486441
1752 1.6938208672037791 -3.02525848728894 -18.563562723922853
1944 -15.72152732151075 3.4399136079557815 -0.14133305434698085
254 5.353214265642297 1.3490537746401665 9.711393913984734
284 -4.448026094737842 2.6738984016549567 -13.86942978316914
1010 -9.060578796352173 -1.1149264598643258 3.9842130574852495
702 6.314290425628457 13.471537585035959 -8.891195832003728
1129 -16.941368132506152 -20.687010923132707 -6.24826013883255
1577 -5.290047556512137 -2.307419787448025 -6.767906697941052
1220 -7.143825008798969 1.0938977507399008 2.0517411333065443
1456 6.191412121888709 -18.69534888513882 -5.680664739100439
598 -0.7880980483565269 8.821981886092473 -5.181254769789764
243 -8.926612782629979 5.839152652681508 -10.544782784490591
1234 -5.140800241408405 -6.458544349796207 6.486841782457778
1169 8.199637718056811 0.009365362960255749 17.81934039430924
618 -1.6160173929466435 20.894706986818367 -13.29161638873536
2101 -6.268620615177699 -14.217437655302845 11.633426557641608
1928 -3.1201778167173595 7.385941108375721 3.0637312242929395
1896 -19.04351677388937 2.249028169851402 7.384435107217833
302 -10.191824196351911 -4.404275011140395 -1.833161187556193
574 -7.097593956669305 10.075146480475116 21.42891852004612
1702 22.12228157450499 10.404264305117842 -8.966610124383607
731 -8.439961836410284 -9.17442369518324 15.873205171480711
991 -1.989014821573681 4.050938008640388 -15.197484039377049
1186 -2.3268223720601995 21.50267315154708 2.535301713327565
152 11.667584132735016 6.964307379239295 3.4183999707551815
877 12.067289560056594 14.87258319176333 0.9602513777597812
1055 4.707179455789258 -15.197041145967997 -21.995589945112442
2038 -2.3778863668426755 0.15900984782872934 -19.05936840617986
1696 7.009879797964106 -3.9769308407326824 -0.010545969866840837
1590 -12.995127321554069 2.491857714948886 -4.801723288469459
1760 -7.012676575763904 16.413090240161054 -6.336656507054965
197 -0.10493271816303291 -6.0820875713277625 -0.377276567765976
587 -17.454349591159623 -12.599909529787574 6.949501968199441
1197 13.520559876677245 8.776407344952423 -19.602658070373447
1457 -12.02000241203168 10.852128799723316 -5.251246648823655
542 2.697928906116398 -15.805476057673776 8.087149470074692
982 3.5008928376643165 -9.251704663736122 32.2019041464183
1094 -2.8647173354283693 -12.171465495727206 13.215819739206772
1295 19.212013819329204 -9.381355151562829 16.712621049037647
1219 14.815665762685224 -8.665775972325514 -5.907247821105522
1754 7.210167620968502 -9.27331946705706 25.709438919452303
1006 6.944790975926087 23.74307102575257 12.91237454861517
453 -1.7062312424510568 6.179204079287281 -9.989621674353158
2100 1.1328448874905404 8.9940445083684 -11.156220187418988
1118 2.8693383319884673 -7.8211942257699105 1.8037513773510898
1391 -8.395511337952904 -5.303243384336172 4.392434411193532
396 -10.638972125380622 5.982931236486968 21.738308107706594
530 10.350529727350837 12.572027402909601 -1.843458677290516
874 -7.203233485797045 8.01274391158599 2.4408306329122698
673 4.940852855092071 13.44503468963944 -11.145963917647009
223 4.4517593602724235 -7.587496841025434 5.219256781264499
1683 -5.880637873693248 -5.823129339247478 -9.14318546952311
200 -19.14357095050224 7.88306708732285 -3.8482448369926567
1449 -10.614305950368731 7.674594979626426 -8.155444923286561
1024 -8.51039200997493 18.520867960974318 3.4502011514150674
106 19.199964232961353 -16.047899200180087 -2.296832363106698
514 10.117171597693984 3.2404042759113723 20.956894816415627
1885 -13.208342578690152 -0.7267398522291221 1.2285646741577552
353 6.471228941230615 -8.306610048621623 -9.367070388387877
2104 -0.6342907411282329 0.17258121856516212 0.6525437627860653
1306 11.130070333433144 -22.53040502942474 7.452906235498512
1070 -19.503242006507254 3.2327461258373655 4.046078555196049
703 4.100035169974918 19.56154691217475 9.404513806233695
2090 0.4354471179508848 7.473163172899117 -10.149328926085934
1607 -8.599866043109637 -12.46430321823827 -23.37356243991992
1274 7.642232035603479 11.638755637249659 -0.8519682363541529
1846 4.737672298140163 0.38704141050139856 -11.09697125443814
1878 -14.291096022672651 -12.821506341691721 -22.023771691497142
1560 -3.4197785087402197 4.096285152385228 14.029620496065846
2001 0.23763462226999843 21.317469647189704 -11.151193925446096
1189 0.6825942370151824 -8.591437445885695 6.414505202085767
1583 -14.871491129510845 3.699265004381928 -12.54679055937692
338 -20.334282900663307 -2.273327991332884 -2.984472408216484
245 12.615709894789722 -4.455575302435829 9.043089530012113
1250 5.573454363811052 -3.5152517490172945 -0.6868649054072157
2112 -15.705588700405414 12.235497228043759 13.159137817847245
682 -1.9142510549051028 -2.3965364880448594 -15.409111427588602
2030 -0.6731226216834172 2.8475268748365905 9.78853624998561
1151 3.1145263708364728 6.817400128411411 2.2812784488032465
372 5.427477435221878 10.153742206868284 4.9987639630053655
745 -18.732757445021612 -6.361108641143428 -2.152593318221125
2014 -13.812984891410116 -12.62065045365572 1.8356431291787034
1482 -4.183437660138302 -16.704455053950806 -15.809506849178158
83 -4.1524886193533925 -6.580358746773389 10.25100777663419
38 1.2322959351225302 -10.035287238999896 -3.8596513024704597
1228 3.9108902263726693 -7.916045497978466 -5.803224050310876
16 -16.50201337554548 -5.431701202456589 -10.02589049333762
1114 -11.59583933908122 -6.891824716599652 -6.644721613043796
2136 -15.287045971453246 17.626596184189133 8.565566755673963
1710 -2.064821939515566 5.729397354951458 5.301543927748315
1632 -5.275478352231975 -31.833801400576057 11.578714817838254
1801 3.070831468584389 4.547583532425708 -21.49879393717949
1592 2.1074693182492057 -25.090469352299472 -2.7445087939168986
1851 8.00685097758617 -0.2744838667684192 -0.7038484290193773
708 -7.97999835855893 10.666352974017613 -7.451612519320654
198 7.861969613081683 -5.509380213316401 -6.233247942284215
1703 1.6265656233061498 -20.405893233390838 -16.880010128199544
63 -1.1548054743698155 4.35005984910077 -1.4141719500898016
1145 -1.9073978935679483 -16.574114781415165 10.005949287775433
365 -8.516034911273577 -4.679735625144573 5.761208971570738
722 9.529467625970709 -21.86278500085653 -1.6165037717148554
295 6.568559141893827 5.991537650435974 12.803428388192666
1884 19.921609917023794 5.412982128296148 -4.571658845909064
746 19.941221009190414 -7.953645503815718 15.510927487298556
1988 -7.546855148843842 -19.754242218523242 -14.130608169062425
1361 3.2915378568573472 -9.927707302026198 -4.347456205472827
1048 3.5785489791752423 -7.7394589790979245 3.8302857517814535
633 10.20542639477201 0.3809281652735856 3.551782951237957
104 -18.303631301052462 -2.4735719169104833 -8.996114892049167
8 4.652890784042847 14.054882653116909 -14.876042690182027
1354 11.950971348644142 0.5101333271379312 -2.1787856436772524
568 8.271613548731159 5.966516234476107 0.4283732484479725
1187 -11.216112196807607 -7.012008726988139 4.377777251243003
2142 14.808298335170987 -18.9227709688568 -1.1799101441581674
50 2.6014007464469913 2.039064883150848 -3.4253851948982237
1488 8.176722407797675 -0.08083257641424253 -13.777049505945351
2125 -14.958290071540052 0.6253553065088976 -4.998299076134659
1668 23.753292435397825 8.58893514931169 -9.52309019936392
1782 13.808077929023993 4.600681301647524 6.505991156369593
2092 -2.4090770998522233 12.486420669220212 13.42336074795887
437 -7.106829265122914 7.737528484796261 14.815806747456788
1912 7.729031544778156 4.211793972212582 13.431812941909643
41 -14.414650013789396 -16.55560074657846 2.886943766051913
2009 -6.720021263626708 -11.59189394203084 -6.779337472099993
1464 -9.260090044546693 15.919879029485308 -4.564300868737293
1386 4.487423906362431 4.325541556423782 -9.122191077162759
1940 6.483197967217397 -7.37355066434314 16.687784261171103
229 3.8031258843918745 10.349780221983519 -16.52556099378931
2012 9.63077449716818 -7.839626381628737 -3.3645495168284896
972 -7.046675875270754 -5.581774587276004 13.778878665060544
471 -2.6788795824962466 -6.814702361440208 8.287937507706483
1043 2.0082108774661123 -9.358775321370688 0.6484729456543091
898 -0.9296991788507776 5.8856298827364295 -12.085629389814871
1647 -13.58898138133325 -5.856068184862117 -10.05461165411612
803 -1.2284736569598012 0.48885509768503205 -4.009124593878629
1453 1.628625400194326 -4.232105922418293 3.7581545581159492
60 -1.7595900923664125 6.503581597543294 -4.974723794985476
768 -2.080834322554955 6.900325797011096 3.323374667408142
1537 -14.619887901905754 -10.065591797035111 -2.675089129671227
1534 3.935971542398424 13.338396647091049 -1.8622788984370457
1156 -14.976851737872785 1.9933798958607114 -7.930924131237238
549 -0.13340600354745244 13.972243826415504 1.7321272642465866
2109 -9.412718265325426 -5.709921568069189 3.943908345603751
795 4.551634938251534 13.945541500755684 -13.84475556846989
2063 -2.718722243991198 5.850387643375042 1.291589275796101
2075 2.417240927146711 4.746451297201139 -2.67761008360433
1867 9.333366416145555 -12.378863198157672 10.52094598233434
364 -2.5011117863375643 -2.418221576112138 7.5228678570044005
869 -6.281474383046713 -4.116629003282296 20.81571817159357
1837 5.544534803415694 -8.51324774684243 -7.128469746311736
857 -0.695562415283565 16.74381691671296 7.6793811234065785
1711 5.2005562806959045 1.3104932954956117 -6.2080317299121095
1900 14.364852712592663 -8.955418050163992 0.12730107573690655
948 -1.6566706570063054 3.008905007471514 -29.298439711794753
1056 7.629471083509885 -5.893915243084933 9.6976735724632
1636 -6.143919184576585 -8.701749125389146 -1.2793831402599105
989 12.067086038698772 13.46427239134823 6.23412742738685
706 -2.932917518932098 8.693990285828404 1.6039522059807843
1948 -11.12164432653012 -15.111356156761317 18.93235008682416
1475 -4.319170528533568 9.761648305808514 1.914396291929969
642 -4.6395767040999525 -3.8983893473567965 -9.020284840803075
493 9.678051278645556 0.05514394064817436 -1.967704768404488
1040 -20.128852293453708 0.609510062719106 -17.632361542701965
931 -3.612457872509294 -4.578656807249482 2.343323124963258
981 19.692399863479306 12.430397337378077 -0.714472878896598
867 11.42229473540154 1.3451631641876627 1.7911970241674382
155 5.8357744202314725 -3.2001582097963963 -15.699970622075814
292 3.5547639763327945 8.642167529377144 13.235864043371617
1990 -16.498941804548434 -5.8413187514232625 -2.5436601291094667
27 6.230784561549688 -3.302351722246673 -1.62008780414173
891 -3.3643383400205806 8.845222842087406 11.516265800965723
297 -11.203868426983307 1.4788527565135725 -0.4098342509501305
1620 3.987455396255045 1.5467669902009489 2.0783328395685303
1506 7.771877338100386 -4.366839726215096 -4.084559203966259
596 -11.96002158931525 5.677569182309266 -5.028794570582353
341 8.519541307268346 -2.610568731792758 6.882873898810367
2111 -2.827494655510284 6.316382932623769 2.3158546146910814
1516 0.0756304925993233 -10.35243086704544 22.698682528565758
1218 1.791330617607989 3.6617941484345367 15.39900432984206
1104 6.6303556156223005 11.971139646029508 9.058852369314458
1182 -4.907318351590497 12.109298572434604 -2.268757971613158
315 -9.527151665377428 -0.1557303544931198 -5.774564145010369
1171 -3.4549053839040202 16.75867973344067 -2.261939717258357
750 2.894124689024414 -2.1261936785013473 -15.076361316526409
1826 5.910321063338587 -3.6590462617644457 8.307998221443325
1497 24.676295566149427 -12.555076880026366 -8.385387223071245
73 4.622765094397736 -11.227210486362269 -3.68007096009795
1415 7.188488800249004 12.610042314559525 -12.754167982321032
2055 -1.121828848540925 4.446225696487924 10.285068099194875
1799 2.711772647993161 8.259643881339816 -0.16197628168713607
1728 -6.694220743592837 -2.0206408135999507 -9.868459252449396
228 3.7561641495614855 0.4756258051079624 -2.9946131794200825
1924 -7.034127727912576 -0.43340587254515717 3.4228198354760986
21 -6.695808303585054 29.095280365529636 7.575165966720907
421 -7.490161750984644 19.78550621308687 19.476358307807267
1967 16.93661609968845 18.03301051377983 0.15678435895245466
96 -10.021808215431106 2.7044167658334404 4.28041819525761
1446 3.086109256881498 -16.78166650725427 -7.6157154949410035
1201 3.4277909995918567 -6.544974827298062 2.662948920990258
1726 3.2560621204497626 -1.5995477238258955 21.486222774073997
1329 9.324275534519252 1.139734636900871 3.922209101120077
800 2.93889972457785 1.1090360289289185 9.698229176283988
789 -8.950833831278725 -6.038852935466153 6.373175546445509
1388 -0.7557750042307599 -0.6765806536158319 6.890942304997238
1333 3.5587731879834203 10.97386617990248 -4.472693609335058
600 -10.837106891561834 3.9859956778116774 -7.219356255048553
794 7.244212586708732 -7.3086268499379985 1.7971664200821953
2105 4.380960926954611 13.368463276877938 -14.62386152072578
917 -15.15643466049386 -1.8876461134027023 -0.12290184627785776
301 8.183911718601372 1.6091632372814084 4.416527564562412
1518 -12.00743745378209 -5.77825621834203 6.243017895638378
1700 16.670756876272943 6.636829116742983 29.51649655762431
248 -10.429005699362104 9.76932517710158 15.367354747892318
1272 9.795527382370508 18.830122416876346 13.494756984466076
1429 -3.1508619361034063 -5.269221655831147 5.745884459090517
1452 14.315233593930596 -2.764694540481291 -5.536836097646393
405 3.698198498538697 -8.764444036109225 1.1764469008815346
257 -13.965750995141955 -10.013880232980304 -0.5268586509053615
1408 -17.8480061484211 0.11648493187990168 -2.640322159068656
1740 -7.334712550288203 -16.05150563259442 -2.1993029572448797
910 25.673699518836663 -9.210712385719207 -4.115410427249134
1897 -2.8396487897241287 5.24421521135944 -10.468262415090269
868 -2.603741717195625 1.340271188632124 -0.9695801070152368
392 10.787264141698387 -12.372101171155844 -2.3264818982890856
299 -8.739423143085057 6.835830116491583 3.093408205059515
1444 4.583372841599587 3.4595368370552353 1.8606618665058394
1427 9.89921496368855 3.6676210189486365 -5.794816344566739
2076 21.321757003433994 2.1077906964037214 -18.384078833181373
1698 -23.43006025800917 -3.4638175669285687 4.9619671149588
1685 25.272635605706288 -4.370472686010611 -1.5659037152582134
818 8.234596969812268 4.130557716686051 4.196478134921052
886 11.989379928082498 -3.2722354907805578 13.869166516067867
354 -6.526646873197321 7.249971129992221 6.619033115593338
903 -1.3462359438202756 -2.741715456735549 -2.7673247792005484
2094 11.309166993831816 8.493342445928045 -9.951033854803425
216 -1.386384055114778 10.76240391950022 7.779475761434446
567 6.785200085547192 10.42284442497732 10.394787201526198
1111 -10.792730127612588 -1.3682513812804666 12.520823550294137
1860 19.88196797601489 -8.225135571535246 8.047425437810793
1105 -0.977854933966994 0.41277304950540283 5.2331189855284626
1553 -2.848726880481301 19.190166494134854 -12.827437523267928
1381 -10.057786163548336 -8.225369505645991 -15.27520693057222
899 7.2696213162036 -4.186476423629263 -5.517724817136584
1420 7.87144516323985 6.164551369540209 21.520468899199855
309 -9.757763374896967 -15.28924446907355 4.5409091000979815
559 19.50272933999913 7.560992915924907 -22.538497008151523
1653 -2.4782772959729953 7.401753593229568 12.846328029715963
1883 9.841550666097492 -1.429127063332243 3.835643993690412
343 10.38481848699728 10.762583193624652 -4.619343307269158
1569 2.9430801336590378 -3.307404474140483 13.62135318764136
2140 11.179273167194191 -12.168964618685111 -5.01413836296854
812 18.84145162270754 -3.2429598033168787 6.06078844635733
1166 14.88292605950326 3.443994561448225 -3.1661631122210734
2151 6.691077186527737 15.622287930289863 6.803235265245698
342 -10.969851404290983 11.260823160354391 -22.923307017126096
1806 -11.098344800840852 7.974516562872112 -2.7238558963753836
1758 9.642172806370056 16.81679209815219 4.108687028887074
1336 22.168386829362742 -0.6918949740336958 -3.3241889504917688
2062 -0.9086142820570606 -11.04834376132929 2.302338764471036
1611 0.42823172363842266 -8.454617781968171 3.0528802577512626
1598 -3.4626987476591853 -2.2422619018281527 -5.714277836553212
1920 -1.2934605200300486 -3.2108293634613916 -5.678234748723514
1460 8.803325990262227 -13.847924792010238 6.27796728038417
939 5.143419647458381 4.2366323642402826 -4.854902210887005
594 3.197374629973298 1.4433283270018982 -1.1012436201806752
1430 -3.2592569955329456 -10.043310147044116 4.012301273337752
414 8.275682575617878 -7.149730066323366 -12.69612013873281
157 4.157142388865527 -6.579398182408959 1.6762785493197303
1422 26.57257558083697 5.276173520649114 13.716721339132196
1626 -14.210207053370793 6.766409976768272 -9.258156457142853
1222 -4.935481991034869 -8.783333228614822 8.25655990623835
663 -4.718900775608934 -5.223077589705528 4.458649765999454
2047 2.682514753469965 6.254112038139587 -1.5665019861660638
141 8.279344437166229 -10.305714651003184 -8.396521905634868
1521 6.399554228175704 -9.025815646489079 -5.567035367217594
449 8.481818264078388 18.326093261078167 13.843854577266901
1526 -1.2502934601689075 1.6942435409507668 4.639934916100917
1566 5.190444306505656 -9.850299322161444 -3.254434126641402
1372 13.877283916120701 -2.6380160765560756 3.8346599115598696
667 -2.4734108372301384 7.899014222588792 11.376991809036914
2145 14.595717917283947 -14.373539900544445 14.715852251996298
985 -10.748133812526914 -4.413960435190048 -7.855699544386358
1115 8.726336246893295 7.144686001419533 13.785186494689615
1803 3.118183553450165 -11.921008054910624 -6.224773287829498
1214 -16.27143286252817 1.9079787994324522 -13.251982460370177
407 4.821340881767057 -8.04123240284075 -10.89342999439464
670 0.015412091585974197 16.37511317244599 -0.31512279688314654
956 13.341563742952436 -3.1336215551695465 -3.929315820189192
1374 -1.3221550032902563 7.213977851380557 -5.095224603671699
866 14.80675683760689 8.979788097763127 -6.445555763325079
1065 -1.7499247957359316 -2.854956936193252 11.616792788075012
1089 12.618523815297989 6.2139805525938145 -9.731337970671301
1524 -4.387223641418648 20.554217720455078 -6.950809970982139
9 1.0958051821388997 -8.601642840561667 -1.2229788008292677
1963 -12.35131988237218 3.402398915644753 -11.653434521914296
1681 10.552514480336022 4.270434164590758 -12.170069871238812
644 3.511267309502458 20.40162936285327 5.485935520591315
399 -12.273126371145887 2.3158156641601115 -9.662639545955756
2033 14.652363289348331 -5.366245123160618 -3.363495550830828
1337 -9.245049987603082 7.788264435258757 19.56349592113094
290 2.5054345013789057 -4.2837961577998795 -11.236551334943407
660 -0.6518645627832445 -3.087327760697075 -12.867599219773
481 10.208439201075239 7.5037035527126115 11.89371567173905
45 -22.364716942415622 0.09350246038776462 8.64860278928663
77 6.510966330079336 19.12363533714691 15.075572879333532
503 2.846599980976243 0.023285493066096043 -22.65739144180945
2116 2.0703434080952756 -0.5369257164521367 -1.051605306785429
1262 4.770674433591549 -3.3689185526838084 5.207928285031622
184 -9.165996872568318 -1.8140008564483219 -8.419618794037627
834 4.0996820570069925 3.1937721520543154 -2.707192642634551
1133 3.1928906419921166 -12.064135396067728 1.1324646827521025
1753 -5.382151968275206 -6.212487519773574 11.22822808575407
785 -2.220132169394044 10.776118592189617 7.16056760539143
327 15.00767460064621 1.5642063925781036 7.831016449011596
52 13.912104851611 -7.642638882912285 -9.630377001431865
195 -0.4718131423667015 9.579562567912504 -2.0490904998305157
1318 4.646564383458875 0.1398177136375647 2.7915592252720374
150 3.3294532143420468 -2.7961197765537165 4.431038474474631
1383 -7.756311648147879 1.1749427400036887 -0.9845823518135132
423 2.8298788664414394 16.45295420077596 -2.8962728424719173
1243 -10.948688736354182 3.4830725873013018 -29.278679652225637
89 5.032063658917006 2.524963830497339 5.313881909066159
2002 6.338913544848025 -0.4452541895990145 3.6887904352571947
2087 -10.34201464055428 8.417296501095146 17.124318872499355
147 8.689421385405733 -5.375972086594683 9.889426296349624
912 10.029089263349832 -15.542955438708285 18.24254736786498
630 -30.5319924993201 15.241399067965684 19.153677786797008
807 -14.152239763467628 19.294875557550533 4.283567552467911
1649 -8.570576274270994 -7.717141352676157 -6.259519695586961
1248 -0.04154923408926067 9.370239808411464 6.687417342146102
409 1.8938831518750043 3.7619319861526765 5.6210098877384125
945 -7.440280360035642 5.556160355120977 17.288210712669784
1825 24.443050439619917 -4.2387262096683465 2.151841039351052
552 14.182472874104459 -9.030488187666112 18.865315704361237
1373 -11.81059790469084 -4.106357798999655 -15.253765045755687
1981 -15.181516964848102 -4.651030729240783 -1.8760506126118595
2123 1.6267956659176903 -9.589631536707131 8.236606371163164
806 -6.343999662444303 2.164061958067586 -1.923016341674475
1757 -9.586198304558073 19.543459012327467 4.0867998616135175
1545 -19.522514898798622 4.811214150147695 3.3087527313099816
561 8.239420721480963 -1.888559304159682 8.418454983077018
1362 7.120318990584216 -7.870635172374207 21.152134651167735
56 -0.5257397099805424 -10.679316586678082 -13.836434569059652
255 -0.5980372039931817 -2.5476513781531938 -9.818921680950789
136 -4.5641734330911525 5.029777789700772 10.765125125215079
1061 3.739630537306734 2.26862780225925 16.422859460280527
1229 -5.443202290102435 1.0674999518984185 -2.9867351086348743
950 6.712692975673634 -8.205867474825903 -1.5906897462855678
1978 -10.184583640815742 4.758259696132199 4.532293617216231
112 -1.8226209328251406 -14.47004406732249 7.502394532979716
954 -14.009332811276497 2.050775455672886 -24.4121921176562
1555 -9.656836077207096 2.3117303940043605 -14.481167924688036
1861 16.339491707106397 0.542840505356203 8.165329623996822
210 1.5789701885204157 -3.366516653714833 14.290464393819807
791 -14.208382924863958 -1.3681125412352635 5.876314330812547
1343 -7.773700421726763 -6.748113381711898 -10.146148887890169
1009 -4.388653151522055 -6.305535889859206 -4.046879194614728
1730 -5.7551601403209975 -2.4208046623274786 19.873425905182053
908 13.475619329555617 15.392904474645267 -2.8867047977565665
308 -2.262519681253792 -16.17941165631051 -26.7818247338606
1432 -5.612637962880547 1.0889565228479618 -3.1305862741667037
751 2.6773315042528574 5.578899059460311 -2.0987940133488165
522 18.898339863318107 -18.347794588441168 13.521470130458608
466 16.658530573552287 1.8046297797081028 -3.3802051371189363
815 1.5999541224520044 -4.985605350027778 13.419777253905464
1254 -7.695851207111374 -3.8322284884868396 1.3391290176419377
1095 20.452461521039314 -0.9384996456916576 -8.58244253677153
2005 5.928146800236061 1.8426693287421385 -4.303324421317843
1244 0.3643100140740617 3.006256312271602 -6.8428507460525765
588 -5.670129040821216 17.053137752847622 -7.362070891553156
1755 -3.0680117143189647 5.277804422611627 -7.031011179405859
1039 5.21537804455517 9.89423286238102 -12.847562777896938
752 -5.862529304931421 10.514565532529268 -2.5823677839935333
1762 -0.5647735108447605 -8.199570468396693 -19.74131003050839
759 1.4477859478071446 -8.110341290543195 3.6871561716258294
1608 0.5987229749816972 -2.0572846587354037 -2.6361672512772825
1715 -32.59279000161449 -6.657201949069914 13.157694321722042
876 -13.642843778010876 19.74327706114776 5.70029397284536
578 -5.085393753202126 -10.48863789440473 3.84774341734136
2046 -7.842718844149858 -0.040569141635488117 -1.0249648561902718
1877 0.12261728487739004 -7.880306422158873 -2.1441487735125433
231 -11.101782095470192 4.627927961851263 14.728436485989931
907 -0.8200639000321244 20.520066799112747 -3.7711918150049515
76 -11.314646414479562 2.6438832269809542 14.318274816519997
1502 17.16501795841275 -0.4748926268278538 -18.79573250709266
238 -3.305006003262751 -3.037569903785012 21.58455790562423
282 7.395062073035662 6.175567062497748 -15.166494423802169
2147 -3.3513050594039617 -14.604471171193184 -17.591607617153105
1326 3.70983450442204 17.616496690378366 -1.440572330627093
852 -7.938340595523622 2.1253395132552653 1.7990658648928923
123 -4.1039558182853035 -8.709092597064416 -2.941128305281711
1339 5.055382706416295 2.940412536974105 -4.1877756223118965
952 4.024095995747795 0.35112287610189324 -9.737836416492504
2155 -17.592499190408997 9.573333830174596 10.550782631518901
512 11.937510224228571 -2.4422217409133484 -12.203418817445247
693 -6.906045722115225 13.072657320117447 3.2083096250264136
208 -9.764745839530638 -7.448573980467004 6.297148193224279
539 7.752281195327484 25.59484403763578 -9.211766006458763
187 -2.5863597209128595 -9.018598064481932 0.09885118413182137
1853 -7.111909365794981 8.722384383459389 -4.858482903910015
1092 11.3426103986613 -18.87461373071057 14.857479951448395
122 6.2635006286965815 -13.767502165740224 -2.550730163659226
174 2.524121263808752 -6.034190674078244 -6.038159763112936
1033 -11.337868771614305 7.857931045424497 -8.257165927392606
1894 1.2752456770650127 -10.94669086114835 -4.034188692196418
1257 0.6365444032715898 -6.519017665422651 -6.868531700583579
1360 -7.361081690787033 2.0032195083302016 3.3714409231091027
1658 9.060633646924042 -1.2260938637487597 -2.993485104186262
1461 3.990779651510853 -18.634594358969615 -3.1278548433097475
2070 -1.6529486550910395 24.572294037507938 -2.579128007696295
927 -9.223662008064446 -13.326552195189675 -1.1890258330907495
1289 -2.0019235142390848 10.83865743697867 1.2209388548606268
737 1.8412223133109504 2.6164865553473287 -3.2475149983414835
724 -4.368697236749008 -12.962218963449967 -1.8020835508711954
72 -3.5094765045595735 3.5914516434030315 -1.645674445032521
859 -11.143082828866913 -2.71498952913147 12.24477413894756
194 -6.177055806851622 -9.29435691409115 8.262305561996337
316 4.912779862462445 13.410552978435986 -1.6158521867338644
1724 -13.766133311438589 4.739084188826875 18.45166843814025
20 -10.138964144602674 9.2780868933409 -2.3008342839747566
734 -1.4474019111730045 -11.112940922189583 0.16657522110722708
138 4.7903851149027386 -12.52984810779524 13.682479038310372
226 -4.534224972932671 -9.764186386512517 21.425404720771763
2102 4.3844701223854345 20.03125192815726 4.823699232115878
725 12.224147562653435 9.564770444826875 -2.7906947547716006
267 -1.6307628596549735 -1.4147533322701573 -3.657341470820861
838 4.868457406053536 -10.075676002680227 0.429829260790243
651 -8.188612135648418 12.63637197772045 3.3539774758112384
413 6.008049930335966 12.795753058064491 10.701730008019824
1158 -3.1145055030496755 13.071586519504505 -9.36046648170684
1233 19.40849589975424 -8.949674505453428 -2.2770745412054216
1646 -14.74443526628331 -4.074696882441476 -9.586029912831004
1224 -4.8632283558353215 0.6969342708039267 2.470787406532511
677 -7.032970171454764 7.27124912845912 -3.6318505717396086
967 5.039743518748587 -17.49446219503252 21.47931493399381
1957 -0.9779027233933291 16.753690519712727 11.256011446027143
1625 11.039121916022756 -6.162814748360301 -8.390254032251937
638 -1.8386044997451436 1.5848947864089775 -5.339089894156622
1471 2.7320651738494433 -8.307981857182998 -6.9202267039762
1919 8.09520487379658 -0.8854488187294133 4.204405537851446
1407 14.815367702080339 -6.6263138282163005 4.575535664975025
219 -14.354135258047377 -1.4157229493833114 7.996626716351812
320 -4.628933368925143 -5.625880618183381 -2.19845116246286
586 1.8645572253592915 -15.643165138037329 0.415381780733822
1445 6.100334853411321 11.186532416025495 -3.637130696847684
1787 1.4673591811459312 -16.821204397874457 -8.34257027446374
1256 -7.045355010116209 10.901351563529177 -5.86401545182143
1084 9.978332673454869 -10.192243030021169 20.503047288421666
1305 -0.08862539206849376 -3.793150903055496 12.477624084275131
476 -0.8578734927311233 -9.99180520864376 -12.697914913198263
233 6.708556164655006 3.0392395512108403 -9.321417562862012
1774 -2.7796072100471356 0.18728292770463648 11.9263371208216
1563 -5.129537991830819 6.231942598399773 -10.873446953015181
91 0.6418696762746875 6.868869485178435 -15.899042942879015
2131 6.7156766244910715 19.1202976235436 -9.144175452706435
1193 -13.105597206990291 -15.097003930478497 -3.311151153612319
153 -6.686543455483032 0.16122252182241656 -10.052155597493186
2160 -1.7294321293060193 3.081424915467666 0.2954711775558414
1490 13.781434617695647 -10.366304224788832 3.7463914581516793
720 9.113182295644933 1.9980615900697456 10.044766548868525
1162 -9.719422832055258 -28.85007529936474 1.6703043934449398
188 -1.5189522063804104 -14.839826634451782 2.9177190578169117
507 2.126095500190221 10.369778874751 3.194301335319614
635 -0.7190365593699994 -10.733177576254649 -12.911450067326806
417 19.25359806925402 8.563379038236697 -6.487766015062354
1690 -5.479050716073738 -5.3193906042694294 5.696700400295454
1899 -1.800425868216209 -1.5620619371971736 5.134025882473127
1567 -14.621345787529707 3.183405327634796 8.408342591698311
2061 -19.846837721428496 -11.056586630633516 -18.253198950142103
271 7.18804298471009 9.621581937455863 5.144207615317689
4 -0.8287256693326595 7.440023734235267 -3.6423927819138298
144 2.249171068915967 -11.723567393012738 -0.08368776387772478
1292 13.5626857469358 -9.718574476802031 24.24799216953499
599 -7.48648451607518 2.972451621911994 -8.384803910256839
1863 -7.858585301796674 -0.5929337535098265 -9.570140822847199
1705 -2.942301436954242 -0.1441037805662608 -3.5072783446520286
382 -4.383890583143918 12.64093607157936 -18.25097833599025
2113 -2.425369830891694 -1.111251744366616 3.1752498803052718
190 25.748918544200798 -18.061013552066054 -4.957614644377533
1 2.3196217933000063 6.056903079965343 1.3688309764664928
767 20.32788195956832 -13.443339932295677 -9.352986748338308
1263 -5.048973914680117 -5.784128175138223 7.2117358894302726
533 1.4885947996892792 15.74630739576018 -1.5677129963750414
1352 -8.193535041718816 16.278994930381863 0.6786550508911721
121 -3.534471609736351 -3.472809049131988 0.5605757286418444
30 -2.4258598559658946 -2.026603291839872 4.832030331077369
524 1.4896677882123452 9.72979613308792 6.561454563406295
139 14.541477604506106 14.053336459291538 -0.16146678117223245
817 5.109437288690484 -1.2045040988290947 7.508593234803699
1100 -8.421697597272388 17.472943787639647 -4.163892748292198
2021 1.3055942687912225 16.610556121284763 0.8267203409947269
247 -0.8387704889763778 -2.855761994173803 11.27612647263081
979 12.066101454884414 -6.661377513508244 -5.655325427063768
1097 12.869923757912836 -14.033346926699133 18.610886489178245
1519 -1.801517336524272 11.526103064493897 -1.9138848611997943
763 18.1732607888751 17.212430162366086 -2.6551990539231185
845 -3.7620585199857235 2.818918736126757 -7.224956733957767
691 -6.4330877583976385 -8.056941934794859 3.9995387755411054
1014 -5.2839476341550515 11.959064392170403 7.766695324285
1773 14.162890778062621 -0.8119386834479309 20.40873586724217
675 -7.585468915088443 -3.5647247247783964 7.299159226364411
828 -4.81450775837102 21.87609565896351 1.3697275001954903
1952 -1.5491110342032062 2.324329231809023 -1.801120265370277
395 -11.134168343319185 7.777960758111695 5.690446130262181
1804 -6.8359846104440365 12.635276240821659 -8.553317615555947
1185 -14.053477804312898 5.095376179678072 7.677638902839124
352 -2.2097837740065183 5.57890242054034 -10.118417407276787
1331 2.1135169297080263 15.078694642614236 -5.631460186521508
639 -0.6514168513219339 -2.6191984323289845 12.705965715794598
632 -2.451872742527524 13.249051371796284 -22.75197854425261
205 -8.29295192060201 -14.739211563694765 -5.579550875422703
1368 -0.9890706393499018 -14.650340945917804 -2.697271922706187
1933 2.279870353310961 0.5360948928206063 -3.7594633470807364
261 -4.653286960500521 0.3115409728157039 -0.5880315735127537
592 3.5927060833298907 -2.2133959282072055 -4.222162996529641
1042 9.930077519539417 -29.11474207049507 24.75851634074356
1807 8.96713912367883 1.0697377603586913 10.033227855696467
278 1.2672940505262074 -3.315888944278954 -8.242037290395324
728 -2.1433308975860523 -16.549797186205893 -3.320604010731966
1830 5.724451113400356 -14.303538542366354 -5.736242206904861
1575 -11.801523108688128 12.176943313353675 11.095677126640402
90 1.6789317678557827 -10.347831059264138 -24.590476404000714
1269 -10.203488838281638 4.277934592854077 -20.211022791327412
462 -2.5485744949565436 9.494401619318765 7.472116648101003
434 -12.623397790247488 -1.1601133088944682 11.886597325098936
1183 -0.5633594919030256 -15.20035728149953 -15.568482559617411
564 -4.2078785674538475 4.753714775988302 -1.4822372250127704
949 -8.221049493290565 -14.171355864110357 -0.5407785050311201
319 6.159652339326985 3.057871725833343 4.276186466643084
551 -1.4459083498581642 -7.854166066668131 -2.0806016497140845
1226 9.508601533497869 7.230687351096278 8.997876363360492
1451 3.4268458004935805 -7.590164238787995 17.29816626378686
305 21.57302243586301 9.814867154762375 18.707093861087817
1612 6.7423181790040525 14.674554269709276 0.4735904808429159
1572 4.786411559325781 0.008687686610265902 3.3392342143941818
1714 6.880369610705588 9.031928767881041 -10.660293982209298
1241 9.407826612767673 -4.350726562739076 -21.055715320088005
1279 9.432374625341705 -20.17852344808136 -6.526067280313233
1261 -0.4035944417399009 5.69090190995562 -3.840269893840755
1514 -3.4569859420545535 6.8198846866757865 1.704730937368274
943 -12.385508941933056 6.587623740498253 19.881776626421896
259 9.72710434866685 -16.541172868152987 7.622926269667578
884 0.8762922201334319 -19.389837211444622 6.485073186195198
1844 18.38510683051792 12.192684277691903 -14.11472830455157
67 -21.643767920577098 -0.023932183191258033 6.204001221185616
1076 7.237009382930639 -9.993670239417886 12.373855150927591
849 -2.3921661596622767 -12.549622464793766 -3.5169250214485746
1511 -3.9513838723436723 -3.956202140091788 6.996131807419598
1732 -5.032482550534971 -10.072672255260345 -10.091070158298859
1794 3.1731362037126205 -23.391347416736206 -9.665129777778873
457 1.409799615966484 0.15547809554719094 13.185664373447786
1790 -8.722389839121854 3.51079864107113 -3.3091613157640705
761 -17.822012535386502 -16.867197914265294 19.01035784683775
816 -4.846696040447367 -9.620606677280755 4.744471086695307
1027 -15.306178463825917 15.09551085047446 3.3027783685118512
159 -6.82896306911092 10.361721068978182 7.299750059610209
887 18.516938209264104 -16.596286945468766 -15.074422436059933
2079 -0.6321852831851308 9.209070332519198 -0.9036642663278021
986 8.329332471226168 -2.0489884489836987 1.7093252244177746
1749 3.0467999209311905 17.45364082830989 -10.351399589281042
1997 10.127853280025239 0.2277860205624229 23.613085288896176
450 27.781617978982492 3.251831734604081 -9.104024111388528
1144 -3.7786225236119035 2.289267036167373 1.7582019659942125
415 -1.4488162288646307 6.603979176927981 -4.745096710585092
1686 -1.9867132057253813 -9.528188305947072 8.468766600944484
1964 -3.4199896953652824 12.675703731907197 -1.1710545208268586
1172 15.323536844330528 -0.5458220711264706 1.9400386923657449
1107 -3.503553172854278 20.6459719367817 -4.896616578125578
729 -14.749906490854636 -5.27535207711886 2.2384106189637323
1051 -7.110598650253308 7.8951854538361745 14.771289034975672
865 -5.3323254861772575 3.8470948592111087 16.17360491968601
649 -19.391516574483084 12.126150860314572 -7.032468976419352
222 7.778239112972232 3.034380008783078 -7.01915188160994
500 3.5816006222323247 -16.83240169606605 -11.824470060598017
69 -4.296740543344882 -0.5027660194640519 -9.266841368763801
517 -1.1194776939151463 -8.61737196672727 -1.0024041588446464
1995 -5.094386102683415 -3.2744620965275764 -9.956284778565946
1271 6.153676019737161 5.502881334482074 11.141925338880627
687 -5.0963193137006435 -5.67538469404998 -15.794380826821174
348 -4.578169676335053 4.624692328801638 14.341574939282609
577 -11.7466994803037 1.2973507026597926 -24.06576156889469
2091 11.55814271889659 -3.7243323079762574 -2.6937312221556646
116 13.971144106485212 18.342171798781017 -4.415256106505515
1925 -4.901161745099249 20.5783343464545 2.264962952607046
253 -4.894540205175453 3.8987421243439613 -3.886734044144729
1327 10.132505519387532 11.612684276842078 4.5827890071928055
2121 18.184481968424635 -18.253004052047153 -5.998730068469966
2066 -8.823466858394381 7.061355882827111 -8.581524291529961
65 26.116066156049367 -20.94938701017209 13.02303408628982
1124 8.528568027306651 -2.680633445723995 -11.757517744211848
1433 2.2695529191924777 10.188483844063828 -8.554969435854373
1852 11.514905177196223 -7.1755112728859025 -7.825620339352648
88 -3.8473489492803377 2.85011294457168 -0.6349411900970225
403 16.449494523915924 2.246787480496796 -6.510089445919663
1645 7.307964614655723 -4.688085686487589 -2.2161681322764704
1150 1.3527540829672124 16.81288057759955 -6.797376592137808
1131 3.948808005425158 3.891392402710643 -5.607625139414106
1258 -3.010961883576653 2.326379673951612 7.446896470234181
1035 -1.7181674753456122 3.084874738174271 -7.811114525471986
439 -6.72262102702555 5.695618877268296 0.7962839417146769
518 1.434054481404971 -2.507398035780487 -7.106099094998641
1664 12.010676517379313 -2.0562653942342863 -8.431758183127466
1161 -11.678457296094829 6.985338079061679 1.2801448413234227
419 1.4648195336329763 16.59883706100072 12.102414040947814
1684 -0.7182796524555372 -2.5554181669921543 -10.647010412004011
1980 16.101161417389395 -6.342671013631505 -4.306886279659015
929 -18.899339102159885 6.276047462748185 -10.331387321443636
1426 3.0434198097711658 12.49065124982444 10.74020913573885
1478 2.346252790539638 0.258453277513565 1.9551943860301486
1663 6.49195311980944 -11.754084974710088 20.982403539618307
379 2.4274909717886572 17.602812927467173 -13.477261087013927
605 -8.091995207922958 8.279836156723949 10.828213924672461
1370 9.308954363661133 -6.915233876816412 25.090935406428343
1223 10.88835559567198 -11.913009769310097 8.060489993409638
169 -1.274810755692324 -7.681246387066837 10.27883375470421
386 -1.6780335757405929 1.0776501595912578 4.227297442535278
498 -4.869811244825874 -20.572705154048922 -4.702562148322457
166 5.397086302372431 2.179625837064199 10.344985377132184
502 -0.21191872264171094 13.586036689766443 1.0839451553323693
1178 1.6636258180175472 4.644745876759444 -4.800680599279115
1074 -4.412813585004921 -5.038564514689825 2.427439371686469
2119 9.06359714224457 -1.9692795293600207 -8.495425819249325
2008 3.5843969174915387 -7.377877521850809 8.14331249133528
2072 -14.66639508159005 5.157138633245965 16.26847903011705
186 4.655672037266989 -6.6341405849366275 6.223955378026314
773 6.986677901043319 4.698223703166248 8.159695942042793
2086 -9.835979378886194 -2.6292063116408317 21.23893820607151
22 15.986066793670128 -6.921826792974608 7.396774998385047
170 -4.744725312556221 7.950615567307106 3.9939541885944383
771 -12.524765585749861 -2.7809008054168833 0.08733240132638993
1987 7.964081665819981 5.870873913650023 -2.9458451894324593
1119 -8.933123148113527 -13.80816679858275 4.905087720555658
310 -14.424142297194155 -2.7886739215658474 12.326993826297748
1536 3.60268150611546 -5.691981930446609 -7.505410463900792
1196 -15.550698451457182 7.862471700800715 6.324333313902734
1210 19.23852961239744 -4.582051326564212 12.144391771736677
1203 -5.991179802177581 4.55972906103865 0.9103123944726913
880 -3.1594038516061174 5.473331440608303 -12.380853544005058
947 -5.484892050825649 3.6229903564437587 -9.023401399367318
381 4.119427180142316 7.314178587548535 7.185801449148665
1345 10.645885755291228 -9.628422616824281 -10.100804319742029
1570 -10.359811583670249 3.869277694020096 24.931812802945608
2084 -0.5707251446958235 7.688108296823431 -2.7992233218938405
448 8.739859069811969 -11.525124722777715 -0.2782009300484254
486 -0.12867367573785746 14.999381359851695 -18.25384264695903
1455 -2.4639122813724295 -3.9704142732949332 4.564554125631199
201 -19.62086939128455 -15.038616302136942 -7.504325733420071
143 4.351518198748383 -11.415845493031307 5.380476812325789
1996 10.458588002266403 -6.447647849766034 -2.0512271163913054
930 4.468588529275739 -4.692054053219549 3.97794506487317
769 6.193484376402112 7.333065418401531 4.093135801954248
1363 14.603046116451443 0.4548465314108839 -2.396364678112275
1887 -8.262734519665075 -12.291501568162294 7.945183184962433
1307 1.3554257185059764 4.439690031292923 -1.6665345114735013
631 -6.786301463987437 -2.9054405906391136 -15.553240041798299
148 14.212370204754444 2.9421954485338193 11.741718496619656
2089 -2.264043681581759 7.512817696443265 -5.523640943153791
1236 6.2902355199767115 8.163780094636653 12.597334127954205
1221 0.7461801587214718 -1.55944733236259 -18.843494896016125
334 2.5716905141022317 -1.817168284573016 9.604332959009826
1501 -8.705161833956474 8.136076103810776 1.769196558781762
760 0.37424991942189806 -7.60459940101114 -0.17383815383974927
1727 3.057130345391143 13.39806684596099 18.030398563517753
1290 2.6142005092033544 5.800265733724742 -2.0791732207197717
1276 7.928123914496572 0.04114589367984538 8.88599305815101
1821 2.5965237787846887 9.494343217904095 0.6449057827382768
2114 1.9992301226299398 2.1883222632354187 -3.9979212328574167
2117 2.413997537957417 -1.9879007719593043 -17.579441258690753
1316 -3.8798457690391097 -2.958692916982187 15.027178277581493
398 9.456160699946816 2.293133923251955 -11.059902021064202
579 0.29407180356326423 7.0690565435440975 6.832216136783125
933 8.740558410876929 -11.607043082308412 8.331226277330305
1635 -4.391317802015478 0.9880583452761734 3.296814480875386
556 -7.976357929844147 2.487560719780911 3.0677873308874366
1314 1.3165519193207516 5.2706709988851355 -0.40375030462723793
1364 2.2942434514431103 -0.17506781280832193 -6.818497689925012
3 5.657952569047649 10.831414038865821 -17.558050666010033
1941 13.544079059303202 4.933693013048899 -14.853864298746583
1717 -2.485187518779222 2.866839543729386 3.8859471363716485
135 -10.863641004675504 -2.800537084826597 0.32086039954674056
1532 -18.988927719281055 -0.34408245846812807 -0.8232811867322384
488 -2.9020879754451943 -3.160820000634302 -1.1449779863440213
2138 -14.093179576646897 -2.364289146663432 2.678999369513035
946 -2.339553618954903 -4.0778762874740755 6.730058942848236
723 10.349632218031026 9.393777839861448 -1.6873784245105514
792 -0.17806434556807954 5.289506912490254 -10.492641149622527
1624 11.599320488759162 8.909736060455934 0.9718269928272361
355 14.166182042077299 -16.881894389218925 10.90879771420633
591 10.734739401176403 -2.6015457024113564 1.4494527424066657
1841 9.55158565100887 15.368441429035782 1.6726276878847506
2130 9.876017758665245 -0.2409994796025156 8.720867670789529
1462 7.41156707379931 10.347120867125037 13.39705876884604
2144 -4.81054480535763 -2.763100719997924 17.92267397517852
1751 -12.604846374572686 4.312695323837552 -24.982092120350014
1437 -0.5965170061124455 6.4664202634066665 -1.9354962600078223
780 -19.23355901764464 -0.027344704156983243 -8.28626376117798
892 -3.9364643526862393 0.13520390365175805 -0.11744866880955304
2022 14.775608034769295 37.26012136480046 5.593194017865466
33 18.751587245336314 -4.9657267340443765 25.683666945084557
28 0.5427643692313523 -17.027598018190208 -11.709610393592115
408 13.10879197928773 -6.251043607356051 16.064286222689763
1164 2.7385188385755646 -8.549467153158927 6.874582454788948
376 -17.98386308229137 21.413898470328117 -6.4400347610767
19 18.35843257928346 14.461656825104207 18.88326047800771
277 2.1156786445989892 14.598977854146547 -9.098646305294062
717 -9.257056520455262 3.9659627797602637 -21.960479479245375
1003 -0.3702241812819425 -3.579126065940811 17.031794126464767
699 12.523011878440753 4.249573726208013 -0.6978002220042189
550 -1.7527988008963977 -1.9519132803623547 3.93962303492889
1301 12.185304731132092 10.150300710848708 0.4957477720126135
1538 -3.989406653239977 7.0710189785037265 3.913721874197991
1127 -8.69676553514338 6.657921737462005 -3.1702653367294045
619 9.342332900531456 10.314231413084425 -7.659323404201753
808 -6.91879014289679 -2.3275375668347835 8.35349641936189
1313 1.0178655101901615 12.920204204235452 9.883031201329025
71 -21.13123084508513 -12.505615150338931 -0.8109340275686125
1393 9.332976759044572 -12.81284036822886 -5.027446784759395
527 -16.63944701883986 -3.080927720521887 15.548840909161408
1699 1.0555847439555148 -21.384777230970045 -25.61934489022927
1829 1.0493690823121844 -0.8938350670546805 -4.609511595633735
2044 -4.587179941503758 -4.331672490207734 22.758696190090397
1793 12.768733618672012 -3.677809694428266 -9.0890803456225
196 3.960639245628239 5.996279015955396 1.982308246631475
1835 -1.3573855344669576 -16.877772556277748 -0.14196180831920252
62 -4.973884827252618 2.348229343972387 2.1858708672298586
911 6.753869012753046 24.740509062384444 10.488761449668996
1442 -4.614737167471244 10.52550793340799 -0.5260322432964661
1412 -1.4649854011202323 -3.4805208261462037 12.924503977829803
1167 -1.5000484334991038 2.5239877915704634 2.749354750410742
851 -4.890440674224786 -13.314749429532018 16.894012666403707
2146 5.928037758674566 5.819617160446009 20.410898375532298
479 6.555861539016988 -18.47361840393005 7.4782899854015055
2016 -17.767368496322835 -14.712925913422463 9.463269442266782
218 5.11932788284438 3.6109230855666574 -4.583607815641931
1523 6.845982858178353 13.778645495040335 9.805229867600774
2158 -17.221925858833576 13.387505314592405 0.9762657273151544
942 -9.707850790589097 -6.060786766195877 0.9681830652624722
1293 -7.413608041942083 -3.5716748845173374 -4.421239246886459
1489 1.6251928966185532 -9.998520262484083 -16.078853870031168
1342 -5.102283737495547 14.260691767696324 -4.2497338528005075
460 -2.6187202720569904 12.413975833404004 0.83914446111484
1053 9.442956700286723 8.051257681288593 6.012255176984628
263 -7.114834099215275 7.71726534384306 -8.000527682964636
1638 -4.064350090599643 -5.1995043430596555 17.96919599226259
915 -0.07758843608263394 2.1320811894963145 -8.607979586839217
690 -5.610233939591448 -24.806092539940966 8.782068588897284
461 6.36304838415977 4.687311507880391 -0.8708973020088254
1481 20.669306900005715 4.756558650515579 -8.111062096542712
499 -7.637066135864779 -6.402499381586249 14.644038071425472
1346 2.7740076760632353 2.204735231936549 -4.8542029280399515
321 0.9088328807303171 -9.341869281587105 -3.5211875633566003
829 -4.300597496290122 -9.787897887045887 -3.8124678379248302
2036 12.428819009136122 1.88382064583759 2.330651184383953
1533 24.779175134393224 -2.935151259122775 13.111603478397491
978 -22.912032130310926 11.511458182762174 -4.392321355571398
306 4.320345228938857 -12.32831717617075 -13.11740955971651
535 -2.3573692135970292 27.898750614818134 4.6782724435017675
565 -3.3074359679762844 -13.300631115589947 -8.795186209872476
340 -3.7150350021510468 -7.452616099458674 -6.9124626138667615
1691 -3.3047104062796095 15.48152384112515 19.325633556949636
1589 -21.310194680332454 11.092596868688785 1.8159349209987588
1413 -2.447435306024608 13.431318898529842 -4.713535213909555
1721 19.14480692743011 -8.101945223086338 7.066206215710391
710 -1.259755011437949 1.1792852903729216 -1.30807720105995
103 -7.674250712346442 9.267210345745633 -8.848233172324651
548 -24.619995729212558 -5.116326711082035 18.550941693499695
272 18.46287627789613 2.3128017131696543 0.4732649479032157
162 -6.244235795426759 1.0836198842220532 11.38585016644351
1731 2.866665343675359 4.225241189724593 8.136983258984673
283 -0.41744798956755225 -14.25872329834812 -2.009896741015665
489 11.565872756985451 14.760042790282062 -12.402615417790956
895 -14.801510275021082 7.09021276463531 17.633550546543855
388 -2.8937967444388244 -0.3978305737765735 -6.713707509099974
1678 -8.87830845744235 10.317333433778012 -1.5093388133503693
733 6.549369779111616 5.458083170902585 -1.3443490077497193
883 18.77570509374546 -8.522576483140936 26.20491607576345
1093 -11.87361468136092 -5.3877789982053 4.78699181721222
107 -7.180756762743704 -6.543473861575338 2.3301719075797536
969 5.236987514948608 -14.39990748452081 1.9088240787098383
595 12.54033186065665 -12.64804718429522 -4.3082135383313425
608 5.504153474538212 -1.2483912427360482 -3.555605682340701
436 -4.543458497748939 1.0700904087753482 1.1037840189644619
1932 8.843995496153966 -11.66294925167847 2.206001259921219
2141 -15.226984506029762 14.748920216185848 1.5610926127751963
1031 -9.374696234279844 -5.190715002079681 -10.175958236762547
1783 2.8945286502924654 12.29215122597494 8.19611168731554
433 -14.081320405197376 5.106171084925511 8.833048992837764
1483 5.8280317744997685 -9.023711392367865 1.899555095084716
1037 6.438591964295929 1.5849329760708422 -7.272847022549334
1954 -1.8232300985460523 -4.762087296855258 -3.9563940404510802
1756 -11.774112661564951 0.08182589792775137 8.026801921875096
298 -1.0726413796460235 14.274424816919714 -9.575398375381264
1067 -7.0194657617511815 16.557669435637056 -11.467514556523067
1216 0.562492109896349 -7.916362032845181 1.9234194032714276
1596 21.693248660984818 -12.22441490807793 1.7815077246413358
1486 -7.676118853315889 -0.07263579541074754 3.594698356124735
2083 -7.902404456161372 -1.4502064632822944 19.162352501904714
435 1.5878042245958996 0.900831772407011 -21.58632207153508
904 4.150174676325437 -5.660088230209646 -5.965816224540432
1366 6.987971891482229 -3.539328436749874 -10.038488585674658
544 -13.01098380334236 7.740274167811793 16.200134083475188
607 15.529952776174627 3.8161467604229293 -8.328171471554743
1417 11.214808699458205 -5.064323196032134 -2.420301259220061
1761 2.5149480635576666 -1.2358816057749216 -1.0669148207969104
1881 -7.886439131178396 11.78813626493866 -3.1594926718821377
156 1.8221958419696407 -31.72189951781921 0.9646078622719313
555 -12.077117580777037 -6.483163542378752 -9.143087777976145
400 7.526521572390986 -6.234257949554437 -14.48353069674062
1927 -16.977941513734653 -10.385026717143091 -22.856430626035372
1675 6.530864222756872 8.798876503099164 -17.421604269394702
2048 9.895796791790573 7.9235201485897075 24.626442211656006
1530 -3.485633287871361 -2.760592617532832 5.042879933896951
111 -8.42602327207631 -1.9473395672115517 3.2254158578426506
234 -7.873899430979988 -25.797525783625193 2.788401798731664
443 7.156623917894837 -23.469067182697124 -5.647505299704468
1312 6.239724902815655 -3.027305810343498 -16.583843481179496
585 -11.726313772641506 1.1302114949262443 17.4675549381199
1689 -11.453389810443678 -2.834680907741352 -2.5372825157698013
368 -9.72976652788338 -0.6913975382235075 8.782394724775685
700 -2.5863085646169273 -23.06445675754562 20.259105085854717
173 9.928862549181032 -18.894293951374888 -6.744942521189502
909 2.933765563866576 4.830221040126898 1.0717107891319044
655 -15.731913130735458 8.550639740432416 -7.28384627269517
1163 -13.897617075486295 -7.049942517544842 16.234685130120674
801 -7.365254612547545 -16.172694234913504 10.648895665981474
300 10.700432333017623 9.82386892393546 7.9749774525843415
1480 4.898390018077999 2.294307408788261 -9.278586849170265
2065 10.445022481449888 -3.300948659661794 0.8969098499932731
2110 0.2989258514345151 -9.725079141165667 1.9468073106462735
1792 13.630650236684609 9.305782979729306 5.179297914909497
2095 16.01350363132576 5.288980727831302 -14.769889095293008
1893 2.1117140636723213 -8.82962033308118 4.914676972983645
418 -6.450709472004185 2.8300084382069213 2.61510548732543
984 -14.817202563484717 3.3867182085804006 20.781775854596294
1780 0.693002606714782 -0.3482126745579064 10.512115159884335
1823 14.94717410469976 -18.10511469584314 3.2964225831317786
1351 -13.392835889939704 1.240068792643896 4.75769528730632
1977 5.897324817823659 3.4626307819858075 -12.742166142334225
1875 -20.189124791700493 8.234744342470991 1.717522588052668
864 -5.498773192876261 -28.394482820963606 22.689015947998772
671 -4.754357031349217 -13.455799749975586 11.696331445052984
584 -15.332694419331846 7.2217743910580126 11.138287429416051
762 7.005300230313542 16.139506708204795 9.094073942799499
940 -10.395487000004675 -8.125279108239221 11.984264798398629
1041 -15.017795593197258 13.910537375448431 22.921555515414273
1347 8.127288362731965 -6.603354294130181 4.709585592544311
330 -3.161775167440956 17.5223498462689 9.094319120208892
469 9.330757974285488 0.26028364899829715 -4.306988747839214
511 21.483715887522468 -0.5373264464636458 -14.932935690838477
606 -5.520827987707292 7.240556126685909 -3.3587758134354844
1423 -0.2903524197495102 14.251482355119895 -2.958664435547837
1000 11.390535008634087 -11.062474429967859 -10.20352231549262
569 6.360431156450572 1.451201337456748 11.724327017422299
740 -4.549493090736948 -14.582003536717737 8.842736127850843
709 -6.8879535269689445 4.7351675341624775 -1.7880542718388386
774 4.570519317683373 -14.892021822273836 1.313996201009507
467 12.777741552590388 6.730304149769051 -10.110250524968292
490 8.68752638632122 10.410270375140838 23.426324152086806
1603 15.97077575602618 -11.806235405474673 -3.316338413379337
1669 -6.920890162220315 -15.426644397779384 6.714680698501056
1582 31.82551695743831 16.000142192283132 16.011656537568037
941 -12.187900983055068 10.854395689213465 -8.518837740059828
1974 10.978112233920491 21.41251566788514 8.703862114778484
1508 1.6491028006109216 -3.782079095176726 -8.974720026323839
447 -3.0151538781019536 -11.773395004084154 7.006003329161226
2017 18.935255339260692 2.032218902762229 4.563714817972379
2108 -7.683143251782198 8.85609086053697 6.152599455312589
6 7.481170661656843 -17.960114790926095 -14.92593053179085
482 -1.366249774760623 1.0615088559459178 13.163513636321335
1353 1.2287765722554054 13.950518435547583 17.591842622430384
167 4.18053439696627 -17.893212722061538 6.706498175591425
2103 -17.860998064019377 -12.984173345343404 1.6033902637340893
1325 5.387132712236568 -13.390694629908735 11.231020992683327
1600 -13.347982844297025 4.16797174100953 -3.117875844667587
2098 -11.19430311005647 4.014474629244629 2.8072978800339308
1071 7.238697635172088 12.13544107791575 -1.676183863160872
1474 2.215713854229199 5.230463638509402 7.227753222979764
1441 3.828126619952344 11.585844668406617 2.544139483057135
1341 8.801930582573117 22.013351042219885 -8.544600195908616
944 15.424836802999328 -3.08023620911056 22.717065057164007
1099 -14.933711553068202 2.325468978358159 21.16697404918051
224 -17.685444854575373 0.3873115856535458 8.392475520359827
961 2.6336541136706484 -0.9265908720041752 -17.202795003635202
1554 2.470718636629363 20.211027464985413 -8.291425934159173
473 10.712496858841792 7.371239621361606 -14.281607416055474
2015 3.4958813153718964 -2.1125948657938642 6.581457015632349
1106 11.63823263332156 -13.150345449067398 3.344507956979246
236 -6.412063082192123 -1.084667353908474 9.144035348243502
130 3.2907434925141112 13.850303655658191 8.3887704433516
1836 -1.4852125106876575 -0.4010353284607719 11.744273857299676
281 21.03210774487839 3.795172132122142 19.698399284600132
1515 -5.786550331547688 11.359596288781248 5.529845703529883
1434 -9.577516039706095 3.8655279285083455 8.015829382074303
70 0.7857397110941706 -1.4501989353914773 -5.479392948909977
1983 5.7360626009297295 24.439118215391833 -2.231692754544413
1775 4.2686978541887965 -3.678945675422604 16.13984077807512
1128 3.3904375369232125 4.614793648397052 3.088864271066591
288 7.066332263336983 4.521053341462272 -3.7624079014443725
520 6.09186085959783 -4.863002766274183 1.4705734146541376
1285 -6.433938594721589 4.822473961924183 -8.618986165283944
1781 -8.587000077866277 -2.307819374567033 6.3805197307068315
5 17.37361986030179 -17.433853726807566 6.472821538678515
1951 -15.02847561661947 -17.695276723452572 6.1798379258416904
1716 0.6217730020964537 -11.890852687866984 -1.1756823140233146
1052 12.92688347535199 -12.724852065799537 2.292684635455473
770 2.735463794744819 5.83918403042928 -8.45442198942883
2059 -11.537794629229591 12.935753807267895 -9.528492777541613
938 2.6634891268069576 -2.3800412388791172 2.632123058022336
648 -5.827456097090713 -7.123343022479252 -4.108737865150361
51 2.886182308184686 -8.238250044320662 6.1767392052400565
1602 5.683466359527415 0.3596768159572373 1.7859694714922567
154 6.800261380967414 -1.0368942166708852 19.144573243246718
916 -11.918434215112269 -9.811742153441584 17.47866072284676
1063 -7.500340662436868 5.885424775142907 12.677789866078614
1722 -8.829267805307195 3.83522740948891 -11.596887349297312
350 -2.709211398049945 13.04130275728553 4.576655369756155
1733 -3.6703629720727258 7.702282587109897 12.259486199051596
483 8.852148527604518 2.43999311910733 -22.012552361190718
571 -13.28042969280696 16.545571494253956 -4.467276130946142
614 3.0142373253693404 -7.003273564452634 3.9982022070039407
756 5.783542850591164 22.103614257783775 21.246900693209593
1477 0.2363313215476361 -5.136848489961918 -2.2144163260203054
1277 -18.75180249156944 -14.844214432890814 -2.264849119625208
1209 3.412352049245928 16.774655746430344 7.118461210746703
458 -5.585633638821813 -3.439377148235896 -2.05710069342999
1334 -0.631874785771278 8.944763314521257 6.257907461795514
1811 -1.7065460624522366 9.06910793986051 -0.41326899392023275
1188 -0.11902017900022706 -14.666824102166256 15.914483177704152
1840 -25.098390832441872 0.6563036888623176 -12.90639828211239
1217 3.3477621808683264 9.477344157291945 5.481978925595461
1601 14.592913210022267 -8.05673869203469 -13.499624968922891
1529 5.2456799803090135 12.356340289625363 7.661967331301573
1670 -2.8374615825905756 -5.630708617638409 -4.632602553894956
2013 2.458791838052113 -12.12581637766719 0.2291496460913057
521 11.543549961005386 -0.5288671867507375 1.7753188248110685
758 -18.877852132531043 -7.664100308012974 4.109569245254261
1242 -12.510265034903522 2.6797326644891153 -15.34955871551959
1324 4.458232496969605 -3.3154440134398864 2.4511793865988603
1470 -6.8217040271342775 14.715556666667943 -8.83742176498808
378 13.885353892524858 9.617008389306339 -10.161152250883859
814 11.580644356601253 8.353439815212331 3.915366522404296
472 -5.840901333894171 3.6078655283121703 -13.581310948287946
1548 6.756405305700506 -1.7062110281863676 1.3515675638624713
1286 -14.794643858115592 10.931479149941522 1.4944212917882376
1629 12.782891898324737 2.3380290320158843 26.01122640004894
109 -4.856412463195889 0.2622822175139989 8.492084973801182
1064 13.083626073719952 7.218422791685942 -3.39230504422492
1895 -3.379953456201072 -3.283524881415549 0.6198732788339767
654 0.04558036785050692 3.3342895822432674 -10.459998174119423
888 11.393911452165764 -17.72812521207828 18.202670052511586
1876 -4.173535885928285 -5.890047830888142 5.532135757291672
252 11.714015374715826 -2.6900275288503948 1.7116256582861296
1467 -12.914829560029279 7.8480889902058735 -6.006490841103824
580 -3.0903351413283544 -19.555824873431554 4.222790629563705
590 -14.622744882879017 -7.860609229450469 -9.498727864605794
1278 5.278473347138752 1.211754610955359 -8.501228442213014
1764 -4.678056770250312 -26.43806686675051 0.035018588104713776
1994 2.5812240022368047 -3.103701119046725 2.928423259951327
1642 5.367256153406431 7.741871994090959 10.281282526279062
337 2.037848572383991 7.62433943173709 -5.0627182967618864
1148 9.79913380399506 -0.6883351877157041 15.599702483302154
1375 -0.11483300232043464 6.924949827587868 17.773039563430174
999 1.7142336352254013 -10.298255028409674 3.3091878046508922
1389 -15.923093750407624 -3.986105840175078 -6.077260259645611
1130 5.924549574855007 -10.40812572823719 7.78448712040279
1662 16.687998870111077 4.49758227650576 9.255437034798188
1240 7.091284555455963 3.352835500027579 -5.486638638853498
1101 -4.4359380933725685 -6.51022743081555 10.92192425711358
506 2.0587170496587626 10.10891095471728 -13.201803626994671
576 22.755149150890098 -20.33560971808631 10.948506396017859
824 -1.6480189732164894 -4.203106545750654 -18.52848345082781
665 5.693635467773949 -1.7381183149977462 12.163136566784855
2118 -10.029096627590754 7.20392135745283 -3.645808134972508
24 -6.121961320990146 -17.175214801171155 -21.131842949892413
2115 10.986820796483844 11.933801617470584 2.0493026328966426
1029 6.896445791060464 9.385676625113502 -6.893419819388684
906 15.352148289560917 -16.83678002134068 -11.669684112258274
1695 4.001502895679314 -10.611468000337485 -6.142557797471704
918 -15.211057071806165 7.9281746534702835 -8.74637002349391
1173 -20.485663719008077 5.6228586872347055 10.248810512137283
698 -9.814433822277545 23.036436520377265 -5.537011506006765
1542 -15.647722942007274 -11.391943221207836 -6.508573872872073
331 -1.5477418972029997 -12.497388435190345 -4.9891158556792705
64 0.1459656077132508 17.475252504649713 -1.0012708445918792
168 -0.644961298599353 -14.52822084584306 16.544460188792122
402 17.01648499775362 19.19483344885492 -4.587253241246587
158 -14.001766159862823 2.582415330361971 2.0955395544896196
357 -8.536820655029725 2.0927082610446566 -3.9227623631775033
1610 -6.647292967639144 -9.673100812978449 -3.5013630428033005
647 2.8520486760004125 16.329528494616632 -11.382159355876187
988 7.432891119089167 1.3548687928615697 4.069683494917228
363 -0.5571678153649577 -10.1506890899773 0.8100723669830282
1416 -11.280140890579615 -8.298385944792697 -6.873762153229621
1340 0.5672332302740348 12.406169230208581 -21.82510253872091
1332 -15.955639647835829 -5.2230044866505985 -18.864760644713268
1701 -5.601019168722351 9.915145895442791 -9.343939521503223
84 13.418052963933343 -9.35562288756579 13.395252468579939
890 -4.903284770541361 -9.317178596812637 1.919051497935487
102 8.920798267464157 12.611531218946014 0.6864936471186893
2020 8.527666587527488 16.28738309530083 -0.7698622254142042
491 -10.094981672029167 -13.094430092694356 -9.897952348891172
1090 13.523263284731653 1.2723792191774612 -2.9507637978967236
2010 11.575341802568548 6.076208232490123 -21.75443884991696
477 2.19076416133817 1.2672890487890474 20.359208863169922
264 8.52165023848781 -16.7238234114156 -10.379456993256715
960 18.02156072591642 -17.684271689764383 -0.6771149476062021
531 -4.518150494301605 10.470807597527006 1.2033994638551553
1414 -0.060093939566618446 11.970131388555638 10.14310838969878
1499 1.6616001102124045 -4.115539685572975 4.742080068511734
1320 -10.52426205054962 8.873121033895423 3.992950445384356
1299 -0.4932083684550792 5.975387169115062 -7.921639203156198
1109 18.335375632485967 -16.943788156973532 -9.097192136153259
837 -13.737843879286574 7.254229017414318 22.411447058180485
1159 -1.6714458274178452 2.978664209362677 20.311626140507386
841 -6.934691551712007 -3.185577489370976 -0.3236863745220018
2082 16.87519741886139 -7.822797602843891 -4.816894199768723
784 3.657689272885124 14.557987935821473 7.119065593757388
1796 -3.8721568011786536 2.9038721734941255 -24.221769078950384
1820 -6.398198231513344 -2.643386975607174 6.793331526162606
850 -27.622530703021134 -9.957595011977027 -6.101866355260754
1550 -9.22082588022423 6.303969282968117 3.2564395200718437
901 -15.061585745296446 4.046962519221541 -0.9915142839756967
1619 -12.320882224318554 -0.2713903059448505 -6.971331119727989
2039 -3.8260211497360492 7.343389309867551 4.28087950536344
1179 -10.517014471054917 6.047121662529961 -10.348622791034911
1001 -16.037929826913004 -4.784852833778431 -3.5782857022763497
1868 3.1955353651452234 12.802116612269048 14.630104548272328
686 -18.125277720090764 -3.6885104392417887 7.837822760458197
788 -7.746895070132302 8.691229321239884 5.259101149510254
566 0.8304200795105562 -3.606591692148794 4.230670761680583
293 14.13622147714052 -23.630035151542184 -15.212650914648027
119 4.630384065677498 11.199217447756135 -14.955483755216239
1213 -2.0774563031220765 -6.213912240118115 -7.296984486543091
23 7.804443402446895 -14.723653907687138 -0.331607944391111
1791 -15.27420072763914 0.5919117733388739 -5.4586545860198
1349 -0.27960341170978026 4.018510989066847 11.951952479802804
1030 -11.40419263966495 -1.9264271771934731 0.10805478374375907
1472 0.3608923625689003 -12.33118331424962 15.156831757724932
2019 -5.2349675463982495 9.185104542399733 -3.819318136615264
597 -8.162277845369747 -5.142326630878511 -17.570175405223836
1544 9.188090853909406 -10.159142322719163 -7.326262473635918
1026 -1.5485932230196833 -6.581232482484404 10.913836262393177
203 7.8332300572653635 24.68636949791477 18.746722899210447
1142 -7.413241439780741 -4.24504169352175 -8.013569782212235
451 -11.483339420000974 -1.4660714423115042 2.525523602739324
1656 0.02000747676372065 5.304743080520304 -2.0215135373945174
572 17.819225484696492 -17.402193863085717 22.43996245504253
2037 5.18598315331779 6.0054253201153065 -2.129163012874034
747 -0.3993856045817099 -11.797016509657569 0.8092127672013276
858 8.86146401082303 -1.3523717611794026 -9.55731147885837
1640 11.372834938779572 -2.699914605855107 11.743278696276505
268 4.623175270059652 6.927762459726624 -3.3955371768937326
669 4.443625630883042 -12.92515824106826 5.312804811459969
836 9.906255980843627 -8.752393225790993 19.34266613556278
1564 -7.886999096962945 -8.421240592346619 6.004250979276545
1004 -15.510963591061053 -8.199517825405486 5.916544932025991
1149 8.225057764699686 -19.743028870557307 -13.552353799141969
2026 5.406446920087234 2.615104869096324 5.8374779266829115
529 -2.3869306859858788 1.9755446677945623 6.202805366068181
1207 -11.014967247307494 -1.208180662849932 -3.3306749642157993
1970 -0.49736142067112504 -1.58354470129011 -21.081873870514322
1522 15.195575184498855 18.719058109696707 -24.25247302427569
424 18.128186814002614 -13.315475488113078 -16.382361105833667
2069 -0.7578824028329704 -8.549859005372046 -5.00046979873265
894 -3.5075342482825587 8.90231533742983 24.97294499254185
601 -4.17167764484966 5.074925860461683 -11.788494311409114
322 15.344185821077303 -10.081657397875244 20.110034695899575
454 -11.19202609426948 3.6224057440565276 -12.817206053487563
1198 -6.614588543544812 -3.776951664592757 -22.068013694946785
1190 -12.148078273169805 -2.6088352288468464 5.418728738806221
1913 -7.031487880068808 16.51175764059447 12.751408459715787
1168 -6.362242034582785 9.233613319589644 -6.291413268530802
1398 9.478769372253426 5.659072948717418 -2.8602445891695507
1847 -7.8693679867088395 -6.227809330019648 -0.40967995887813025
86 -16.46080246517503 -1.963039445815799 -7.086184143716293
2058 15.547999728405465 7.982308382552652 5.883720478626713
1597 -22.740428397491502 -4.835538789243648 -5.755596760690093
428 18.482782757215396 -7.406973646138826 -14.729034174032181
429 -12.676200721462832 -10.661028826573299 4.560141847476697
604 5.210242939332527 -9.062158050748605 -5.470056249031419
1966 6.418655449097336 9.96884709361793 5.151086434204575
1322 13.67071008022886 2.5899775374879543 -3.6668391178018016
1463 -4.396478895853018 -11.6760345288124 -1.9296536384496483
1227 11.270351553621918 -2.323220377339273 0.20611167397910868
754 -19.35634995894581 -7.173579920173585 17.180291916728066
325 -0.9997948144015061 -3.004499123059382 -5.129580043977983
935 13.426566461215998 9.036510147467379 8.73092338061656
1630 -2.6709526817500078 -7.509116703847267 -19.63654827658976
1012 15.065786707706092 -4.281350551982965 3.737608445533394
1525 -3.2966238067413784 -0.09362679739686458 -21.848391559269192
1401 7.963533706021005 -15.617597570073398 4.34877492578769
688 12.053770223258045 -12.863413029334545 9.198035625278507
1498 1.5873736993005485 10.37926593912463 -9.112918568088137
2 -8.693772125557162 1.9149100195127708 -12.037949384112258
1494 -11.014649662593095 -2.871254204685648 -15.315458595246994
993 5.866979699425398 -7.451025136852512 14.493176483317146
1798 -12.443149807795463 -8.990386552466786 -4.391305602024026
1369 -1.7213984280611412 -4.150588071024552 -1.602194460981101
2064 -2.356214488184043 -12.766108360233666 -5.226506414346424
805 1.4517542265236323 3.153932617357237 -13.341086816131199
713 -12.782644446013222 6.613965295084871 6.752653941111109
318 20.73998586614971 6.653185794158257 -20.81252316875464
1789 -0.4054981032335506 12.367527874697208 4.209880944829675
1734 -1.3659965449308646 6.562524731737724 -9.50902718360942
802 10.170327849379785 6.639729896387576 -7.6315707092737
992 9.920480263517986 -3.8361059656297454 5.290358386442876
2006 9.883064357136627 -10.700312181544904 -0.6894580447702966
1979 -4.7152433093456 -10.104203799663301 -3.48369448900764
2097 -5.781157926311262 -3.507652367406284 -2.2056611082650788
1882 -7.25112205827312 1.001682263734055 0.762985774537392
1206 -25.977860471617372 -7.000431209082826 -10.017887414440128
1917 -3.9202557112115772 -0.8010814156501412 2.875311488898833
452 16.519272112969265 -23.344829550084796 -5.5279428517177305
1747 15.123238402160608 7.127397294349615 2.865193354603842
1191 -2.765477207786539 -10.730362800139929 -6.967682543454724
538 12.095364412052557 14.916503154375006 -0.473674196946146
2133 15.205120046468661 -4.225392551089598 1.9772562644792175
1176 -9.991500704007034 3.8804439358073974 -6.145882593503344
928 -4.906632891188771 -13.701751953421267 13.035386692598685
1580 5.89134980438967 13.061740038609884 5.935407170779379
1245 -13.567350126889297 -24.59251500001583 -10.929540246612978
1113 -15.294651097181905 -3.481261172194621 -6.717476413926928
1102 5.623473586609335 -0.537952284648143 -13.855020822937151
966 4.011855468040722 -3.170700132257606 -5.145962442187582
1931 15.10158035476438 -10.278800106787447 -14.977156553332721
1971 7.347092921019366 -16.81867726976727 9.223049384751375
1541 0.08026376930796461 11.427690562259713 2.2531972240483205
1962 -5.00945374790872 1.410383992392686 -14.149749306013822
896 -9.619268698784532 8.193515350972781 -6.83062560774388
1296 16.830679029411385 -4.047092793348503 -9.581918170243869
1355 1.0092975920994527 2.184545485277225 -5.131820977692552
1694 -2.935364955278362 0.9117726937205262 6.736682759062119
1152 -0.7979288794499032 13.425890811731758 -15.753138055182568
965 4.205509744727731 22.017871549510073 17.42207027405161
628 -13.084712744637939 -1.1801686234038533 8.935546721917763
1616 10.16885548863599 3.9964030548914855 -4.310525010774089
1180 3.4443303067597864 -0.8834717651058208 -8.69998497152871
270 -2.806462414240803 -4.007893700109536 0.5675575376400156
1080 3.608879010386929 1.8178845073143932 14.768532939970543
142 -21.16136510399269 -1.4443150526808672 -4.8377372385280895
830 -4.681713094333129 -5.79697077376034 2.964950203481667
1077 0.5634045788100169 -0.18853939638838005 0.29494552402165963
541 9.72607586471569 5.767316471007078 -1.3484391443477985
1126 2.562279801918848 4.016466865446715 1.104121570064897
704 -2.780874784637858 8.504866464961163 14.407281421089914
846 2.1162506548481206 6.440698759329195 22.48819324681013
640 -8.311750095608698 11.997969395520007 -22.486072168335234
646 8.942854481491569 11.398081528337915 -7.166020554198526
1247 7.477040506185868 17.65939040878936 -10.349076653123483
1273 -12.24461356265234 3.833166271214952 -7.213873818762732
1907 -0.4184163174406105 -9.649877921844343 6.835920784611
844 -13.148244641736493 0.025034915058731465 2.8460991479858806
679 17.158741562406295 -11.885689899604703 -2.732266429865864
101 -17.402328688015064 -4.804286377139313 1.6368084688632227
1473 1.434957145154148 -7.828229439861453 13.96532501688776
523 5.743987320924909 -9.808532297386629 -12.141910535590089
764 -13.954291923854102 -6.345339188923781 -7.463612906067892
871 5.910604218274074 15.686334187008935 -1.4291453540110106
1969 -2.11177652442881 -10.38664529348934 -3.3729453841808943
998 9.167444058336047 1.0783761639964287 -8.442217042351034
329 5.31660515917405 -2.804337722292543 -12.217683191178532
1049 -14.286851904892512 9.092272009518256 -2.6108301904835445
1246 -19.307832152897287 -7.3112184614958515 -6.2406021708289146
1459 -11.248111371347564 -12.564721868914246 -8.22879127033876
672 3.059817209126954 -3.5208499396489765 -7.0817457331054365
1112 -0.7677847322916376 0.2283813098196642 -6.624079770088526
374 7.168492140738399 -2.5973766752147878 -0.6175793198420574
1143 27.48175003699119 17.71444039433852 9.003219180536027
1718 2.904839209171824 -1.3993985279140588 2.5814543096294678
1805 -4.520058558218007 -8.80290486252174 -2.5961650917068035
1739 -4.21700268153187 -0.8466819483512394 5.890281084015916
554 7.441550260433159 6.469006221943834 -23.532266591963083
164 0.5794411604824696 22.286889077735726 8.231124463088843
1989 -1.746819976062264 -0.559866071909349 -0.6019464021299653
1505 -8.58264333021072 -12.158122953347986 11.697475288693797
1239 8.663390407141614 -4.2927560512190786 1.6010336883290093
1291 31.375032355187855 -6.701928019104609 -8.25658670529174
1778 -0.5235749164544883 -0.24227717443184005 -11.408453386689128
1005 -2.491116179186633 -2.0449598133937017 11.419198598605371
39 -4.036984030288995 -9.659497357474065 -0.9496266149252969
953 -11.837421794908987 15.175739791961796 4.137093485991093
478 10.0745170506799 -34.4522076397539 3.1285019917256536
1396 4.27962980016998 3.2974121734121655 3.5446228703513536
209 -4.960493399869484 13.750640125859993 -1.599117821775903
1371 -2.4558519513099495 7.589026920058752 3.673009766649987
1410 2.776339227513708 -4.201049158284977 8.180070029915102
47 5.776203592584531 5.259130603775839 5.331686701777564
532 -5.469180565871016 -4.767974254902744 8.842415171566012
1025 -20.569924563901687 29.220109430765888 -2.275747534829073
1409 5.872503419143747 2.658433779839767 -25.15193966968809
1911 3.814257552917185 7.689672741872291 -2.3107539706739666
1184 13.693417770592212 -18.028508184492328 23.15925287198636
176 -9.153338001867546 -3.099140459911967 -8.648078158287586
1777 26.679911155458562 2.574914487756426 -3.1353979276259616
2154 4.609226840297737 4.7817784100090215 16.54342122049801
2080 -1.412636253272388 -13.449330627021675 -7.458179904103049
2096 -2.281662739545791 -5.99076192141868 -5.445384429860117
1556 -12.464712341368914 4.243303666940133 -13.741466794445945
1110 7.077221485895196 15.358050236183724 16.78691726259556
962 15.106910757107338 7.883513086529543 0.15145207024746882
1942 -9.910034302856515 -1.571837129047737 -2.973532626980522
53 1.1210384205723098 14.844101366174074 17.53951248578401
1007 3.8250828204282215 -15.669906169791428 -1.7599261552599341
863 -0.21059641706123758 15.40444041585896 2.890192698055409
185 9.139747563637517 9.47625705096803 22.44857356749005
1365 2.874724583689881 4.0982348030581655 -8.735317078870445
913 20.099510294332845 18.27277631046916 5.268010680016475
823 12.353329703327821 14.819504055107997 -2.101071421239691
914 -11.045403205558658 22.256595162698673 -8.688778345152045
1019 0.0983587119735007 2.4250457374968377 -3.2245532148017175
695 1.454180879793188 -10.245947539565522 -7.84659787031683
496 -0.9119503664095792 -12.35880964668056 0.08918401030597511
860 -24.166631154598942 -11.88753519835404 3.2033993825076417
970 7.098846744931366 -0.7189658156561395 6.805948291896833
1587 -16.550875172635195 -8.452825758167895 -2.437734544212111
1692 7.932299928531905 -0.641572139239555 -7.719928762586147
1998 3.950957884265834 2.2780297441622346 17.55011962306026
1655 4.030855854306699 -21.368140281034528 -19.45700244061695
925 4.434638375578775 -9.9426700046811 6.505876047644587
2045 -17.03228780298438 8.604055871823165 -1.2002563665702248
637 -14.129277552605322 -8.61119800040232 -20.36479901485995
657 -14.442498332017452 14.599997654122173 0.2559559535399325
1121 -3.901543629556748 -17.804300403473064 3.735000863336721
1310 0.34668817347866304 1.1131545949569501 13.999189184958567
1175 -10.868684292201994 -9.631845029982465 -5.173074605671822
32 6.5905586762162605 1.3889581037370093 -0.6993940627851587
620 9.481530077651234 -8.186726963688571 -15.952977279118656
1788 -2.6266647599617476 -17.254270505481735 20.783337236888276
1659 7.469431224955612 -10.877744887229873 -5.081620176204425
2073 -6.562881148413286 -0.026732166111876045 6.837843917693882
653 -2.15200763595977 -8.8478173852906 -4.241592530618057
1839 20.3842723377204 -15.749623699867074 -7.613371477098267
1822 8.972615433208347 -19.73464541148539 0.7996099855971348
973 -18.509861358475312 4.9155932073969915 7.720886250279929
1771 -1.3397091644563528 -25.30804703029895 17.584392202009308
1249 -16.85347959946746 2.9015178479265606 8.696325797871754
1929 13.552162908541083 -21.02360479239317 6.981115915857891
1769 -3.6758655044916253 -6.735604402026905 3.061461481881464
1910 1.0983212892039744 -1.028198723144233 0.7168016285855743
621 3.6374142630081456 11.246611328182851 0.3465588955876052
1013 2.9379942142558546 2.2883351939797083 10.371660664022222
715 -20.50468889013457 7.254528673616269 22.758102392677934
1707 0.7384059874207798 2.7727448863752087 -5.747159532155052
1066 7.015670418816139 11.611285872540869 -0.4641338248459344
285 10.435733624884964 -14.913139003116235 13.309923858062493
1765 3.273196047257163 10.963883631944409 -6.983994221956596
778 14.456910916627045 3.2169065215279966 -6.654215753837109
1491 10.995981876965612 1.1373584521156028 -5.412829007831242
777 -2.3217418162984336 9.641072966742476 -0.5942161094332529
1082 -4.481839254141319 1.4616620069223119 7.926398864069635
1535 -12.468666225189784 25.763616982844344 11.776507409786467
1960 -3.013045981916927 -7.1573793584958185 -2.742658685663393
1406 -6.902759002949168 -0.9392485629446208 5.681779530913371
465 5.624735814505413 -0.0791029111933309 -6.168580213587212
1302 4.9230024455314005 -11.335745920738297 -16.122716992162054
611 -11.657458403041312 10.033398189555552 12.978158489257764
843 -0.6867699931005403 -7.510464071027896 1.4083422255724078
641 7.460421306727927 -2.552491594606913 9.637538155759103
1973 6.850196454550116 -2.0702183017009275 4.136675819748943
1934 1.9481692579276721 0.4177393081207553 3.299586419942072
885 -15.969669808221944 9.267909745617974 -19.541240693429554
926 5.04038127562309 -8.049492943732755 -0.9094013279423668
1651 2.957984075317812 34.31680204642778 -6.16119874943915
1487 4.255758035344327 -0.7518304479086421 -6.48660863475077
1493 -14.775076430942871 -2.6501770428794007 1.1995145076868308
1458 -0.5075003713588668 -2.363300459267626 6.9238549344613185
1265 -6.05872036065828 -13.80209616199515 10.655052362079878
1378 -3.7048163884190366 14.219919799114518 -27.495352090146813
385 -7.712075975590071 -0.7944679618645352 5.609127200585282
371 -8.260191992592084 -0.20267851153014285 -4.802414403528447
7 -3.5250720710672274 17.720044547494997 27.164535206820407
937 6.9420582722895805 17.175962672610968 11.58034924934648
367 -7.6612987014952925 24.813598389265987 -18.659432460501453
124 2.7084693523050962 -1.0855970884338106 4.504578765413494
2156 -7.031445281308574 -3.2151500295905864 -6.746384246215006
1212 -6.6071532046362815 3.1479967812355345 -11.690220862098375
736 -3.0511260353376444 -24.5105316273006 -4.773436010460574
1294 -12.886421859421535 -20.49521931262197 -7.932832477071139
674 -5.872281315101299 4.291215962281832 -1.0935183413999392
127 -2.137816158750966 3.873712636695422 4.810161324232886
202 1.895637999739412 14.93933737735964 10.543591414063185
1594 1.9526676816800619 -0.4239284114137977 -30.033516522086007
508 -7.595875711206167 4.369607107317528 -8.101415604305735
732 -15.699598748316419 3.5136316694600622 10.876568129655167
1648 1.504809161655416 4.1384910060668965 10.34728193772379
612 2.3744547092229595 -15.224663285062917 -5.889915402898639
2003 4.979456692380856 -9.52566259982198 -17.33142808200986
74 7.952367326787935 6.435032068075418 1.4943471593478281
1404 10.235389050739489 -2.712336366282706 16.361546018729832
1443 -11.728946162530407 -1.5456789785316372 -1.5370619671329202
1736 4.200141249228931 -12.42030799604849 -0.024332463977812007
853 0.6426875839194703 -2.6774655311230204 -6.411935598792825
360 9.205773412181967 1.639669109795894 16.134426883532612
1854 2.4669361322606935 -12.393238948816256 11.542381278968158
2129 -12.13985371539576 2.871806829276271 -2.6664131937770272
1036 -4.47487629495621 2.8037377226760363 3.7405876732561367
1759 -1.9490993778352113 -24.96974750543519 -21.560811889861064
1385 -6.030954247051028 10.418416536688001 10.52246934142022
49 1.396410526519142 2.784264279883781 0.7661684422008732
1448 17.0049351572629 -11.612417587730668 16.444349341919374
714 0.30128892281782893 14.999504392033257 -11.526546413150847
1205 -18.865731973335016 -11.698186634922386 -8.047589812309948
976 -11.825801206255464 17.214319281339375 -11.078297516004474
878 -1.000009786496358 -9.09867977641524 -4.230133722355607
1953 -9.927275730939142 -17.04805008587927 -4.636910059871514
1507 -0.6763751849092133 -6.998551950282817 0.42596903696194227
1155 0.763659415240911 -8.032584343860655 -2.633005142966868
1697 -0.5608771719015273 3.685171029027371 6.693516959107198
721 12.394220530576492 -13.953281990885898 11.219813632655923
617 2.175085050358072 14.121807023458306 -9.055586859154626
2128 -11.333575261072466 -4.466858375399062 -6.450328145914692
1356 -22.866390011539078 6.522135674589485 22.826883404501462
1614 -33.96743333642455 2.464646087288218 -0.3074637674049584
1520 12.669294800594178 14.939900244015138 -2.026120422879478
589 -8.973082439839434 -9.930575584217548 -3.93998254969717
416 16.356777372576644 -7.525502830507332 18.315312930570123
1283 -8.637282780655847 -20.7716424304539 2.2866561246254475
1282 -1.1714938669831019 17.48899218427888 0.21493773236085897
54 2.4326434217318926 3.241514771424784 15.899267292835772
613 -1.7581977386909713 4.322723136797763 2.1220869228522696
118 -9.309007395468997 20.923260115572727 1.7183418664470573
735 3.5040508773147074 -3.014202185613344 -8.900108638351734
401 11.176932885526917 -13.764494960563754 -16.90973384080727
1335 0.09352979181324589 -8.645936327722813 -3.8628416768377525
659 3.72518134804066 -0.3800208373875132 14.723514738735103
664 10.046865144193472 15.294065133915423 3.6230611210971086
1869 6.783334040441368 8.23835017294378 -18.894639854147464
214 1.8898755692768956 2.2348108973687935 -8.223518028448519
1958 -0.7122524425435266 -1.2267894409702118 21.22089886693165
1044 -0.2554805042587928 -5.2533367997368225 7.736316196208354
1153 -19.88581758215579 0.36244844889238803 3.5721817354278276
509 20.666626440820025 -9.109729951815877 -0.5769456851258564
1238 -6.2655683295336635 16.49547181056651 -3.076802493272507
1146 8.839116347127453 2.1145489287420247 8.166882118353886
1676 9.277433860468735 -2.911506012556927 -2.961958573059245
2122 -2.858539505846028 23.536114086402613 -20.021978176388885
1562 21.006649062266103 0.6075804666621762 10.834827720860742
296 -9.656085117790171 13.625741128035582 3.9716531975918925
1800 -12.322755815591039 6.907870918405648 -6.496202669057149
474 -6.815562864101016 -0.5114142233025503 -3.5073986962978356
696 -14.189863283517225 -11.724955537277793 -7.009376561182623
2134 -11.239092090412528 10.855148474321124 13.771432161359666
1838 -8.402476473488239 -10.682753260247472 -12.288441723113488
1017 1.0511844913860402 -12.879618329059387 -13.2562570821813
1622 6.4025137989765115 -12.094004162845804 -6.618749448800816
1135 -18.796329654642303 -11.550503434301712 -9.48200977942506
160 -11.989078476376058 7.700504202786837 -13.787037355609051
932 -8.334435406116121 14.44525110272317 -6.2198412829428955
1315 11.413503603620047 -0.528809992395552 3.7810856434889786
237 -11.614442257698215 3.5834322837734884 -7.537025158539275
1528 10.789707051866326 10.835181548930633 -0.38090909244057686
776 15.556763121251795 14.185453292661295 5.3833567387429
2152 17.82180508863349 5.760395380211083 -1.3891018752605393
1784 -14.000980180773713 -3.917383357332461 -10.996835966253192
389 -7.972250230416955 1.3898494119850693 -6.873040804066947
2106 -7.42978208344129 -6.9577158540007265 21.587586003102118
1858 1.3019472650351767 2.6979135754271604 13.589904082072142
1428 -6.200784398085334 10.619274604004607 9.426781284968454
232 1.404465013013378 2.744723199073337 -10.423976107661238
171 7.101095716786364 6.2117589399131585 14.746454205975144
344 2.122441851796218 -3.3107983228239455 13.230378029808692
616 2.125166361389462 13.64205641592157 -4.248342341991527
811 7.155461903147148 -2.240548359372187 -8.754469926537983
304 -7.08497119604168 12.990437299300975 -6.373221982032031
1939 -9.369100897718075 11.179821162166624 8.840249310612494
855 14.894555023143283 4.3135796500969015 -10.825805099158517
825 -23.3298143712389 -6.235363373814432 4.05117260553888
193 6.4988481274334156 -5.541235903446034 -1.3241702089364356
126 11.038396548097133 18.956540624485335 29.079176158728703
743 -3.033021470080278 1.6019103902655878 5.908044325829664
1022 -2.654368647307753 3.2521724597131128 9.615698898836408
519 13.090058125140844 -7.527579180220909 12.250726940022185
1199 -16.740643791831253 7.148030572138722 10.260663800385288
560 2.886032740800651 -7.042091507302427 20.16400009786923
1738 11.033028469717168 -0.1662644285546977 5.497962617591267
15 -4.130566260304265 4.440717850804859 -21.10359328072257
2120 3.3559732213063445 2.5426567964676647 -5.908216159301383
1999 -6.100952508451491 -12.292618503903283 -4.8129902543812895
581 16.99913348167947 15.948339238061873 3.3190720740053865
1088 12.78047699782675 -8.73288009532139 16.95539701025732
1888 3.570840821921286 1.3528882083945823 3.4462779589395462
1959 -9.699719431524676 8.826923088981777 10.948442756302537
2051 4.230940701728505 7.603973122773892 6.381032652229395
1073 8.53421033905021 -6.4200824980493945 0.29942058103304986
1492 -6.805752636572094 12.412167560852186 -1.0056277958795097
235 -3.9907527145077526 -0.5414026920197867 -3.8798682532007858
1905 7.609710416947738 24.445763110268327 5.492989616263886
1503 -2.6235656387996484 16.75646730914808 -4.173462453149831
370 -3.5161287541143174 -26.41404667711703 2.7699959371714233
1834 13.336653923001021 -14.52754659921096 -16.92850150022279
61 14.326667756548062 -4.998968812259311 -19.05321161355263
361 -8.98400643212623 -4.382352147529759 -11.447133420185729
668 -14.929769435939638 -1.653459622123578 1.7028087611424267
1079 6.845308736188197 -12.678839168351804 2.4734359511811066
99 -6.007091726456572 -8.062150287045165 8.341141632038623
217 -8.247009939490177 -11.071904005707948 1.5097145326140973
1411 4.562227850571202 -3.9104957689511144 19.27613330174192
251 -2.607608363235144 8.249955615609181 -0.8854143768499254
151 9.206501408991402 -2.6188643795108852 7.19330145892953
1719 -0.5268270418348989 1.4946668884672663 -1.1889677794968228
335 2.120469075283795 -3.669956672987277 16.226321627733622
1139 -5.476883370518859 17.5100860807221 8.145379811381355
387 3.6766921353614133 3.1527277086629137 8.26011619816219
1745 12.710823559242566 -12.465457903398757 1.0371548846247718
1141 -8.128952535237596 -10.651381010905249 -6.922287306426882
1915 -18.050208781183628 3.1913525643565372 -17.429267856455358
13 5.33664927249597 -14.35275542680557 -7.8835607315138025
1908 -12.985019611902704 4.772944059689668 -4.6129363415193145
1709 -8.020063357903561 3.031958135878657 -7.766040591844215
2032 8.008122978539753 6.821111132788937 -9.091691710200186
2057 -14.639395159946085 -5.389215576113317 -0.8933712437628678
1403 -21.592155973133075 16.145554946084488 -7.28419635815026
2126 -7.940388195786427 -1.437119254640604 -16.740382846322998
1450 -3.459334580665461 -10.582743860429497 -12.846716838177542
29 -22.127759669241495 7.416344909332237 8.790314435249776
1627 -16.22169082957757 -12.280401675651317 8.477471271114927
2027 -3.555681381176842 -2.8033909470765677 9.363663317104715
1938 -10.281184810477818 15.251014021504261 11.145310995961296
1540 9.869182808952301 -16.086072715141384 -0.977420573376299
827 9.243143112916123 -9.250789262740653 -4.003722250969076
1208 26.417091732349284 -1.0862532482620362 6.344855724378597
1637 3.874033297079657 -2.442864870606665 3.4536774966526855
1816 -13.310805604994123 1.3288720225321418 -14.030576000230921
1880 -7.089409814043015 6.1187772632134125 16.139744082334158
1308 10.274258433152816 -8.6711453640599 -2.1249360668847976
623 -16.2882075810715 2.5898914448316583 8.4457249912731
786 -9.63295223461377 -3.430157334142202 6.993644727006308
1923 -5.949905021413624 -0.9035922442528003 5.8062561803148895
1665 -2.969730886887745 -16.768935918526353 -6.079128167241388
1181 20.182385768809283 -1.4252460019703943 5.070506669141809
189 0.6723439923105743 12.20663187551815 9.905028091050095
951 -8.809296227907758 -1.4675970226839798 -9.105916031144572
1350 5.369376730171024 -6.256949570122091 -6.816839014552345
1766 2.6989185537089067 -7.979238172511217 -9.486359720097676
2060 -13.417040641447779 -10.331109800328067 -6.785683753433211
707 2.5299689217681465 -8.145299348345633 -10.34446702253404
1083 2.7785798290734944 -16.62644756671668 0.13941417623698027
924 6.109642437600213 7.383838659052718 -8.94491537944028
1926 5.293238466156254 5.998514897969643 -4.469738072210506
1768 -15.292831028921658 -14.601612838564732 3.046067341843529
1321 -0.9299219722533936 -5.664928537487623 0.9269934395563804
68 0.11510406928702917 8.27357824025554 -14.552481377385757
55 -7.711652477586612 -7.50198263786477 -13.998372046864299
1096 10.67439818673048 -8.092933683011776 -0.7872375559418076
1819 27.88806520665342 1.629062325586814 -4.883618505721783
314 -2.4085333875566883 -0.12860905021079483 -11.44956138962722
1809 -9.75010606794899 -0.9574133350996211 -25.608154877718626
1623 -3.9479947251002416 3.846640760074165 -0.1308020508581792
1986 -8.464319229193238 -18.45117450151206 13.739723324097097
1400 1.3110522303384247 -16.71958028539834 -1.7842827232006957
1103 1.6412279935233536 -14.803981126284828 4.760837114498819
242 1.3002033915118005 0.8234034238192611 4.055366833093663
1440 -1.6440704431039153 -2.715712060130108 -9.60350399884442
1712 7.096649097140186 12.88324280192633 -8.631690463092298
1842 -3.9556044622598554 13.380324847779825 10.613917467880363
902 3.367898133589077 10.493124042384393 -7.4641994313695745
1604 -1.3351386314680624 -2.358010983199445 -16.95683182380885
2034 16.4123089785235 -3.332033405836673 -8.15392305259477
1479 -8.425157400416571 9.279965157532038 16.00610207313351
108 1.985140204710838 10.60028200391615 -6.1297113493623945
438 -6.85133776383552 7.222565373928554 -16.745635508430713
609 -7.351484870833383 16.409863657759498 -0.6914133069047234
718 -1.2889794010338058 1.9984652413028352 12.348957146622372
1865 9.422046784503783 3.127079562460229 4.5255036474673975
1613 -12.642201227333372 0.801173341683181 -24.480432850400824
1060 -11.582597142819639 11.224697689107597 2.1354968572849264
1903 -10.813226504148016 2.5429770451946547 0.968469828879831
291 10.689752737916265 -8.162593331464729 -6.636155701585351
1581 19.477806390889793 0.18829266919076915 10.818417440352558
207 2.79778559186593 -10.06874524981581 -7.035872551591577
1904 9.788175967371153 18.992486046972644 -7.708043456607872
1680 18.912583878772217 -6.5991485794402625 -4.655807159197585
627 -2.6210577265355313 -10.722659163897346 -0.1394876561562153
1485 0.06087836804642001 0.9417176325744129 6.508254281709918
1874 -1.0158375765997694 2.799362915635266 -4.02209890023818
893 3.057415027860789 -4.687922538506658 8.96716253256657
775 13.548787313755783 -14.013342044738291 13.551568507642623
1886 12.681167046410533 -3.2342317569795656 -0.4976056530470928
643 13.67508992706223 15.699930690612169 24.770729214661685
537 3.8176751685279733 3.632345565245512 3.1242065266216823
1633 2.2341722160769 13.14442795837263 -11.661803804409852
676 -1.5602822619450811 -15.53265573765238 0.5959046020290153
1038 -5.23030896366733 18.104735208251707 -2.452087349364493
738 -1.559909281115845 1.3698186964538195 -2.3967511935856574
1418 2.7169333835029046 5.292144660290034 -16.348439396269846
2157 3.852696936728367 1.900998055261005 6.088812829669683
359 -12.644099018813751 -7.617548765321389 4.409718572325738
1956 -12.052404454195653 -3.126842820846124 8.069382194138845
1338 4.388060111545134 -2.192039776123524 6.119354718716538
105 1.0074724444419882 -6.982473534700735 1.162718115779998
1468 12.383492576294726 2.0598008227473295 1.6744860083735338
1857 25.28395422439978 15.428333917322737 -10.612688852033589
833 23.966433460329945 7.837509978645662 0.050569124780971024
1735 -4.736338584198135 -0.008600833882625059 2.2474700583613667
1617 -11.83461301104565 9.280231304833679 -14.440868835263748
1866 -1.9950672910528273 22.247650424262144 -1.0724687098667636
1873 -0.5757666503527195 -17.703541952374554 -5.2321704522622845
273 13.12072964794616 -12.036072683062287 10.562902446595581
246 -0.3548072614611605 8.186315587800639 1.4594530445846023
995 -3.3586537675063126 -16.664344598636536 -22.243104455973526
1309 -4.627256849719372 -9.216846442362757 -1.453099594927133
934 -5.833947476745812 21.231339248280186 -5.932868812533916
494 -9.841660618144958 6.54923413031358 -4.6986172638869315
2132 0.3854751108622445 -1.4178780854671176 -14.763396167742462
757 4.07160642369244 -7.6910730791644015 9.821152788856327
94 22.06710225812021 -3.3680408409843587 20.685920120953377
1513 -4.473728938525144 3.928949809250037 -11.084062885845325
840 1.5565204038287146 8.51953661444137 6.5954579221593495
1813 7.836446396075961 -8.86395362748072 -1.7122946305268176
1976 -1.993521642745758 -1.9960540708879957 15.993803716923614
81 -9.036626102997946 -13.295170536751801 2.0990819576193798
2054 0.6574670376828573 -1.7864726356640703 16.63915372563549
971 -7.951538494179827 7.855221307708475 18.338712168606936
79 -0.9106100557257306 2.5912611852424647 5.883845133065964
375 0.5928647871512774 2.357587876952686 -0.21811816037220547
810 -5.194440358676744 -1.8187190293015003 1.885553449603061
575 6.243280536273478 0.9822791592665558 -1.3461589226235633
14 2.9024495628427434 16.023047617642316 4.427503721114095
312 24.089374417189994 22.464861035589884 4.489651104646664
1546 9.517433357144546 -5.980474880894779 17.38405021209926
835 -8.968044485517018 -14.236515032141742 -19.97091093426104
131 8.675130951553186 -13.736027496300217 3.819639708693207
602 -5.091482237849038 2.884069889263793 -0.8523041901808263
431 1.7535874313981545 -16.175195257840397 -6.9239165410845205
1253 -7.520690738818772 14.818167460836783 -7.3984167830808865
662 -3.121737688186312 4.209378213291924 -10.335101540802777
274 -16.479836512645917 12.352090529938689 -6.355792462498216
1947 35.1432752647707 6.6505499862365 -5.739266763609958
332 11.071239083662974 -7.247883328824313 4.038851872859514
1392 5.391587698627055 -0.769986507745837 -9.838804173323899
1641 2.4306129631326785 3.47605629980401 -2.7513616465942015
75 -0.9014418479333726 -5.312316949140746 11.541729759613213
1046 4.717827351199667 7.1301337031565195 -9.302645626999624
183 -13.576566455279389 -2.6275298144022208 -9.11195336138744
2088 -1.3151257113324524 -24.152186176414315 -3.9380574870371565
1737 -3.031595409421547 -14.06524864441531 -20.353273786000003
287 15.085491287012369 -3.188009432518776 2.280859844707202
1850 0.2266050256682607 3.8602358075183205 0.7779944838467034
1571 12.334373352042542 6.690885433915663 20.0717156639695
1849 5.955127081335853 8.453033535847647 -6.416726434694256
1856 13.797570567696525 4.185988240858683 -6.613087974380976
1300 -0.36321366112042003 -0.005768916775537956 9.584838577980534
1832 -21.272769860681848 6.483148614702682 12.857531635737976
1687 16.351448419696464 19.556012959008168 -20.588794019172017
303 1.5743415366983173 -9.138392934642075 -7.53977572695552
1421 2.4588975708014553 1.249700864162683 -5.087296706262201
1785 28.425153114321915 4.205248839223058 -8.68810711028442
57 -11.94034227814103 -16.495643408081353 8.31402070652864
459 1.4458957599265123 -1.07421824860858 -11.965850894422033
882 -1.2726858755330728 -10.94292136413737 -11.106083159779205
179 -9.684252270052154 -5.593318767508627 5.642165303165763
980 -4.176001454867682 -1.3788615620836144 22.641738082505313
2000 23.816943198450264 10.736550788624006 3.6340786744371427
1599 -9.349185993211833 -11.390838077535491 10.579230889686341
870 14.748750438650745 -1.1293308975971712 -6.567175561952084
2068 10.11922408968871 -3.8860878715769345 -26.751270941914896
1859 -14.531902404639231 10.728255744720403 27.264081708775283
922 -6.254136511716661 -7.755420100763582 12.024523319187455
445 -6.7244689402102695 6.298808490286768 2.6676440395475116
1268 -6.995461979202716 -7.89292089102208 -5.406920309760635
1323 -10.134894445347198 -12.217520535654664 4.299059964624963
804 -18.572413927629704 -6.501414620186164 -2.7200435386575545
1547 -15.125712518584713 10.331266605702156 5.67005130060382
1215 -16.92300320310129 0.44022812060641375 -13.548994390108085
510 3.8265003954069456 -5.437756872154453 -9.387309145721936
2135 5.680203589506498 -4.772688123464632 2.0812878785960036
213 17.884874470902698 -2.6738711062921037 9.06102017257355
349 5.7097672644082245 14.673900321916049 -3.467498480576251
975 3.1307098660562844 -10.182742972197373 -11.646151406664906
873 8.188806401539832 3.4988699444730065 5.677901303774996
328 -5.237551601312984 -1.6063788365085625 -8.01051608676633
546 -3.3897216503115746 15.563679141826668 -19.68777857023283
1729 13.661310937027954 -5.1465325336269325 6.832594275657683
1230 23.644410318824292 -18.11505856256076 4.8540186723934715
133 -0.9787982055743066 7.91212776756404 4.062731714659919
1639 -12.340381692309762 5.978850979310571 -9.85233288356739
955 -5.392326440573698 -14.88158862964782 4.36759626515655
256 4.7080907407556785 -16.50084982792479 0.19134824835616634
990 12.96857380029203 10.64568301382071 -1.5235502982401965
241 -3.429090353128472 -3.8307469348838503 -17.218365101623185
1930 11.696275572676583 7.778166784940884 -11.044811350352347
1713 6.55417927424786 5.1908713691298285 7.1636164399651205
727 -11.954349343953258 3.9287427143664977 -0.9534807233517923
266 -3.883634679021115 6.716734230457705 -4.339173845760392
1311 23.735230903644588 -12.87750809636231 -14.287036329852153
1650 11.049551116718074 -5.637557377031114 -11.658849824026948
11 -4.246229563886685 -6.002483080280442 -3.3661373169881363
1748 -21.874106453893877 11.196541873484305 -3.048824995924697
1818 -6.916250687294058 -0.5232115189526657 8.194502598390669
536 -11.745679867103867 -0.17788850477518753 18.957146117346596
1943 7.356294186428893 5.847001741602308 -14.278496290542213
1814 -11.627258945499392 4.323913397208908 -1.495263583525207
1763 -16.848871861751817 -12.236177013448293 5.2564765039752315
2067 -1.2389527498149056 -11.622677667932248 -8.216106433011046
545 -0.6826252994160396 -6.929750377854731 19.237594338179207
1531 -7.918652005514594 16.518758205870007 2.846955153474529
492 -9.712723660250075 -17.887289409843802 2.7316934876685166
680 10.155596653252264 2.6961765095893226 -5.152276718006104
875 -0.20280784205364205 -2.5480620671387966 -5.70138501344037
1358 -9.01908032430922 -1.529898170178304 9.70195745353388
1068 -1.2445061385428509 -19.440844487013145 9.640642685697589
146 -16.75173023948139 -9.391184611454038 -4.5689991451288625
1922 25.27388969726653 14.065290370232061 -7.158110102886197
1255 -1.6515723245060434 -7.73909837811136 2.8946578663126203
525 -20.48692093901126 -16.18392415038574 18.143073380521844
856 -4.640412689759582 -7.209996588578752 -3.5273742777158654
1618 3.2776784180107135 -9.571144160590789 -3.009241965652353
1376 8.660482839624125 -0.13035792532097443 -6.608173469111907
1746 14.77705369318892 -8.516396666930632 0.9957450985462625
897 -1.3814636647213834 -3.863183473565274 -5.305705892530163
1720 3.518156563167147 -6.8364992511102685 -1.531816671036257
1918 5.761611730220638 14.062013102888297 3.6577941961008906
480 1.9922079937940989 8.41421858600125 -2.696969726673415
1059 -9.547092457393704 18.903688022830654 -13.272067363267574
1028 -0.9720659632312999 -3.3677872090773175 -10.632512170490424
959 6.136177325965644 -9.054063745925056 3.960005758816856
1348 -2.7777739614974837 13.474255082785033 -6.203832781498202
1961 -6.80881815260679 -2.5399436654600804 -4.911589874700561
501 -5.128841149807225 12.676013120888983 -10.628240049400038
820 -7.739635408850069 2.0341526249406936 -10.539671853878586
390 5.397971645258439 9.383248555708649 -5.946291838600418
753 11.822726098285301 3.3780694589126785 8.248677452943943
294 -2.205368957138235 -11.614785110107368 -3.0109079280195523
1395 -5.0833233342275435 -1.963209860321659 -11.97012162627912
1147 4.283188202406129 8.556333928884106 -11.993963967962408
1431 14.294146700159748 -7.646149566413887 11.424029722301965
968 -12.854666451143745 -7.043272449959816 1.100529068577804
377 7.088739228071234 -1.3276621897460805 -18.27701231433914
1824 -0.5810129187369015 -0.786063528192625 14.684734617294456
543 14.295783950046365 1.1159342370851815 6.8831077006459145
1425 -9.089567953445597 0.7017465730536463 -0.057734714174991535
1576 -9.608557371071273 14.887240724828073 -1.3082553049466228
1399 -8.624565657801705 4.69966699080613 -17.870129275234433
920 1.5131374895765606 3.3985307327247543 -11.041150460462353
697 9.128973137616887 10.599944522907583 2.3400330159661036
1808 7.102081074299246 -5.367524294487242 1.9881789147784477
1955 11.077199404790235 -4.980323962561418 13.372773095234955
2050 -1.2870021647085088 4.857588416983639 20.335085894676478
1982 14.139417007871575 0.642210417514118 -16.47402379769944
1723 -4.552629868146545 1.0644140748309412 -23.09933437945923
475 2.4750036480633066 14.471925342211177 10.282457308744078
182 0.7405187115238586 -2.136264550221481 -2.709065741175286
1559 -5.419818806597809 25.685373194808193 17.67709653075507
626 5.674591601555153 2.3442510208705953 -10.324616387826845
848 -15.774308386187265 2.363598218390871 0.5429842936322545
645 2.656827137117232 3.7535786386234684 -18.296596238663554
1527 11.277370688340008 -1.048363630247762 1.9884365256464962
2035 -9.736330263416725 -0.5873572241397689 -13.587800157645729
178 -9.096023880301512 -14.62407771567772 -7.118318003303624
1848 3.9793961293700977 3.6939525691438906 20.118694212642414
181 -8.20899380859151 -3.978183410163953 15.702020986119024
1465 -11.010839653818596 7.522184674225626 9.183612460249682
1032 -8.61203160796465 16.999244486509202 11.030227602002578
1045 -17.648095703061944 6.670333070207546 5.7880743539186525
2011 -5.1903441247197115 -11.395415391282665 8.29359074354649
165 -1.256254041712547 -1.1579583611129998 3.6538788433048266
862 27.26578501955164 -3.1897626225263394 -10.68749897494553
748 -8.833695776932224 -7.199824013525042 -3.255145610522062
484 -2.022240830021172 -6.075988202769276 -5.985055528220439
1831 -4.715996154651108 2.6297370622033647 11.483916526554403
373 16.136738194975713 5.868892769329165 15.497455886377706
1397 8.63651530419797 -9.460314241994398 12.050614232095155
2052 -11.891899303151213 -30.30531435530928 3.848289540180797
921 2.986403640058033 -7.402560670924737 3.166752298496209
1058 11.253430900203824 0.4272256464438163 -9.033721728886398
821 -6.411441201538877 29.729224401716767 1.6828005342336554
798 -1.8238118934233967 5.4009584032170865 0.9190101838728709
1595 8.124789902745688 -2.4053535592104667 10.131926556368628
172 -1.246707331938728 4.84983149003631 7.97132156103279
1390 -14.572590357730911 2.3723459948098933 -15.18992862792292
872 -16.29014195242495 9.511358247792321 4.0404489174331255
765 -14.568447776805755 2.4149905531110734 5.418584095105514
313 26.507952230165216 3.3689173265177024 -0.16534111964447984
2042 -13.567673695134069 -8.928354383524823 -6.398686501544517
369 4.12665765855494 1.4555416666473333 -3.052118458165976
1303 6.129020429838986 4.60511416257793 -3.7849173611333464
25 0.4420520257261884 -6.239702785794008 -24.451493118194723
1008 -7.6335194229571695 15.752654959156649 -1.3186747938219117
712 10.550530918844286 -15.810986536652692 -10.309208468058127
790 -8.647685062144857 3.4025606949386455 0.0739993242419849
1679 -4.514911771599387 -10.922304870890724 0.7254869077581956
323 1.7066509651809567 -5.699867949236771 1.2248589924897344
1935 3.2046235735511885 14.0579608840752 -1.0231293748086852
1495 11.857611673557187 -11.642386792798332 -9.119240657869613
1609 -11.822160957734045 4.044614141987139 -14.399881721753461
17 1.0924793116984668 12.123897978560146 1.3763843198430998
593 -3.5827519487325485 12.502598366189876 -3.5356782090208156
636 -4.122683670900632 -10.999390814384311 3.6559229413428573
573 -12.859799193998583 -3.0236815027905877 -0.9734193496128394
1776 -1.432080770627194 -5.443565772984273 7.126185000148218
2004 -15.690209512043063 4.051424423400341 4.076840824562055
716 -9.458906960622565 -4.8376143389768185 -6.018797308713462
347 -24.915361444638105 -5.814942423479207 -11.437548284513856
2153 19.10390561396906 -0.07889204258061698 -16.94185354625544
2150 -5.755076305736141 -3.0815021769957975 -9.373678805874217
175 -3.9375491080284117 -11.812420617899543 2.8574596282716302
650 -9.45222260206102 4.264882306047893 1.7959643052684162
1211 -4.901102169889859 -7.627964532037652 17.02616407770415
279 -14.896585493933003 4.448130026227319 -8.342220935569687
1108 -26.412716388145185 -11.018429039310046 7.800004100661908
656 21.11713327135895 -6.3210084079071684 -5.797208689329178
563 8.603841399176844 -11.310563072714018 -10.015313432836699
1827 -9.284145793698446 -9.20097413433915 -0.7434542514965113
113 8.049677340463958 5.252716689601192 14.080252010443719
115 5.313141603469139 6.126635442581684 12.473553837263891
1672 -4.638394607737471 6.5785326286524475 -0.3888732421169475
1786 0.31439315128561895 -12.11795541156273 -8.047079067866596
1634 1.4458250054271278 -1.6769428454151079 -2.682751431332483
610 0.30545609674564783 -3.9654924415170556 2.3186650744706916
276 -10.52045175281895 -6.354645483315216 1.1886187435047846
583 -4.059772939773592 14.21313781371139 -6.122449079197385
78 3.2091726422921747 -15.85565116196687 -6.885981767812422
2137 8.705979091454502 1.8474015546302465 1.3560511619187603
42 -7.790206403089382 12.146249301979962 15.67054294692908
455 4.229397764529275 -18.93783725264043 -11.46969393523468
31 -12.705049160389104 -5.812237510514622 -3.782913628083365
905 -3.819317700631443 -9.24022007131465 3.239542705382982
1357 -0.0651633477481254 6.8699278066639105 1.896976869163957
1509 8.972202354080684 -0.6685843563227164 -20.58389039683746
1319 1.843888246463223 -7.179482762441658 7.459853830884091
1192 -12.339600270561736 7.040578068661163 6.824383374896778
582 1.1698821976171159 -12.397729342225794 -9.078958110773259
1968 6.455238924870937 -5.0772619514362205 -3.647845528708057
1949 -15.453164441340197 -4.389638347305364 17.847530842897907
1708 5.333257579340684 -6.534664117068741 -4.877380491019319
177 10.777898185908432 8.48854741126889 4.717580230693623
59 3.2124124838920967 7.778495034825814 -2.1885302455326587
249 1.1236660288007225 15.998472870826955 12.83050137517105
1693 -9.525426794468023 20.894928241447488 -0.599867845024989
441 -1.1672060335059213 4.528134586641274 7.680626035455184
1591 9.969344843459945 -8.442305475611569 0.23978337455674126
1688 -10.767608237148945 -4.872519069953887 -1.955164940895826
446 13.981774361252807 -7.269334424792183 -6.44358225206704
2099 7.248003820838777 3.084532223418597 5.2268898135768564
1195 1.7835667133938453 33.26664439017306 -12.816504796099887
93 10.223035269193279 0.16490809218944852 13.324454592426818
1284 6.8652063995360155 23.271968131908437 8.243374234913446
505 -1.8067826892434924 11.522931370905738 13.741150555085802
1500 -3.713866409447733 16.894962424750474 -8.410125393905595
557 -10.538543041014474 9.361264109117883 16.174551389643163
1742 -4.275260258871423 -1.5515436026899874 11.851641601975722
440 18.574353370165923 1.8642089491780707 21.307042466049776
997 -13.010081052173204 9.989240614071678 6.301934985984414
1704 15.749963637866086 0.8952524105125762 -18.065324780088442
726 -17.380756077083166 -12.099316813634026 -41.544555933798534
46 3.913345124798607 -5.046976067354628 -14.200563756193239
110 7.246977106725788 -7.110604084866238 10.662696121890228
781 9.271045210459988 4.558554943243483 14.132561020704719
2159 18.041732149048546 7.07009419409679 -10.706887406758971
822 -0.5178945004366399 8.349759514813032 0.41970878607861756
1802 2.1281165075450246 4.82925034276057 3.5591154529447206
1810 19.678365183369337 19.602137405257142 5.793833393793727
464 9.035234620638558 8.224252000630909 -3.1682906700684774
1517 4.985773772606939 24.815232964762277 -6.818925994322877
1287 -4.8849072753497484 16.89349824742652 7.671199178649843
730 -1.9802628101405215 -8.019269619802206 2.9537764962094455
1132 6.738911298659068 -4.204507053561069 -12.9665540629834
1266 0.13142357247371345 -2.9292649243814677 -3.1202396810298536
889 -4.409922063387275 -4.235796833643055 4.673820405287813
629 -11.722081986534159 -0.2259024990925251 9.781600292828276
132 7.972670633511915 9.28450249909284 16.711011757973314
1504 -4.27614046813957 3.8707350714303317 -6.118003905664166
1054 -35.89054779596174 -6.098960546511801 -9.789022004901014
244 -7.934922472763026 1.4768042861185795 -0.8516072506530946
1743 5.253485490707547 -15.844567852096832 5.727657456403702
1772 12.620465587272632 -19.777918937295276 5.076282546784489
1078 -14.605758913232096 24.078128755832267 -9.068860531730074
797 3.8065202796562736 -8.269092664596853 -8.713071481223718
1779 -1.4927625661568054 1.2802543075671247 12.067098996294856
1628 5.945527347500215 6.378710181717817 2.149746058047235
2023 3.7754243477477054 -12.420359040093466 9.953914783270141
1666 -25.886432829623473 3.6746041661587303 -7.603401335957761
1466 -2.0173696187887105 -6.873665030499555 1.2820323634074593
1889 -13.674357578963074 -1.4151003778062177 -25.82391020531667
324 0.36280208311017065 -17.631241321303712 2.2941772493693793
1288 7.896983879521146 -2.2643647239884444 -6.954062264329081
1992 -9.04383036324156 4.47670768613738 4.636479939815853
2040 0.4968018285503389 4.603083387707795 11.724931443618951
2024 14.794139475939398 33.34033623604338 25.245012367840484
87 -4.904224940496753 0.011182835560770606 8.15637827628992
1328 1.2223501086263597 -2.2235003005153935 3.390701184246278
1872 9.533434794163206 -8.280072794985609 -14.151026058559053
1673 7.871354578924951 -19.776458831042692 1.9369685196156599
1682 0.19546940835436868 5.018532768554218 -3.8039137511067658
82 -15.305432790717079 9.34158003945575 -21.74032444422351
1202 -6.262014879414309 8.60036262625996 -5.677544114752021
558 18.72462033429671 9.043535481236969 9.392733642236744
1565 1.8394454684148316 -28.163409984381147 -9.551674295594657
2043 -6.032595313794463 4.352025009673611 8.684199005055625
1379 10.864575447690923 -5.431906743004211 -3.2690649564387066
362 12.677130525163134 -0.3116692289642325 0.20914767541346127
1985 3.485890641217062 7.185413071908857 4.442698809263844
289 5.336168535399056 5.647952866595394 -2.064550852594877
1750 2.2275410542970793 -13.674805697743643 -12.207033189322852
2148 1.6687126584223246 -8.493965787390064 6.9132270955477395
100 20.199290741792314 4.262539034864304 -1.891184930211532
497 -0.17201921935847173 -7.8134592632804445 13.681292103702702
1916 20.448562906218456 10.632282625706297 15.360752336388154
192 -14.04126893338725 13.528745763276886 2.452539705684091
1588 -7.839968076614091 -7.324489611467214 -14.048193802610376
964 -9.314652075295689 10.723247275815428 9.98262830887684
1232 4.010037811214789 4.233148741328069 -16.48357276542419
1259 9.352272167956293 -0.14702488073127642 -4.405603498793504
1280 6.066818288348659 -6.9013259736438615 -14.507748134463343
1138 -11.745958166418715 3.6892759839281335 12.012789946492536
1177 -6.538558435945419 11.557325055169176 -0.05678891954068801
936 0.7378792537272691 9.955120956460286 -3.18553149342259
333 12.547034031406307 -20.52150317198542 -6.818586844376619
44 16.169470844400816 -11.366810064807533 -7.051730375311867
1557 -6.027293486824329 -8.102780729070775 0.8471363212506865
983 -1.599975248439063 0.8714357395984189 16.860002405474738
1298 -8.700705856824207 -17.724426389485238 0.5817335900286986
1137 -5.214366786511961 -8.821341108086372 6.079055143276197
1117 9.407952278381536 -8.310282723699764 12.844528377054104
809 -8.590607947345404 1.6989203594612874 13.218270548710086
1367 -3.572799425812276 2.2270924650965793 20.490548704369587
1812 2.44551169073792 -17.264954938359846 -8.759288203312428
1476 -5.001762104349742 -2.160821776913544 4.6238123766562245
1909 3.5126451940199996 -9.871118901296633 -7.951475254504899
694 15.813870881876184 7.3760711391091105 1.3196965993584122
540 -12.667849166476858 7.405719845343917 12.938693984007758
772 3.41066979581473 3.444222524384438 -6.187665532702851
199 -6.901267336045073 -9.088855774530176 6.060054424263532
1643 14.260572219505047 -0.8706152104546234 -3.1634958608589177
1586 5.305644781449371 -14.326440964515259 -2.544413022882618
420 0.8479142713070248 3.4969414009932107 1.4844702579332911
1454 -9.137721984853597 -8.603039882525312 3.4248426854731884
1496 -0.53270512730521 4.323506778759011 3.8946379605523567
1946 -5.340339061295621 -7.357574576427252 2.1328429711226953
1435 6.678893774044107 0.19721038476102773 18.560336001880767
97 0.5476729052582292 0.34235491577374705 8.411988174085607
534 -3.785281374566797 5.2479581705018505 5.903800108893284
1741 -6.682934429045664 6.334420849777824 3.5855395335376983
204 9.113145858047629 8.660706746046074 -4.389908984754239
742 4.596612911755358 -0.6115769040079462 -5.579192262862314
456 2.7557500097140113 -5.333659326172353 -0.48365318217497133
1652 2.082620548001435 10.20172627006293 -6.369401126442365
832 -8.065934560702757 -2.640961444768371 7.156485596411188
1116 0.03330057127149085 1.2714292078025817 -6.141761067680062
1891 3.979695447518835 -4.781179814235526 0.6374088869628803
1419 -4.387584787474339 -17.598726172778715 9.196469231058616
1075 3.6950531016950667 -2.0350435510352063 2.8717726947451063
406 14.65905983682154 -6.554301318260609 -12.93294276742468
1021 -4.241840059009333 7.834960909332573 -3.512497344028213
258 -8.043293787993814 9.787142364978362 2.6308971778735026
861 -9.850900160171857 -2.9988840904807903 -16.42523027671196
1661 -3.9127961918496186 11.107310389355296 -12.949844363078105
974 15.229990166216206 0.09772416827301311 -9.29094593139327
1510 -20.336652535374288 -10.017179482803428 -1.1125704016561662
2056 -15.164976347324453 -3.9786447760664156 19.85629240955013
1906 4.1319837787290465 -6.221943055096787 4.61695748437922
1584 -2.580076798639049 7.189409904029507 -3.007583206393725
793 -10.050478078636633 -4.887185085111301 0.2993172756478137
1237 19.60929086392305 8.688063287693696 1.7497308257104174
1674 2.3438491901048235 1.4148768823577196 -10.533270117715407
345 -8.286654786978003 -3.097661636763938 -20.525683180129015
1122 8.450726551991696 -8.593354738244585 -6.607921098332927
1359 -8.183130349229875 14.155073304009164 -4.015118294290513
269 0.6515866566095361 9.20756045483514 0.03389714577345689
48 0.9743938796092964 17.226558570099723 -3.669834304295477
1174 3.8165609809831826 5.612240501905317 -9.594321706199688
685 9.471187868356008 3.7447068605559424 9.134934683385216
854 -15.9914052845021 6.657696364595976 -4.414980522254578
250 12.818248031013175 -10.690643272135945 -10.06090893767714
311 15.125614211738828 4.132045992039866 8.57938739601707
356 13.216835782164083 8.486230715966913 13.977692570338357
351 2.9397761210697917 -7.646899747940985 -1.78308887892185
1402 -22.25926779185927 14.059820733704067 -25.431918969549304
317 5.060088580965223 13.299380160217556 -2.3328656666089977
994 1.7833101804231444 -27.042757015663515 -2.562956461445762
422 -0.8279214021205265 3.407874712784478 14.931644191063299
2107 10.05667689667685 21.746935804994116 -14.641992641458627
358 -1.067375011913539 12.303141136991657 -1.9800749358852097
1170 -19.307165502935504 -5.424867225512392 -12.385458982293487
813 -20.30419123427426 1.3666336566344797 4.965673777625455
1549 4.511134175262814 -20.900647325287114 -8.471558849862287
570 -1.711093656422985 8.090396740070634 0.6207848820889467
923 -8.278339843116953 3.9439002525091946 17.768808267714377
719 6.024965728680825 12.52872606000342 -14.66380425944111
397 -0.47809351926910004 -1.3734599632703128 4.811914064796768
1568 -19.716394770455768 0.32846949266792325 -0.8080044804751036
1862 -0.007953950224333145 0.36042297667631923 10.195848292325806
1136 -8.478313094124614 7.26294187137189 6.8263693410029
1204 6.977724606026973 -2.6309266970416627 1.4858110230564023
1744 -6.601370789234122 12.89196022613847 3.5108884627789863
1631 5.810798131584993 -3.801458772398743 -5.910786801578896
689 -7.318895807614035 7.554466685260047 -22.15656948354923
2049 -4.116280505501145 -4.928816786650394 0.7380922243095343
339 0.3830932152480788 5.798036734436964 -8.37529470584349
1574 -3.9254766074984864 -11.525364942737886 5.201804545590886
900 16.995183026345835 2.8055464193773156 8.618873298224234
1579 -6.132161075943086 -3.346727140027974 3.843082923577275
427 -6.092954197263701 4.760165707897129 -14.035951979829
1950 10.357872787602444 -8.59929103734277 -7.920591134785199
1251 -2.781392893314216 -8.602362196507245 -2.8342416137033952
227 -6.129471801260636 -11.85890495229654 -1.3512725230865201
1725 -13.459180253342515 -0.12361184771574617 -4.06067760076364
128 5.60896150856982 -9.289434637585295 11.8271617369898
1767 16.60217868594265 -2.3319179998091473 6.051051160788632
1871 0.8445892080087287 12.945464633363079 25.190029857733784
526 -3.724127534009265 -28.553845111448446 -4.432518205130486
2071 -1.5161627852174844 -2.976689578745482 -1.4816574952595176
404 0.7082607356561944 -2.698760279660185 -23.39442571173397
85 5.0126483215032565 -4.399432876346415 9.622034092553532
2053 11.597791447534801 -1.7767452184119024 -9.368446328365163
957 20.714244751169417 12.400050250262037 3.14803696093082
1991 2.3058289278768354 -6.580315731048413 13.151389012664621
412 -7.975358114879969 -5.265181789445915 -4.758351168394555
442 14.633342204213044 1.4532164964484453 -17.244842649648238
36 -4.0370499272764695 4.929973663903832 -9.117585208822792
95 -26.9174129576143 0.24260295022079031 5.658888217378364
26 3.6740822925040986 -5.973546596862473 -0.8331465795438258
705 4.659523220584764 10.43384983199123 3.6176156510751687
1267 16.636563032426455 10.872850229169625 -1.480490508725873
1605 -9.729933276157732 -19.498035093735595 20.133699827086918
796 0.2681668104910901 -7.253220893674519 1.4996914413832088
1770 -2.7492034231500395 -3.7886069315460813 -5.646847703774398
1667 25.68935504951923 -17.64369110046118 -11.591613080858949
1898 4.1979055412958015 22.22916622136004 -2.9069056620379063
307 -6.742452614399628 5.503695122867614 15.149957058680512
1543 -21.38395044427764 -7.315289390067308 -12.355389013440806
1344 15.746114397367268 16.869275508711876 -4.27299060064314
1539 -6.690636665934856 1.9756062144524507 6.640421702667445
468 7.191825563085564 -3.424669897782586 11.177962540505142
2041 -1.9019129975922628 -1.5354539268448242 -2.9839144378095885
683 18.418621627795613 -23.152486124209542 -1.528113221948539
1200 -7.109436669260499 10.086277976058321 8.75140202110292
819 5.087548094452262 -3.0744686980820304 -6.522351499261666
744 -2.7631610216439184 -8.88960144874662 2.3219612209444067
1034 5.692335056674172 -9.120063103919005 13.404805861529052
2124 4.348141432707888 7.150272331697403 -12.954643653474418
1552 2.338117086115314 15.40942683596848 15.954106124979692
513 0.7266293825151422 10.13771870337157 6.890176987789386
692 -8.055360417362206 -9.057493980279705 2.3344900942328226
977 3.454099992694465 -7.186502330834419 1.204904228808743
661 4.031002002941182 7.003487575145619 -13.068281892635571
739 -6.381506259415298 -2.4559900268206403 -5.051254140227433
987 0.7979076362603468 -9.511369333000914 -6.657972016718392
1235 1.62779824900081 -3.273066245897435 0.7821562442609055
1125 6.743465555104479 30.526941059837704 13.115189013477128
603 2.225357889238493 -4.1670680366522665 2.8732174945769615
1123 -2.4997158672058863 -2.779178780266675 15.730073768412652
58 -11.482478206629144 -0.6097359809079697 6.529598773337463
2025 0.8392004594149458 -2.267655092541191 -17.01767636247285
625 0.35908110491997125 -8.278757688129087 -4.293007718172997
1615 14.093422699542563 -1.6551709503918075 -5.712148295205301
1512 -12.721688652944552 1.525878479563577 11.049973278758927
1833 -6.722260472633724 3.920658886417392 -8.341802167013974
1047 -5.9930709873461065 8.998337016973275 -6.085184119428545
1225 -0.13610182383602046 -3.4713615957940402 -5.376614827468219
1469 -23.57844298016533 -8.202856326555542 -17.947422458873927
394 -4.974764440761286 9.099203256378825 0.5164676123818915
191 -1.9177051373004537 -1.9344576370488473 2.26284357657069
2139 0.13653616170126343 1.0856219617044334 -4.852163553728903
847 -9.7978474827908 7.548457625613089 2.934685234587264
831 7.608071428840913 -12.849790638721897 -5.844470230147869
1330 -19.226508232207568 -6.547707359939539 -7.096982613910728
553 1.2927530734375754 15.671060682494591 -10.310892257649986
40 10.930954178853586 -1.3048813769086993 -1.4209166841641707
1260 -11.209428544444549 16.75442888972057 -4.5139396892139985
1057 6.937187046601575 -9.066015115859457 -7.853298359181621
495 -1.1505022499606206 16.054768193574837 -10.764921590711378
1062 2.230140969568873 16.176947826790514 -10.351765747622405
1157 26.867203498846884 -10.865259960129409 1.9226824473499629
225 8.2874679799959 -8.876815342538238 5.215368036844251
114 -3.9750525085534223 12.385009745558197 -10.756425151491927
1795 2.948929751028974 -2.679407713982152 10.667990835009544
80 4.0502196590822725 -9.86508618180069 -3.2217157911177017
487 5.253999746836692 3.006600857790668 26.21330279572605
430 -9.644194693288194 -3.6038700030614326 -7.623707322674549
1297 16.374506501112243 -20.34868498575454 -12.12502016353778
463 9.548578587311937 5.462892389026245 -2.254434526037616
681 17.31929578138253 3.713931323641809 3.5480632656500344
624 19.339077491443092 11.83149657422065 6.914212528257657
1551 -0.6706526644582744 3.4665386877336832 13.13319525429896
1011 6.969333862102495 1.439675594334416 -0.7007023916160542
1018 27.464926236916163 3.574571491135272 15.099054339644342
1091 5.788169343468254 -0.888922517034871 5.078479642382516
839 2.015606526546232 -22.632320532002126 16.3765981528468
1936 -12.972802601605743 7.7199858433684785 0.9411450806847659
336 -5.219290928030164 -9.294781493970387 -8.537507665048132
515 -16.069884016938698 -2.0691495925008767 -26.52213297904786
1706 -6.071950488623021 9.014707591583624 9.751336490029162
1843 -1.7719717872966598 -5.661000835928802 -2.791164580170228
1901 -0.5432837364801513 -1.9171157701019579 -1.6382224661152769
1377 8.419472074293221 -1.6470419151928761 -2.5911639427118933
206 4.273206155729016 2.6017759362440764 -7.344874544774067
286 20.897943987682357 4.380738350780308 15.640765398527227
1081 14.282825129365726 -0.2522593052710296 0.7943685341914665
383 4.87273559511786 -4.036319111785886 6.682131932515295
1087 -8.899245171837354 0.6029285781541274 2.276220104501976
1405 -4.067956896320735 1.8312617422959114 -6.433895474845655
1154 4.6101326471296575 5.35153980465147 -0.7849784835481748
18 15.608272536739362 1.1445788995940414 -20.64016383481236
1264 -1.6602538612599584 -4.92704483244662 -1.3677034448203598
701 -3.3983811656000267 10.08153111503817 -1.748131042786758
215 -8.743853868423198 7.214916165552136 3.628497035542003
12 11.289168507948615 9.70836509670521 11.239795957730603
2031 -10.239234449210482 19.382585201194978 11.325179657299714
622 9.333957121658301 -2.8109936993402855 -17.817085482093972
1573 -17.19511177687103 -9.984485859685599 3.3711003368026216
799 -5.913363061323454 -13.05549335605265 0.8897337547187308
1815 11.555565646347487 -14.925036931330633 -3.5243300810680602
787 -18.010483752509433 15.13432503232637 7.175426299389046
1050 -0.08459849630858186 -1.965300887798643 -1.8724069517868565
842 -12.883560574529914 8.180735071867957 1.6571534829276926
1578 -7.264439508174153 2.316210199713794 11.64244970213764
393 -7.704917832805852 4.164326777597712 8.02949299354901
1023 3.6223695910752296 18.696144768162196 7.048327266797455
881 7.994970863554287 11.28343772453503 -6.561526533589376
1380 -5.599340195203192 -0.8308427217177445 20.49253427996668
1965 10.173659002528167 -10.987727157583318 -6.970394861596434
749 -9.159050177149316 19.64637177509743 -13.753301109241193
666 -15.529255289086723 -0.17931990198304473 7.954306604522835
2143 4.639368657816026 4.005373113573585 15.54856586939137
37 4.696489404756171 10.504733314120887 0.9450017564583328
1160 0.7928347430625878 -5.1755939309446894 -21.63409346485522
2007 4.560526758750219 0.0922794068173528 -7.207860125705272
137 -27.71626333554144 4.896549889812451 3.0831756856551458
1436 12.38217131741683 23.43284920501734 -2.49216518327074
2081 -0.1526681713854331 -5.38224216526395 -8.66263687294214
1945 -6.136336705775498 3.9869081072321615 0.6114651521639861
1069 -2.4477492840323727 -4.135703420874824 3.9500201735933222
779 3.6769563064943265 -25.115319924246457 -0.1932795052295143
1484 0.525060078040572 -6.081550131563008 2.5137407495093775
1902 6.709097770378449 -10.588162056126002 16.03787937393666
239 -5.627515519081628 24.280724267326907 5.654333542806246
230 0.4649747324349347 -3.1363101788656063 7.426562890882005
1016 2.362491487075971 -3.9611977759110526 -8.501583528393828
755 10.634427667884255 7.747902299643415 -6.187170162398747
547 -2.1516923751363275 -6.445404555542441 7.783246770171275
211 4.781363298360526 -19.825093418242464 0.5862534688844977
634 -9.963751772755296 -1.2153997760658681 -19.70278183985379
1382 -9.331827339304104 -3.1930692679877053 -1.0668036769608173
1424 -3.208555621559009 -18.758345378675312 -28.926538464405787
1797 11.665393221907799 10.942270424297776 -0.013578396847222965
1394 -1.9447453529553773 -0.20390191365715987 -7.361473685601007
411 0.2387516626087329 -4.704063598055647 13.832802649303526
1845 13.120878459236115 -6.824094878728375 -10.49041946991558
346 7.522199057475051 -14.492550583784665 -22.32478112382585
711 -1.5748037659889178 18.312569671936437 -6.3634237806000575
221 19.967215598801857 -1.9539152250822518 -17.832053405742716
1252 -2.064940525645695 15.96040885405448 1.8082801482499673
1439 2.543525632627938 4.773529820777655 13.259802134691643
1085 -0.6115210231568767 9.378171814809388 7.098739291513483
1993 3.154261040834027 -4.516798929009316 -4.529816307304214
117 -3.148533161050026 -1.283409275668307 0.3158066792504497
1892 8.312074853741253 -18.11426835059365 5.947832288912756
212 -9.173825887974642 9.192663999566417 -15.662114743089132
766 -8.613078937144152 2.1047745246123077 -6.627453650915156
1020 -16.900695284555628 -2.0321004391210917 -3.5549686040016555
2149 -19.659573097059486 -19.901557614385815 4.780938726453674
1387 12.674622509058604 18.664343629832036 -0.9099424299594032
1890 -11.735646003066957 -12.91058100696932 18.57316040418865
125 14.032875371224891 -6.779451351616645 21.2973891458132
2078 7.797849105962964 7.110383149684597 -5.052224931975893
1654 4.415567726873384 10.469191072689199 -8.404268310453984
1975 -4.179864532710469 10.393859594339798 8.774433344222741
504 4.449749230977787 -12.23845313424495 -3.730787175621843
1817 -1.419359892035027 2.2486943869626526 14.009830096624556
1585 0.8042391565849328 3.2145157612825703 30.305909175530815
43 -5.559980027404426 24.099110176813014 18.602621779178932
1447 10.962125345514266 5.211472131833125 -7.110296307525015
220 -0.3478382954921216 -7.761992067844706 1.875448116529487
265 -11.681946449698845 0.9484458992044819 2.343255579104695
1194 -1.2105318717414113 16.58480513044326 25.53683634609701
391 11.430375716972176 -18.834398453741954 -0.01947968945247272
958 -12.3384763365073 -8.725893730180806 8.815925551011789
1621 -13.014676634458155 4.337441321542314 10.365197317030256
2029 -18.47976776509801 -1.9861402979992517 -4.1836118309825405
35 16.679215031140426 -3.794193448562236 -0.4963868210862069
826 -14.153698586367716 18.001885993232662 11.34677897768461
782 -14.416689395170607 7.914164570919937 -0.6060494905786942
149 -12.91701961119645 4.302488581600572 3.847001144602634
919 10.163576477243778 14.779766010645195 -13.909664704434723
1275 7.513383208978727 -0.9393903695247598 -8.725312148425571
326 -2.948487827780571 -7.0241017991969175 1.381441351196968
366 -2.1448938123752863 4.191217804549169 0.23640109785852928
652 5.291829479382396 -2.8950339176784965 -0.44824467975944204
1644 -14.832428784148327 18.741885862169518 1.5166242201395341
1231 15.891469549323388 8.356277909704685 -2.6056513939058488
1072 -4.732467505232451 0.7069006512718085 2.8672513988057062
1855 10.808885137669359 5.686423308111778 13.569824701771324
1086 18.382670164573312 -2.8233406086309856 2.35381029620446
1914 -2.5381126311793114 -12.087809268345326 -9.868781164614928
2077 -8.001346050486518 4.361851072410204 -8.358965699359786
1937 9.010935313684701 7.612695962348293 -22.528106288301146
562 -0.41647820547947895 -10.60965519357066 -11.484358829247787
92 -12.809506654875834 -3.2942862557947827 -14.227702539316763
2085 -1.9642817308317153 10.839552923388597 -11.871125293305226
1870 10.080016047234688 3.3855721149339835 -16.634959320950657
2127 -9.09272995458771 0.3966639309250073 -3.117549851243012
783 -2.7747336631669692 -1.2528079343657061 0.41920377742332465
426 -7.3430824816534335 -9.776790432946873 -1.2814473704586986
