LAMMPS data file via write_data, version 2 Aug 2023, timestep = 5000, units = metal

2160 atoms
2 atom types

-0.13095198564362853 30.269865365641856 xlo xhi
-0.13140961780978877 30.375648137808874 ylo yhi
-0.15165527673719126 35.055480726733364 zlo zhi

Masses

1 15.9994
2 28.0855

Atoms # charge

1782 1 -1.2 0.921571515167859 -0.023155849830377676 2.2101130433900424 1 1 1
1837 2 2.4 0.6564885479389785 1.1482235132664163 3.167916858766763 1 0 1
1988 1 -1.2 3.266703653545593 -0.10848587573113022 0.9566931851509572 0 1 1
684 1 -1.2 5.665906334273714 1.0521962230697826 0.9212972131175571 0 0 0
1864 2 2.4 5.489629289284892 2.1612271491122783 2.0327113841816375 1 0 1
262 1 -1.2 10.908682705819658 29.624267298361474 2.227208793836383 0 -1 1
1828 2 2.4 14.573083862775178 1.9144350552933325 2.05607842627494 0 0 1
1677 1 -1.2 15.913649651253046 1.2876844892195125 1.5849466961718244 0 1 0
425 1 -1.2 14.141902280748399 3.313048699287771 1.5514416094256234 1 1 0
10 1 -1.2 18.340051440320966 0.5819078164822316 0.874914934240788 0 0 0
661 2 2.4 16.98968140939168 0.9558939672481573 -0.10546834538945442 0 1 0
1140 1 -1.2 23.610922841293704 1.2264389763336023 -0.08075210123258586 0 1 1
2041 2 2.4 25.445724391210096 1.0897529439688538 34.6575278457814 0 1 0
468 1 -1.2 26.194616697750483 2.287515462330308 0.24510958436472788 0 0 0
678 1 -1.2 25.739588359322404 29.906998217649782 0.32399379598730144 0 0 0
1043 1 -1.2 0.5734565907428553 2.720877036641975 2.555809325328014 0 0 1
485 1 -1.2 5.255372866522114 4.044918150209086 1.8237390061444794 1 0 0
134 2 2.4 6.315414217981593 5.076435167074992 2.593823553322492 1 0 0
129 1 -1.2 5.677739607937656 6.514905392778918 3.2463173413082 1 -1 1
1386 1 -1.2 9.53741227616172 3.2079475111651417 2.72275416092954 0 1 1
1453 2 2.4 10.676409982878567 4.821040319926634 2.795542746661367 0 0 0
240 1 -1.2 12.302681139991323 4.345800271991025 2.785328781580251 0 1 0
963 2 2.4 13.413416793594926 4.718263879754207 1.7623416380743353 0 0 1
768 1 -1.2 15.168141862708131 2.3805465643882124 3.870834543245008 0 1 0
2093 1 -1.2 24.189967267616506 4.940162633072544 1.2076202248458174 0 1 1
1561 2 2.4 25.551222468082567 5.437143794697451 2.310645469490608 0 0 0
1317 1 -1.2 26.64758812913588 4.605018736435278 1.7051711349323964 0 0 1
1657 2 2.4 27.404676416662625 3.5230669087363378 0.6721744950715349 -1 1 1
1867 1 -1.2 28.69374479846131 3.349024062640154 3.8204728754154234 0 1 1
471 2 2.4 29.63439120976428 3.919144158912446 2.4828046671168895 -1 0 1
1134 1 -1.2 29.955176141002614 5.577707770991367 2.6083461773388685 0 0 0
625 2 2.4 1.9318016114962095 7.39608558552801 0.1672431855595203 1 0 1
857 1 -1.2 7.297542247772805 5.7182983212345855 1.4723685266553066 0 2 0
1620 1 -1.2 6.890457256928311 8.432856944528616 3.5825334470826276 -1 0 1
1900 2 2.4 8.687284105780904 6.701126895013565 1.3850921439601867 0 0 1
394 1 -1.2 8.447719454943673 7.4200943133144515 35.00857737577934 1 1 -1
1304 1 -1.2 10.179272264130732 5.662059793225228 1.5182812680730267 0 0 1
1711 1 -1.2 8.886386374068485 7.700705490410778 2.474029719815709 0 1 0
80 1 -1.2 14.58359352325816 6.09004187906659 2.4868514679899074 0 0 1
487 1 -1.2 16.168290754794583 8.053323327728139 1.5984122431403534 0 0 0
553 2 2.4 15.230802255099524 6.826311042081352 1.201492724569088 1 1 0
161 1 -1.2 18.62051006239921 6.800783780918326 1.6235348704875958 -1 0 0
470 2 2.4 17.620235620921026 7.860059498814811 2.328988859251836 0 0 1
180 1 -1.2 21.118431872131666 5.236196490976727 1.8486497078287352 0 0 0
145 2 2.4 20.169163239544645 6.243555434700504 2.6942823622692456 0 1 0
1984 2 2.4 22.347352544700755 5.25258187429161 0.7586952028113494 0 0 1
34 1 -1.2 25.125967934317973 6.9399249477593745 2.4011895554394505 0 0 0
1558 1 -1.2 22.351170826279912 6.6385192122317305 0.10525107747612433 0 1 1
1475 1 -1.2 27.032402223422682 8.801601602914943 3.3661566921360335 -1 0 1
66 1 -1.2 29.400621194147764 8.346788362210019 1.9631225904632619 0 0 0
1384 2 2.4 29.83960602781843 6.9497389015571125 1.488670224545706 -1 0 1
2025 1 -1.2 1.1494920718317998 7.480810857088579 1.7531893104444607 0 0 1
225 1 -1.2 9.883392588963734 9.225163756152837 0.7908191548528076 0 0 0
615 2 2.4 9.832312816300654 10.630792843964443 1.3764306990185597 0 0 1
515 1 -1.2 11.186966820348689 11.254321284059559 1.866334757434975 0 -1 -1
444 1 -1.2 17.745418194234745 9.759265030479032 1.4916632933458045 0 -1 1
1234 1 -1.2 20.08085965012957 10.509338790086403 1.9872250680270573 0 0 0
1896 1 -1.2 22.6920990360921 9.29327317492375 0.5849167137911804 -1 0 1
2101 2 2.4 21.895646624533267 10.409234926678252 1.1019836765702642 -1 0 1
574 1 -1.2 22.132797961159635 11.720305327867088 2.3896279755346668 1 0 1
516 1 -1.2 27.08634364312831 8.621913393493715 0.8773078823906538 -1 0 0
280 2 2.4 27.960756717154304 9.109370963346969 1.9435654868018837 0 0 1
163 1 -1.2 27.973816793939 10.799480591269567 1.8533224186171628 0 1 0
879 2 2.4 0.740274926558897 13.203891148617393 1.554774722819844 0 0 0
1015 1 -1.2 0.5399908127935289 12.122547861372363 0.4297588404431118 -1 1 1
991 1 -1.2 4.747035658482162 12.767549396114568 2.073651129259942 1 0 0
284 1 -1.2 7.10356919996215 11.722815807033522 1.7972594233681636 1 0 0
1010 2 2.4 5.915623163128316 12.674560162100617 0.8439348268155661 -1 0 1
702 1 -1.2 9.243016385875597 11.881294784826824 0.4473272869650439 0 0 0
1706 2 2.4 9.441799270117421 10.732713761881019 33.140504318716225 1 0 0
1815 2 2.4 11.89381854710213 13.963492010641115 34.92515776458819 0 0 0
1577 1 -1.2 11.567733244388457 13.33254390269 1.1918141971703322 0 0 1
1129 2 2.4 12.480257337864057 12.492786408391268 2.1907798743686873 0 0 1
598 1 -1.2 14.006783459898806 12.267626291140829 1.4836621780771915 0 0 1
286 1 -1.2 17.941268958714907 12.515835655128498 1.194288617452853 0 0 0
1023 2 2.4 18.551318173308687 13.849257211763627 1.9428247840971202 0 0 0
243 2 2.4 18.663160410823448 11.047351196549382 1.6664309752095139 0 0 0
1087 1 -1.2 21.15780813879157 10.501765393515258 34.6798234726459 -1 0 -1
1924 2 2.4 23.825945057335538 11.555356859532651 2.667607895342061 0 0 0
1702 1 -1.2 24.85384920376116 12.246696072661221 1.4208699228926425 -1 1 1
666 1 -1.2 26.378753332087722 13.545585959966699 35.05510169990976 0 0 -1
1752 1 -1.2 0.8351674580135675 14.685413625794265 1.4323900998114514 1 0 1
421 2 2.4 30.092782609708717 15.983952388487527 1.8845332488781341 0 0 0
1186 1 -1.2 3.291065486459568 15.11883599188613 1.685009084559329 1 1 0
1094 2 2.4 3.32312314803697 16.896347924124594 1.733168831441068 -1 0 0
254 2 2.4 3.5046898130520185 13.790323483440003 2.5720719358851047 1 0 0
152 1 -1.2 6.405786208506578 14.218078634929363 1.3424693437135815 0 0 0
2100 1 -1.2 7.896856153127532 16.33627753282356 1.5630406036798328 0 0 1
877 2 2.4 7.8825053602091915 14.631722102732498 1.7850815275668397 0 -1 0
1055 1 -1.2 8.908285902481214 14.323046250159702 0.5096886411715218 0 0 0
1456 2 2.4 14.486617895290102 13.355647312249754 0.36218477641154734 0 0 1
1578 1 -1.2 14.487396601259743 15.093398944558647 0.5209051375948919 1 0 1
2081 1 -1.2 17.517963714781413 14.91220506745287 2.2672950195513284 0 0 1
1380 1 -1.2 19.519362935623313 14.247203423551444 0.5485605214932574 -1 0 1
1069 2 2.4 22.954240696535454 15.99817137015039 0.4263557954969117 0 0 1
1965 1 -1.2 21.724312441745223 15.40275971714259 1.097356269855006 0 0 2
1197 1 -1.2 24.120672683091907 14.759664641976954 0.8083524734083487 0 0 0
1457 1 -1.2 26.285653755839903 14.49388296651298 2.119849045733789 -1 1 1
1405 2 2.4 25.286254087188084 13.781304537660493 1.0735247464514215 -1 0 1
542 2 2.4 27.352339902017178 15.698253644092395 2.3951724956330276 0 0 0
731 1 -1.2 28.66984036866502 15.479412750305656 1.4428073682765954 -1 0 0
982 1 -1.2 30.215462821759075 17.50580254770214 1.2887196920378008 0 0 1
2007 2 2.4 0.03760680097011417 18.54057868696475 35.055282684368 1 0 0
1219 1 -1.2 2.747397397023569 17.851859478103826 2.787995222857045 1 0 1
1444 2 2.4 3.163138219144286 19.038690701017348 3.9729776663010004 1 0 1
1295 1 -1.2 4.882006106862601 17.378810314222832 1.201800431485811 0 1 0
1006 1 -1.2 7.279873389619811 18.247025770871776 0.20274567806045632 0 0 1
1118 2 2.4 7.621491889637751 17.940145717003514 1.8841960444265362 1 0 0
453 1 -1.2 8.931525289665592 18.81886795532643 2.0893970957133483 0 -1 0
1391 1 -1.2 10.153810674882719 19.414018755706365 0.15530116884445772 0 0 1
703 1 -1.2 13.83804713407064 17.63248914426665 1.7137093030300263 1 0 0
673 2 2.4 16.57520085251535 16.12463992850958 1.897485576453584 0 0 0
1740 1 -1.2 16.20934771200694 17.683758771687668 2.4483265577970377 -1 0 1
600 1 -1.2 19.231324453102246 18.654068284630206 1.8945156748731067 0 0 0
1607 1 -1.2 18.69110353939118 19.519967579637505 34.69769669298197 0 0 0
711 2 2.4 23.60554336759264 19.094201479908957 0.6238305229204303 0 0 0
779 1 -1.2 23.0485677393083 17.52806154812363 0.1378167501406084 0 0 0
1683 2 2.4 26.989274360593956 18.388327787617545 2.4775386922556346 -1 0 1
223 1 -1.2 25.445826112294338 18.328094638157424 3.360096156467319 -1 0 0
587 1 -1.2 26.54886277308464 16.878971238164254 1.8305610432320363 -1 0 0
248 1 -1.2 1.1060219485538172 19.576509826843733 0.3222601734606755 0 0 0
1024 2 2.4 1.9576281489218976 20.63596150641424 34.60161545799513 0 0 0
1892 1 -1.2 1.4228603795278394 22.0489753520558 0.4894537633373276 0 -1 1
392 1 -1.2 2.2211299946959486 20.408215369273353 3.7332316150778535 0 1 0
1427 1 -1.2 9.964553814540185 21.710631642937212 2.160134077235116 0 0 0
2104 2 2.4 10.335060979417163 19.907615871314874 1.6406938018734019 0 0 1
1070 2 2.4 11.155694526638694 19.46077586848631 33.9569888235952 1 0 -1
634 1 -1.2 9.981648822245104 20.164088324263716 32.83158800220292 1 0 -1
372 1 -1.2 16.51969333239458 20.28324649897165 0.055184009850786045 -1 0 0
1883 1 -1.2 18.54395637385461 20.759633128058958 1.793232533529844 -1 0 1
745 2 2.4 17.10802764350701 21.66924811604308 1.1171686727742947 0 0 0
1274 2 2.4 19.47051068560862 19.86309206299568 0.9230623798943448 1 1 0
346 1 -1.2 23.13982090795119 20.12776874637155 34.53494676455133 0 1 -1
1846 1 -1.2 21.03489978500807 20.429489101187492 0.8119391299028297 0 -1 1
1760 1 -1.2 23.914763664691982 19.553714838652333 2.0835730095289455 0 0 1
1394 2 2.4 21.96406252845682 21.14647608539082 34.93340036156397 0 0 0
1560 1 -1.2 25.12171913353867 18.488112958439068 -0.11365675696433224 0 0 1
200 1 -1.2 27.331534530719004 19.594027328946055 1.4980289301448606 0 0 0
1189 2 2.4 26.280971189269376 19.978255297062272 -0.02954825979531272 0 -1 0
2001 1 -1.2 25.68407960773309 21.603481731970668 1.070191309401717 0 0 1
342 1 -1.2 1.8147040457906902 23.48453830991243 2.69336741972536 2 0 0
353 1 -1.2 6.236218667034251 22.550650330423547 -0.06716302435396813 0 0 0
1250 2 2.4 5.979179605390383 23.536374383968973 1.234783918526794 0 0 0
1860 1 -1.2 7.499983786183364 23.44332748054199 2.0299033819646803 1 0 1
1105 2 2.4 9.41620743222991 23.189911759407146 1.9616115891353834 0 0 1
667 1 -1.2 9.843112806645138 24.32154189664138 0.7849596761603543 0 0 0
1553 1 -1.2 9.257575213254981 24.12651066214576 3.3030647628793046 0 0 1
149 1 -1.2 16.713760685186703 25.503178726520858 0.12561988556809836 0 -1 0
1851 2 2.4 13.333228509368597 24.210402101929695 0.3580572209412585 0 -1 1
326 2 2.4 17.994956204993134 24.20265822196755 35.02843478135291 0 0 -1
2014 1 -1.2 17.670652054675692 22.685746245034917 0.17952378552518042 0 0 1
1703 1 -1.2 20.048518985694393 24.53848193582965 1.0180599194189843 0 0 0
38 2 2.4 23.500231358716817 24.310266422121856 0.2097828690387484 0 -1 0
1145 1 -1.2 22.666289538242815 25.751104721836473 0.2719424875312523 1 0 0
1482 1 -1.2 22.644761014693124 22.77118247820073 0.2387212786637874 0 0 1
83 1 -1.2 25.008639072920968 24.523519636316458 0.9956782492612755 -1 -1 0
1228 2 2.4 26.023220803214635 23.10726536976288 1.3553158083218997 -1 1 1
812 1 -1.2 27.19571627664598 23.47331822732072 2.5358395115414276 -1 -1 0
2094 1 -1.2 29.735075942397575 22.861307972919636 2.226674027021406 -1 0 1
245 1 -1.2 0.18077966929703548 25.21848017937311 3.595694621123546 1 0 -1
2151 2 2.4 0.3110143348840211 23.68765872526038 3.3385936091961343 1 1 1
1710 1 -1.2 4.028331854867448 26.773832640606972 1.2826967352895247 1 1 1
1855 1 -1.2 6.04390964600349 25.011105376129795 0.9227924718736458 1 0 1
1048 2 2.4 5.751681572650665 26.636375851602676 1.287420318920185 0 -1 1
1361 1 -1.2 6.238882678443706 27.59991426757255 2.633550460877162 1 -1 1
1632 1 -1.2 11.889561748554645 24.528359004925196 34.45344709090767 0 0 0
1667 1 -1.2 12.064882134954024 27.122435179452115 2.6420933497922285 0 0 0
708 1 -1.2 13.620342876158047 24.031197899699418 2.3167425894662013 0 0 0
1975 1 -1.2 17.226808345631497 24.388674938458937 33.49203575387264 0 0 0
2142 1 -1.2 20.566414552626842 27.067529257807205 -0.0050214567789941406 0 0 1
63 2 2.4 20.953060178197312 25.855879346280897 0.9461264546897977 0 -1 0
1422 1 -1.2 20.70839212449727 26.17136790452036 2.59437384224467 1 0 0
365 1 -1.2 28.21907684538027 25.66142081889443 -0.10364670070306542 -1 0 0
1231 1 -1.2 30.01188451967309 27.332394606749197 0.8562868222082163 -1 0 0
722 2 2.4 28.24987674532903 26.857005292423178 0.9272631830333373 -1 -1 0
1072 2 2.4 1.9943749318767587 29.50093937050149 1.7099244412426517 1 -1 1
1884 1 -1.2 2.6428238704115907 28.3264229293051 3.0122136011801173 0 -1 0
1592 1 -1.2 9.846342859201378 27.530873499676055 1.1595685752034834 0 0 1
1372 2 2.4 10.444616934558887 28.08919048147524 2.3613766342678346 0 -1 1
1898 2 2.4 13.689234159353495 27.267341050524042 2.6155987959789284 0 -1 1
8 1 -1.2 13.557902332905815 28.920564806335523 2.6761966584115666 0 -1 0
1187 1 -1.2 16.934999332883997 28.252729224493645 0.7098440408730591 0 0 0
2085 1 -1.2 16.37103902482614 30.037225205737972 34.736868548674046 0 0 0
50 2 2.4 17.221144866082607 28.556310093428095 34.41542560068272 0 -1 -1
1870 1 -1.2 18.999569023068148 28.654641913537784 34.15313791445874 0 -1 0
2125 2 2.4 21.804911965580047 30.176996484819956 0.7796997090040081 0 0 1
1488 1 -1.2 21.97101822610961 29.350841714116438 34.61840861540817 0 -1 0
972 1 -1.2 20.75037367883471 29.014924711725598 1.5060965295806235 0 -1 0
956 1 -1.2 21.17778197372666 1.1307170411436314 0.5964160082905048 0 0 0
2127 2 2.4 20.6507321685773 28.24343889623976 34.0186506818228 0 0 0
741 1 -1.2 23.101377367753194 30.246175482552026 1.7046606625506449 -2 -1 0
410 2 2.4 27.376918771507327 29.8463354226061 -0.010092174210792119 0 0 0
1668 1 -1.2 27.47728430100903 28.345632444393473 0.463744024957085 0 0 0
1524 1 -1.2 1.868870419327084 1.9685191102015769 4.263308644163413 0 0 1
9 1 -1.2 3.8747775241068805 2.1923671086583814 6.040150694236848 0 0 0
89 1 -1.2 4.803456888125405 2.0670902233624457 3.6725887941781963 1 0 0
1681 2 2.4 3.4042707279885014 2.654420784732883 4.394539394948134 0 1 1
2009 1 -1.2 6.778312198046938 2.4911397762176573 2.6383788265918016 1 1 1
898 1 -1.2 6.145052380083635 0.3098854334802655 5.670481925435832 0 1 1
1647 2 2.4 8.31000668459242 3.2239564496204522 3.8036926311801826 1 0 1
1464 1 -1.2 8.053350796720734 2.8048769499807626 5.4298256582561395 0 0 1
658 1 -1.2 12.89197425760498 1.2649456432472077 2.024039334468193 0 1 0
1921 2 2.4 12.517364688619049 30.30968425193495 2.8346617476268627 1 -1 1
2145 1 -1.2 12.030085573007629 0.0789457530153328 4.679888217092783 0 1 1
660 1 -1.2 16.9983224737323 29.36753895050785 4.831576947149578 -1 0 0
481 2 2.4 18.793389245506145 29.291080168874696 4.854463379232535 0 -1 0
1534 1 -1.2 15.848039247495821 2.700828819391431 6.339915974771716 0 0 1
229 2 2.4 19.84419740468059 1.2515154953140002 1.6453861742486655 0 1 0
275 1 -1.2 20.402125373048445 0.8643735295678054 3.1480691008364574 0 0 0
1002 1 -1.2 18.876594968124213 2.65952976504593 2.1243543610747437 1 1 1
1065 1 -1.2 23.020298035107725 1.8338099984004717 3.797809828690646 0 0 0
642 1 -1.2 29.600138575316382 0.8995062721803482 4.158849068795526 -1 1 0
1040 1 -1.2 -0.08531259106571172 3.9126350572538966 5.755044868819098 0 0 1
845 1 -1.2 3.4738688462528846 4.214506372249306 4.577616693933689 1 1 0
803 1 -1.2 7.342774249768503 4.513006209138766 3.7844079454749973 -1 1 0
60 1 -1.2 10.55789356206204 5.3630129848288135 4.3649152390299815 0 0 0
1248 1 -1.2 15.419758601008342 5.04112016329242 5.323986640166441 0 0 0
1537 2 2.4 15.729337137409459 3.609337909697364 4.872866924634221 0 0 0
549 1 -1.2 17.121693802877687 3.682221544675088 3.92425319960897 0 1 0
1156 2 2.4 18.93466593868986 3.4739381845185795 3.6402221190526256 -1 0 0
2109 1 -1.2 19.672691073138175 3.3162535439810497 5.401789543393428 0 1 1
1804 2 2.4 20.05493436856463 1.6539938451512217 5.988251290386547 0 0 1
1185 1 -1.2 21.808602022683058 2.022579728242691 6.060605843768036 0 0 0
2012 1 -1.2 24.24774485548512 3.358045576478528 5.18836783743394 1 0 1
2116 2 2.4 23.23763324462895 2.2240370844314774 5.329666346363558 0 1 1
1606 1 -1.2 25.380638733552342 4.563148041388779 3.598525398026854 -1 1 1
795 2 2.4 25.07043374813128 4.723799590591487 5.021567897764201 -1 1 0
1243 1 -1.2 26.149785392711667 4.117986033803383 6.153111853110011 -1 1 0
2075 1 -1.2 28.334606203993285 1.8878346033189972 6.102807311232946 0 0 0
364 2 2.4 29.376864608983677 2.4157991283310154 4.981080182546891 -1 1 0
1511 1 -1.2 29.89956018221195 8.431849493005421 5.96822778942714 0 1 0
1545 1 -1.2 3.7672988394013225 8.478662578959595 3.9316380044216994 1 1 0
292 2 2.4 5.399828870883156 7.814318299808286 4.284729893063904 0 1 0
948 1 -1.2 5.623731781207622 7.510039296575764 5.828160063533004 0 0 0
1506 1 -1.2 9.340185667725324 8.02852818078559 4.7576250726925755 0 0 1
260 1 -1.2 17.928277777079817 8.002458476856596 4.03514745315478 0 0 -1
1636 2 2.4 17.829068229861974 7.728340520050216 5.89508031153526 1 1 0
2028 1 -1.2 19.353189514679247 5.0651545310348 3.451008691256225 0 1 0
1270 1 -1.2 20.76944634174562 7.3115729814857096 3.4834227926582058 1 0 1
706 1 -1.2 22.30388930220857 7.711694347909528 5.392324752606852 0 0 0
552 1 -1.2 24.76729456083639 8.028911438854417 4.412976050279138 0 0 0
791 1 -1.2 28.655299377439864 6.687878115322116 5.786344640971963 0 1 0
632 1 -1.2 1.5151339499350756 8.956420217662703 4.3817211505337665 1 0 0
1612 2 2.4 0.05456159260967178 9.737880097918373 4.972864524723685 1 1 1
2123 1 -1.2 0.5246071352705622 10.853891878055565 6.116561909223882 0 0 1
806 2 2.4 2.7059683665290315 8.255476655239304 5.290097369948709 0 0 0
561 1 -1.2 3.2605542053675625 9.495877899808452 6.247056220904078 1 0 0
27 2 2.4 4.6925672708490715 11.32309650416976 5.842872100601183 0 0 0
1120 2 2.4 8.378525046014788 8.522736470529079 3.794359208265061 0 1 1
432 1 -1.2 8.436545218632979 10.122488114474582 3.354023817792971 0 0 0
989 1 -1.2 19.543539198774482 7.636462098196477 5.907613027750211 0 0 0
1948 2 2.4 20.8125773717362 8.226662964411242 4.962787006002846 0 1 1
2111 1 -1.2 20.71957301961516 9.868876114144575 5.149744960569081 -1 1 1
384 1 -1.2 24.606081918996434 10.104268494947197 3.0564200643682646 0 1 0
493 2 2.4 25.622732544808702 8.33459864887077 3.1320846444550936 0 0 1
867 2 2.4 28.59397402087491 11.554192181977552 3.014911455848586 -1 -1 0
155 1 -1.2 29.346309663189476 10.016261340933942 4.033283513281708 -1 0 0
1944 1 -1.2 2.2923270219455483 12.960639816683255 2.6085336218282524 1 0 1
981 1 -1.2 3.255861390214378 11.877537797015764 5.733549211566764 0 0 0
1990 1 -1.2 5.393739365996522 10.539106495578926 3.6847372181576463 0 0 1
891 2 2.4 7.0557214994356245 11.248065615534626 3.4581703457055673 0 0 0
1182 1 -1.2 7.389110473916889 12.05339519066083 5.144548748064246 0 0 0
1220 1 -1.2 13.211776324926406 12.822513886793889 3.6663590799419206 1 0 0
1826 2 2.4 12.789795954463031 13.032672940101943 5.325494305105532 0 0 1
1169 1 -1.2 18.8650324638213 11.883494021039683 3.4584813025868093 0 0 1
2055 2 2.4 19.58657005953912 12.941291409022186 4.112279988664992 0 0 1
618 1 -1.2 20.912729648047776 12.518167121364005 5.013489798958426 1 0 0
1590 1 -1.2 20.11640021322722 13.737764002242427 2.6982552327120333 0 0 0
302 2 2.4 22.712925982908455 13.36028105287926 4.9095095465322744 -1 0 0
228 1 -1.2 23.636441236214456 12.20316320308433 4.513733306125921 -1 0 0
752 1 -1.2 29.857800648371132 12.622390333251687 2.831763150637986 -1 1 1
1218 1 -1.2 27.58174524772151 12.416352591545213 4.253191327905635 0 0 0
1165 2 2.4 27.765685879641037 13.613931414713125 5.49478994155696 -1 0 0
96 1 -1.2 0.060524611167744595 16.013358623475952 3.631338722113428 0 0 0
1446 1 -1.2 3.8040192317315005 14.264111158595131 4.168266929357439 0 -1 1
1201 2 2.4 4.7572856832582255 15.163509174619753 5.217791816151714 1 0 1
1726 1 -1.2 6.493638680435256 15.081827223184208 5.381001704752814 1 1 1
315 2 2.4 7.673695229905382 13.925838104370436 4.884491000598788 0 0 0
800 1 -1.2 8.277568918065713 14.22862196854292 3.3665905562456877 0 1 0
512 1 -1.2 17.708761450181818 16.35667775148498 4.175984526223825 0 0 0
2105 1 -1.2 19.138979482498033 14.13516819165173 5.210976020775088 -1 1 0
1928 1 -1.2 22.315769943750084 14.449763763525475 3.740725702374997 0 0 1
1696 2 2.4 21.662530441717987 15.64492922345986 2.716448229856736 0 1 1
174 1 -1.2 24.88135832757336 16.204018490062637 5.066461272697473 0 0 0
1700 1 -1.2 27.661909701883477 15.719832625612966 4.119572367649982 -1 0 1
1925 1 -1.2 28.877501900710765 14.912155133042276 5.903174599679822 0 0 1
1755 2 2.4 29.41564821217274 15.875758790697317 4.86715338170219 -1 0 1
1894 1 -1.2 2.341513519757608 18.54629875649075 5.111993350345255 1 0 1
1329 1 -1.2 4.812892379010476 16.615807119534622 4.642826633517139 1 0 1
1429 2 2.4 5.509094179687787 17.97925065244245 4.560894904914207 1 0 0
1452 1 -1.2 6.838601780678831 18.020111682599865 3.698705969851679 0 -1 1
1408 2 2.4 16.440779989059692 17.45410359127622 4.301436414681298 0 0 0
257 1 -1.2 15.254886242851937 16.563927073945 4.817254235079182 0 1 0
1878 1 -1.2 17.330979055998657 18.90903893196238 4.729569646628342 0 0 1
197 1 -1.2 20.55880296785019 16.78097168466808 2.856019123386992 0 -1 0
208 2 2.4 20.393643586878603 18.34022695774596 2.844543961017751 0 0 0
1518 1 -1.2 21.800306820160902 19.15678254256326 2.734383098511385 0 0 0
1853 1 -1.2 22.971753871497977 16.357316912600254 2.9156063391182014 0 -1 1
76 2 2.4 24.24700799493018 17.086993153027684 3.9062343655534604 -1 -1 -1
187 1 -1.2 23.50953699925731 18.569697966179287 4.927108569034694 0 0 0
910 1 -1.2 28.312493030254558 18.52119048243867 3.5559395105139657 -1 0 0
1897 2 2.4 0.9473493150762342 19.349128286161605 5.879624504036286 1 0 0
1272 1 -1.2 4.854195553302116 19.34897644000473 3.9137258227438556 1 1 1
20 1 -1.2 11.257343740791368 19.5318854301416 2.955203591545387 -1 0 0
1471 1 -1.2 13.190389411082409 19.55487574271207 5.078569181805269 0 0 1
899 1 -1.2 11.42400409392463 21.587870777052707 5.2463790190958255 0 -1 0
316 2 2.4 11.531518674718782 19.91001335615377 4.40170894483271 0 0 0
1420 2 2.4 13.136821410446295 21.29045740673614 5.278766050342638 0 0 1
309 1 -1.2 14.484358792817485 21.77436821060913 4.296808978346321 0 0 0
1653 1 -1.2 16.0309021685907 22.49921113521697 2.128661322443247 1 0 1
939 2 2.4 16.018700200101524 22.493703194851353 3.878441035481056 -1 0 0
1430 2 2.4 19.549325851635615 22.624693407475366 5.128627077772716 0 -1 0
886 1 -1.2 19.0268682497591 21.106863358128233 4.533852625005118 0 -1 1
1569 1 -1.2 22.73041399240396 21.324839038177046 3.9860572948587403 0 0 1
301 2 2.4 23.057367273700574 19.57883862963888 3.6761898514422957 0 0 0
354 1 -1.2 28.535450944453522 21.02108174639322 3.6002176760820532 0 0 0
903 2 2.4 28.61308901095557 19.644601992779936 4.52433169870333 0 -1 0
1158 1 -1.2 -0.1300086508554692 19.207810858690383 4.670633112512057 0 0 0
299 1 -1.2 1.093300560869558 22.9566859841553 4.838912628461999 0 -1 0
868 2 2.4 2.191090094392925 21.672936400185893 4.768339871187847 0 0 1
106 1 -1.2 3.9856982632163147 21.709081650457804 4.933973716362902 1 0 0
567 2 2.4 4.973248573553231 22.704638072424853 3.8888303090296787 1 0 0
1111 1 -1.2 4.813755487529199 22.792618646476452 2.2374624930234663 0 0 0
216 1 -1.2 6.408642639814822 22.052420151582627 4.39346403264112 0 0 0
1460 1 -1.2 10.005831093425858 24.269922120935874 5.618470511026213 0 0 1
594 1 -1.2 15.93881925357035 24.2259877646616 3.960558512266957 0 0 0
157 2 2.4 20.280464577603478 24.79747399889229 3.280859845024719 0 -1 0
1626 1 -1.2 18.999933025783577 23.850865362877617 3.873108829091402 0 0 0
343 1 -1.2 21.33915517918632 23.604714965101742 3.0602452762727395 0 -1 0
2140 2 2.4 22.8021841885098 23.01000561802984 3.482082182508192 0 1 1
838 1 -1.2 23.273287479529998 23.48880107168464 5.060830543839112 0 0 1
586 1 -1.2 24.19294903543957 23.074559231188914 2.6808294265946446 -1 0 0
2160 1 -1.2 26.530260165535868 23.680637430903843 6.73875302853527 1 0 1
1166 2 2.4 28.366543483943534 22.432671832974776 3.0678744152975708 -1 0 0
1787 1 -1.2 28.273392083483003 23.315632587846867 4.378021195288196 -1 -1 1
1806 1 -1.2 3.993753326178207 27.485184049189797 4.942576085096047 0 0 1
1336 2 2.4 4.436461731399299 25.613050342691693 5.111068241349094 1 -1 1
1566 1 -1.2 7.535221414432854 27.98330944147656 5.080435803664828 1 0 1
1758 1 -1.2 4.8847412092727565 24.35842538631217 4.365891868788486 1 -1 1
2062 1 -1.2 7.880152657443702 26.02911184792902 3.8218217865626927 0 0 1
1598 2 2.4 9.437579525270976 25.34734467964979 4.253965609498588 0 0 1
1611 2 2.4 7.55418416897861 27.79327977218319 3.5850454102866305 0 0 0
568 2 2.4 16.499271182875948 26.709681992798206 1.1875445738426722 0 -1 0
1115 1 -1.2 15.224014403863974 26.548322267331116 4.571257754963301 0 -1 1
1354 1 -1.2 17.106816577430404 25.682276916733613 2.5186002550220192 0 -1 0
1803 2 2.4 16.800925788402232 25.49523910034197 4.144425960866318 0 -1 1
77 1 -1.2 20.156562615859997 28.495538730519012 4.041179296349438 0 0 -1
1214 2 2.4 21.244747487671905 28.992106482253206 3.0592898870274094 0 0 1
407 1 -1.2 22.565383497523456 27.65556722860208 3.08213261167156 0 0 0
153 1 -1.2 25.378379724311706 26.697797355795405 5.457214108553546 -1 0 0
1490 2 2.4 27.91106468032891 24.014671488248204 5.810335399126957 0 0 0
720 1 -1.2 28.135381877511623 25.75189078022199 5.435546091658588 1 0 0
141 1 -1.2 1.5740613807910069 28.9124403938152 5.705295504493822 1 0 0
1263 2 2.4 4.609051063011466 0.9148764313597241 5.780683315924178 1 0 0
746 2 2.4 2.899379608943626 28.70050003899417 4.725053718675943 1 0 0
437 1 -1.2 3.681169100621619 30.145759952811076 4.63955697115654 0 -1 0
1920 1 -1.2 8.806307556812873 28.749163848059148 2.9266003483880505 0 -1 1
417 1 -1.2 10.294444944063079 26.743043770062275 4.006612579609557 0 0 0
562 1 -1.2 14.889879949317196 26.927243022858367 1.6577006145216324 0 -1 1
670 1 -1.2 21.932960917486223 29.85857517694933 4.357983461274472 0 0 0
866 2 2.4 23.30604079989619 0.10900098168882717 3.5449689503773896 0 0 0
1374 1 -1.2 24.650424206967823 29.698645086917328 3.8270317897328883 0 -1 0
2113 2 2.4 23.884762709946997 27.959224530382134 4.318899709124967 -1 0 1
1222 1 -1.2 27.608414245202415 28.07119633462977 4.25559706746379 1 -1 0
295 1 -1.2 28.146690144953297 26.37406593827125 2.67856444636806 -1 -1 0
16 2 2.4 29.197164013935968 26.531756964816438 3.8706934112531868 0 -1 0
327 2 2.4 6.892956183714573 3.0749524612933112 8.988937166951757 1 1 0
1963 1 -1.2 6.990978319996215 1.4285510983969418 8.45079537430131 0 1 1
644 1 -1.2 9.463519501607648 1.239870883552369 7.017513030020311 1 0 0
2033 1 -1.2 13.718910003915079 1.3560293098260077 6.168379914718281 0 1 1
1563 2 2.4 15.689328674233021 28.45774919243471 5.38244946480316 0 0 1
45 1 -1.2 18.677121726874677 0.40646443289633455 5.191377989990792 1 0 0
1996 2 2.4 21.046711284881564 1.603904411449829 8.51606323696803 0 1 1
1337 1 -1.2 19.754968921938026 1.439867686996421 7.425975722101086 0 0 1
418 1 -1.2 22.500605102560222 0.6106101979938775 8.129677138467795 0 1 0
834 1 -1.2 25.378283110922023 0.4220988733762223 8.833638024487602 0 1 0
869 1 -1.2 26.814882462775337 2.3339242505707074 8.253386453835134 -1 0 0
1133 1 -1.2 2.344172345351217 6.5760033031243745 5.594463344849848 1 1 0
533 1 -1.2 2.5154216626767045 4.0993589046315035 7.289443837916062 1 0 0
1753 2 2.4 3.052034612500654 5.012115659163815 5.94905798481274 0 0 1
1519 1 -1.2 5.640068406305414 3.672154020115047 8.37274976082986 1 0 0
2087 1 -1.2 4.6942867976091724 5.194431529281038 6.764600837971615 1 0 0
785 1 -1.2 8.184080882438893 3.6252023413311183 7.977090040284281 1 0 0
195 2 2.4 11.248276722497316 4.87591964783068 5.769154429217409 0 0 0
52 2 2.4 9.153950254516214 2.970063495746965 7.002639968692929 1 0 0
1318 1 -1.2 9.930016424941172 4.106883971163088 6.478400525963801 0 0 0
1383 2 2.4 12.825267019698476 2.899597537175576 6.7764032957415195 0 0 0
150 1 -1.2 12.665549764308803 4.302272598804345 5.445206921966941 0 0 0
290 2 2.4 15.433719788073345 3.1136815089765664 7.977329731838467 0 1 0
271 1 -1.2 13.887104537514343 3.6840044292807677 7.9333095519438634 1 1 0
1269 1 -1.2 16.083645114471196 4.643690554119664 8.081404185013424 0 1 0
2021 1 -1.2 20.82931560092352 3.1820471175105647 9.181838226467688 0 1 1
503 1 -1.2 24.153490668503085 1.1752062683040156 6.461939409216507 0 0 0
184 2 2.4 27.132075776148586 0.8788922945783243 8.568907978848246 0 0 0
423 2 2.4 27.371175472980497 3.092207794405833 6.902467949309106 0 1 0
979 1 -1.2 27.795431935392504 0.9474874015886238 10.285096926080008 0 1 1
1981 2 2.4 29.306950951660195 5.327134486370293 6.5692423833861096 0 0 1
1373 1 -1.2 28.23984398684115 4.592106153630658 7.431980086605772 -1 0 1
761 1 -1.2 3.1844770343228013 8.216804347288342 9.925174467404972 0 0 0
1757 1 -1.2 0.06070226979130888 6.171822140177176 7.461528040089905 0 0 0
147 2 2.4 5.108638015362802 6.758096279881507 7.267014378274413 0 1 0
1104 1 -1.2 3.490249152694562 7.574068467126021 7.629856409964064 0 0 0
912 1 -1.2 6.597913321804099 7.100853311452909 7.797851244937649 1 0 0
136 2 2.4 7.841859906940254 8.422439274660585 8.189375690961418 1 -1 -1
255 2 2.4 10.35263260972789 7.71643438787163 6.168794243126392 0 1 0
1061 1 -1.2 9.14666714516695 7.893686570848967 7.5427054171228685 1 0 0
630 1 -1.2 11.206758218233823 6.426807807597987 6.609600335016316 1 0 0
1649 1 -1.2 14.644318801943019 6.896756213319083 7.438166139851195 0 1 0
807 2 2.4 15.834174897324354 5.78253840171452 6.739510922395413 -1 1 0
1056 1 -1.2 17.333628602177836 6.343743447823615 6.657428460419001 0 0 0
247 1 -1.2 22.70638062257263 5.055951933595369 8.307900877156861 -1 1 0
2063 1 -1.2 23.892093367860724 5.830559228921293 5.764763014064396 0 0 0
1555 1 -1.2 24.284148058157612 8.286981663659644 6.823974220203271 0 0 0
409 2 2.4 23.794981751750548 7.267696958158917 5.684523827370646 0 1 0
1732 2 2.4 29.547663341418584 7.584138790289618 7.187454239500607 -1 -1 1
1794 1 -1.2 29.465308038827057 8.424072238971801 8.592943753103196 0 -1 1
1343 1 -1.2 2.4559161973760433 10.467463291176955 8.468895463849938 0 0 1
1730 2 2.4 2.171968650089689 11.11861867727459 6.6901026860053125 0 0 1
1790 2 2.4 3.2007686963879434 9.049442052865162 8.43904300186602 1 0 0
297 1 -1.2 5.602374861002719 11.852874548664262 7.098434232681186 0 0 0
1432 2 2.4 6.227275019757308 10.555342295780694 7.927807188507173 1 0 1
1229 1 -1.2 11.465015878926295 9.170900250529664 6.25468020883022 0 0 0
751 1 -1.2 12.232772459598536 10.67682148518935 8.16195998663618 0 0 0
950 2 2.4 12.770278710413905 10.180920404939528 6.494810378370784 0 0 0
341 1 -1.2 14.166016503591548 9.430951317645482 6.570183062614034 0 1 0
112 2 2.4 15.660800296201819 9.711960296960772 7.168624196640045 1 0 0
1978 1 -1.2 15.412451349281273 9.152492696785778 8.762211887294443 0 0 1
596 1 -1.2 16.628518409684126 8.64274090278965 6.501975560265202 0 0 0
1254 1 -1.2 19.602201258306597 10.329690937516423 7.269076685330984 -1 0 0
1516 2 2.4 21.118419598356617 11.11647107133167 6.301764951782553 0 0 0
1825 2 2.4 23.310491865207208 9.536783782773604 7.671090410480779 0 0 1
1183 1 -1.2 22.649271743213177 10.588250148453932 6.4571073680347775 0 0 0
1728 1 -1.2 24.49034276523862 10.46119705728454 8.088428201969727 0 1 1
1686 1 -1.2 29.394804545155605 11.146084885348092 8.331577839370835 0 1 1
908 1 -1.2 0.9937822127014023 12.699977250920437 7.210663184639508 1 0 1
1009 2 2.4 29.85640632623126 12.362812106007553 7.351963341506388 -1 0 0
1714 1 -1.2 7.182455204130593 11.49309215799371 8.768299464518897 1 1 1
887 1 -1.2 9.866357354449441 11.338925018502904 9.409860946488733 -1 -1 0
1715 1 -1.2 10.616029999454822 12.707398108765016 7.480331446975622 0 1 0
750 1 -1.2 12.95393400650032 11.464891145841571 5.622825529533859 0 1 0
649 2 2.4 11.233671096580318 11.668183855138212 8.597098058035913 0 0 0
1497 1 -1.2 13.95145122557506 14.01118042992576 5.776833806943053 1 0 1
522 1 -1.2 15.392092366873966 11.384290239221833 5.894509750994805 1 1 0
73 2 2.4 15.511345237170904 13.065154087642398 6.046801799090758 0 0 0
2046 1 -1.2 15.950436633454636 13.598586277670329 7.6109464062802585 0 0 1
1415 1 -1.2 16.535902355127146 13.75883913162616 4.915156092074565 0 0 0
1799 1 -1.2 20.912515118830363 12.579440058319651 7.545785670691214 0 0 0
1095 2 2.4 19.655932736521653 13.119833609225921 8.350863289181127 -1 0 0
1244 1 -1.2 23.24833628582771 13.968597120239746 6.268547689932249 -1 1 0
21 1 -1.2 28.52989880318649 12.495067159143899 6.228082535670658 -1 0 1
1762 1 -1.2 3.9194602811496577 14.732045231235125 6.6081085463654 0 0 1
759 2 2.4 4.848369930452234 14.743486551307095 7.920655867415103 1 1 0
1608 1 -1.2 6.351949697451682 14.256398420015138 8.014147395250347 0 0 0
1171 1 -1.2 8.583658077904676 14.021810185556156 6.3889158811605915 0 1 0
1333 2 2.4 10.294540389146928 13.831772051031313 6.439543611965359 0 0 1
1388 1 -1.2 10.767482591051595 15.35267306096725 6.814918466372615 0 0 0
789 1 -1.2 11.121261687067385 13.19452473124973 5.0920506158365955 0 1 1
794 2 2.4 17.75094271453738 15.000578551846207 5.378389953278721 -1 1 0
907 1 -1.2 17.922414383750386 15.994780782449386 6.762567895505685 0 0 0
517 2 2.4 17.762800572805673 16.423332128803224 8.209715122732922 -1 -1 0
1502 2 2.4 23.356231560203547 15.00688365073397 7.35167397193398 0 0 1
1967 1 -1.2 26.297712415273416 14.061626085865706 6.272303525609467 -1 0 1
238 1 -1.2 24.78794102509528 15.98310839250621 7.3460021026588995 -1 0 0
1144 2 2.4 25.941350451651317 15.478730582491337 6.341802802006149 0 0 0
1039 1 -1.2 30.249108787157397 17.05911976518117 5.804702291523251 -1 0 0
2147 1 -1.2 0.6612474891456515 18.981987286993128 7.443168378274863 1 0 1
1033 2 2.4 -0.005989158615830866 17.58771562654704 7.448422739105408 0 0 0
852 1 -1.2 4.821292200784736 16.49170412253006 8.190828130700366 1 0 0
2070 1 -1.2 3.8515071045664175 18.939683480650853 8.529632400439448 1 0 1
927 2 2.4 5.014827277128899 17.976190995262222 7.809395901624648 1 0 0
405 1 -1.2 5.722084991035061 17.99179140970855 6.21281859031367 1 0 0
952 2 2.4 9.838175151424386 16.201849746245255 7.71944547062127 0 0 0
1339 1 -1.2 8.886303081511585 17.297174941453683 6.875315875525946 0 0 0
1724 1 -1.2 10.246417116624917 19.05257846902668 5.432448603231413 1 0 1
226 1 -1.2 15.008391444085088 20.085041687958732 7.641140425789224 0 0 0
1433 1 -1.2 16.85290839737589 17.780497870032406 8.034183836538467 0 0 1
818 2 2.4 18.817037655367823 19.52920769487393 5.098732599863565 0 0 0
917 1 -1.2 20.061989099771605 18.974075244827105 4.2207546767242645 0 -1 0
415 1 -1.2 26.769321350800634 16.902511147413158 6.5101878379771305 0 0 0
122 2 2.4 27.411328029728484 18.226601464133573 7.05787361837859 0 0 0
1092 1 -1.2 26.780278832214027 19.2024064559249 8.406927981594617 -1 0 0
737 1 -1.2 28.89559139869575 18.12429283938011 7.743104296162838 -1 0 0
1257 1 -1.2 1.48868242402509 20.931754131125384 6.131653354713088 0 0 0
2076 1 -1.2 7.935045419781624 19.476609165277484 5.05249754838758 0 0 0
194 2 2.4 8.853382407248459 18.836779667727857 6.233076201110337 0 0 0
72 1 -1.2 8.653631575962342 19.32438774446931 7.8702010114686995 1 0 0
2102 2 2.4 14.072173946972146 21.27108342140143 8.107940970012145 0 0 1
559 1 -1.2 13.363271962284816 21.87362517097331 6.7764925054933824 0 -1 1
2131 1 -1.2 19.2647979476684 23.204755934225158 6.68071184029162 0 1 0
1685 1 -1.2 19.03445332694306 20.26527582364719 6.632444590215247 0 1 1
413 1 -1.2 27.7279865160519 19.40504514442527 5.7897323202171735 0 1 0
1646 2 2.4 30.201153647117884 23.635207478439774 8.056274377727123 0 -1 1
1224 1 -1.2 1.1509056827366055 24.2428707212323 7.720575531780959 1 0 0
677 1 -1.2 6.3822964549323675 20.72079811727849 6.950389261599482 0 0 0
1957 2 2.4 7.369645860988674 20.90655425519692 5.430143855846874 0 0 1
967 1 -1.2 8.726681648050542 21.89983352440732 5.93901716837474 0 -1 0
1381 2 2.4 10.222954847977638 22.759309598668274 5.990931600394005 1 -1 0
1625 1 -1.2 10.173823212435678 23.025842050169054 7.64579201771521 0 0 1
638 2 2.4 10.691225097184976 24.01942671820635 8.81246630353713 1 -1 0
1919 1 -1.2 20.962920184301915 22.258751252358785 5.568435914914616 0 -1 1
219 2 2.4 22.010080237553733 23.644995649429088 6.035447202598375 -1 0 0
1445 1 -1.2 21.214730738210054 25.23865465145377 5.109453791916314 -1 0 1
1193 1 -1.2 22.027864970688707 24.37707334823716 7.429975810172505 0 0 0
1210 1 -1.2 24.48931947665432 24.784078432106217 7.693261710002785 1 0 0
1203 2 2.4 23.12844654359073 24.49468457847572 8.819861360896947 0 0 0
880 2 2.4 26.080256210223872 24.45221140136181 8.094995345568512 0 -1 0
1233 1 -1.2 0.058702325849521925 21.9947092750707 8.382038832736885 0 0 0
1084 2 2.4 2.3512174392680207 25.77726070853173 7.406369382320615 0 -1 1
2047 1 -1.2 1.3299591325382336 26.483395733000595 6.316733914750119 1 0 1
476 1 -1.2 2.8570009557893723 26.353776571536994 9.125014385012058 1 -1 0
1305 1 -1.2 3.586514159348487 25.03791630147944 6.554339427083264 -1 -1 0
449 1 -1.2 5.736529303913469 26.211977632079428 6.37318296457764 1 -1 0
188 1 -1.2 8.100652792413605 26.730152596460126 7.485852227312275 1 -1 0
1526 2 2.4 6.7288874322523435 27.36728014483634 6.399217045129393 0 -1 1
507 2 2.4 8.418440691926998 26.348178636993243 8.988651890031788 0 0 0
1162 1 -1.2 9.27452867156426 25.047362971745574 9.126492174438095 1 0 0
1567 1 -1.2 14.764351195634953 26.391205266720533 8.460957068444815 0 0 1
414 1 -1.2 17.980369130218993 25.657309506719635 5.5827289095715 1 0 0
1407 2 2.4 19.570190071056658 25.088323445472604 5.968637134485192 0 0 1
2119 1 -1.2 19.981801836403477 26.1485233255814 7.520186412098242 0 0 1
382 1 -1.2 23.00962388022626 27.657108963997317 5.821540332028893 -1 0 0
947 1 -1.2 26.82780935390732 26.04987162359512 8.652731110797765 -1 -1 1
1256 1 -1.2 29.08378466002033 23.419050066800388 6.689432918991429 0 0 0
1521 1 -1.2 29.939434633140458 28.855804390688316 6.805769643215911 -1 0 0
2092 2 2.4 0.5669603736583906 27.93287806672766 6.014141036130884 0 0 1
1570 1 -1.2 4.700013307606053 0.25383902995306223 7.491617204604755 1 1 1
1912 2 2.4 6.516913916388325 0.31475075482156983 7.427359111585003 1 0 1
41 1 -1.2 7.084619138707791 29.177194036920035 7.567349342484421 1 -1 0
2061 1 -1.2 14.626685573046494 29.606647206268182 4.894309137928136 0 -1 0
985 2 2.4 13.336522587804433 30.31542399523968 5.679348606876446 1 -1 1
524 1 -1.2 12.596327057171846 29.684244083722714 6.981643190852202 0 -1 0
1899 2 2.4 12.72650624360249 29.104296715425093 8.43401495703306 1 -1 1
1292 1 -1.2 15.971261710942587 28.793202911449615 7.349225349844911 0 0 0
2048 1 -1.2 16.433214713237916 27.734465695932965 9.827834380077828 0 0 1
4 2 2.4 15.289683944923954 27.88353579230973 8.615321629776112 0 -1 0
144 1 -1.2 18.936647527308534 28.685650553163313 6.358783068571466 0 -1 0
1863 2 2.4 19.75534958136164 27.798846489074165 7.364491110982876 0 -1 1
320 1 -1.2 21.362972168758684 28.220540035340147 7.790985249008099 0 0 0
1705 2 2.4 23.10022282999325 27.725375182550163 7.488580398769377 0 0 0
1089 1 -1.2 27.571659287574224 27.60638446944246 6.733200897004768 -1 -1 1
663 2 2.4 27.06848300299864 26.963949527769362 5.309348156242699 0 -1 0
1114 1 -1.2 30.12923429724651 27.760619046737087 4.514148253226108 -1 0 1
205 2 2.4 2.568309883225021 2.2916814119819087 10.63166445139628 1 0 0
1751 1 -1.2 0.6558605415930598 2.4271626199193905 10.411043233470648 0 0 0
700 2 2.4 0.8199586314732519 0.948106601630152 11.145200587236092 1 1 0
173 1 -1.2 2.555016488321047 0.5737561396363888 11.098775285049284 0 2 0
1437 1 -1.2 3.4131137112123477 2.4267539153640594 9.24226490361588 1 0 0
399 2 2.4 10.422731578150684 1.1380048302941341 8.438873350485887 0 1 0
1236 1 -1.2 8.84362214291607 0.5524934565497455 11.561934747817268 0 1 0
1690 1 -1.2 11.01187685296293 30.314368120818195 9.117719582040102 1 0 0
121 2 2.4 9.343661654422947 1.972320425249506 11.131939360547198 1 0 0
30 1 -1.2 10.04678787727665 2.0732203930831217 9.730385404161115 1 -1 0
1773 1 -1.2 11.874063412303386 2.0295752421550026 7.769742656556544 0 1 1
817 2 2.4 16.43527734269597 1.4249288819627335 10.36202409630956 0 1 0
1100 1 -1.2 15.152769073981938 1.6935915540594004 11.35951822908139 0 0 1
1940 1 -1.2 15.811614679913802 1.928923002264547 8.979312138567826 0 1 1
143 1 -1.2 17.474340386092884 30.358528926596588 9.695380454968339 0 1 0
930 1 -1.2 20.442285128528404 0.670361758751791 9.563616540660043 1 0 0
1262 2 2.4 23.934722434046584 0.6269779762152089 7.9278175569834985 -1 1 0
1363 1 -1.2 25.91230243840236 1.1457253519031538 11.853880081013216 0 0 0
2002 1 -1.2 27.948940657420472 -0.11571581493818578 7.372402821969757 0 1 0
261 1 -1.2 4.017805948963514 5.630483949813636 9.301798913374562 1 2 0
148 2 2.4 3.9292405115193123 4.27882511416107 8.2747863911991 1 1 0
691 1 -1.2 7.454233037930273 3.1252003564540916 10.568094633633281 0 0 0
1952 1 -1.2 17.635937688762137 5.495609865304049 11.090628380023709 0 1 1
352 2 2.4 21.496415094961048 4.627901936416652 9.423184854379835 0 1 0
984 1 -1.2 22.46899528333374 5.401592058699877 11.045394290463836 1 0 0
551 1 -1.2 25.08243012322911 6.140383254356155 10.919109138175028 -1 0 0
1368 1 -1.2 1.5148798907703935 6.195155264381857 10.74733501968457 1 0 1
592 2 2.4 3.0607255437383762 6.708086448706652 10.26573912133003 0 1 0
1042 1 -1.2 4.203312937390098 6.122843261926785 11.62707699959872 0 1 0
892 2 2.4 5.322487861189571 6.94619726620566 12.297349259706145 0 1 0
1807 1 -1.2 6.294890460726878 7.581939816535374 11.13284964753958 0 0 1
278 2 2.4 7.744940297528796 7.738645698461905 11.389749530683936 1 0 0
1241 1 -1.2 8.3033479991109 8.736318436385234 9.815694691071213 0 1 1
90 1 -1.2 14.539989360527787 7.368134565832972 10.33404077057759 0 0 0
1575 2 2.4 15.545813883135335 7.698514813535647 8.714956298827493 0 0 1
1331 1 -1.2 20.129556308401582 5.661836494277638 10.220426380902717 -1 0 0
434 2 2.4 19.242693392798596 6.454014875915869 11.23410728156489 0 0 0
462 1 -1.2 19.032816551159343 7.918007822131964 11.385723667316832 0 0 0
639 2 2.4 23.665919551473248 6.446393431999707 11.50946492017751 0 0 0
319 1 -1.2 23.073321413105692 7.601120101229525 11.003840011211008 0 1 0
56 1 -1.2 5.080078769580955 9.480534223656836 8.525157945366267 0 0 0
1362 1 -1.2 7.551344526009747 9.85982442188956 7.109664243650226 1 0 1
1279 1 -1.2 7.46915223361832 9.165703269214431 12.510005856024355 1 1 0
1051 1 -1.2 11.978301790140085 10.502063864574696 11.393086805539898 0 0 0
945 1 -1.2 17.170568220610498 7.327145335040969 9.226005728409449 -1 -1 0
1514 2 2.4 18.00543517447306 8.685245866480702 10.294043015271638 -1 1 0
954 1 -1.2 16.87467632580476 10.964085997691408 7.697346603721838 0 0 0
884 1 -1.2 16.900118622910846 9.918231036326944 10.952385141644482 0 0 0
1749 1 -1.2 19.052670196672217 9.443564707076389 9.454624761826569 -1 0 1
986 2 2.4 18.589806768426794 10.625467632455907 8.37542404353595 0 0 0
564 1 -1.2 22.515376796311905 9.355786826112233 9.02485066409004 0 0 0
949 2 2.4 23.188837065971708 9.062899874934292 10.631953118363057 0 0 0
1076 1 -1.2 24.667563703934203 9.157100454433245 10.66538796691014 0 0 0
1861 2 2.4 25.509562500605107 9.99064648744198 9.354130255041893 0 0 0
1844 1 -1.2 27.106626475650643 10.018559959738795 9.475041466223061 0 0 0
849 1 -1.2 25.34811013759599 11.639801341192777 9.773126436889482 0 1 0
457 2 2.4 28.77007517112835 9.921764240213685 9.13204478331534 0 0 0
1964 1 -1.2 29.388696337038798 9.65781077586321 10.714251585729606 -1 1 1
1489 2 2.4 29.800051376210583 10.95059363258327 11.636963898763089 0 0 0
865 2 2.4 8.433751412276823 11.9517655491183 9.676363159074961 0 -1 0
729 1 -1.2 8.449651253533029 11.681124986982343 11.169256276147065 0 1 1
1638 1 -1.2 8.561602903878352 13.560738151928781 9.636206226543688 0 0 1
1027 1 -1.2 12.117878926664659 12.917228106389882 9.841537509672147 0 0 0
466 1 -1.2 17.19666633285468 13.34084500854999 10.145133202237933 0 0 0
138 1 -1.2 18.13971318399259 13.447035309978643 7.952878371477216 0 0 0
231 2 2.4 16.773153531395902 14.158055185976817 8.67760154282397 0 0 -1
815 1 -1.2 19.313861597953405 11.901862629836737 9.303137449888819 -1 0 0
282 1 -1.2 20.332924743421486 14.392896416977242 9.124928752142884 1 0 0
210 1 -1.2 24.14507407187648 13.973129100997538 9.050803488984497 0 0 0
1523 1 -1.2 24.962300684417148 14.158118403693436 11.46551344091933 0 0 0
2005 2 2.4 25.41610197485132 13.3144586640391 10.220606704612582 1 0 1
2036 1 -1.2 27.18308795040189 12.924042429216147 9.972552150949957 -1 0 1
588 1 -1.2 29.494296182189846 13.764400621661114 8.869871542343496 0 0 0
2158 1 -1.2 29.738077691644815 12.496260481463661 10.91092933009929 -1 1 0
2091 2 2.4 28.618428796579547 13.682389654753976 10.296217247482431 -1 1 0
1342 1 -1.2 1.5598184924495142 14.867209592550028 9.891582038535999 1 0 0
1172 1 -1.2 3.444408251106878 13.829448452150135 8.666354547033865 -1 1 0
1107 2 2.4 2.7771158456501093 13.851380861294766 10.06477103074125 0 0 0
876 1 -1.2 8.410382432836519 15.725795313263024 8.570097237396936 0 -1 0
123 2 2.4 7.438779746750592 14.763021069504573 9.371264912908384 0 0 0
308 1 -1.2 6.207421561849329 15.390066854222741 9.955552476885618 -1 0 0
1877 1 -1.2 17.092496119462773 15.626558064394349 9.337410516563294 -1 0 1
693 1 -1.2 19.231937066023924 16.956243588600106 8.497399995759082 0 0 0
348 1 -1.2 21.029511865536758 16.53305992892974 10.078367651080843 0 0 0
577 2 2.4 21.61954752277214 15.087372246936143 9.67622564663003 -1 0 0
1997 1 -1.2 22.22557085969074 15.628785607612619 8.254531541895568 0 0 1
450 1 -1.2 22.740528627831395 14.579957274287617 10.733232265972475 -1 -1 0
1346 2 2.4 23.496116741112463 14.712826857889283 12.13840031884979 0 0 0
321 1 -1.2 23.67737958849299 16.110851842010888 12.207397176967415 0 0 0
116 1 -1.2 28.876058479397493 15.253194312415781 10.632834616188319 0 -1 0
253 2 2.4 -0.011327021631511211 15.268362182335888 9.430813560650593 1 0 0
1326 1 -1.2 0.3993263033303864 16.305499492157903 8.301397800948234 0 0 1
895 1 -1.2 1.024007509132154 19.382976794925167 12.224876759576045 0 -1 1
1678 1 -1.2 2.652200042210059 17.76493075749696 10.435279354262695 0 0 0
1289 1 -1.2 6.172414594201227 18.969899730243267 8.685505527636167 1 0 0
2155 1 -1.2 11.087494516255735 16.92451653425607 9.014941782572247 1 1 0
915 2 2.4 11.274682519680008 17.763799644703198 10.240843451659687 0 0 0
1589 1 -1.2 13.111915655809332 17.539403389194486 10.06396327830846 -1 0 0
1852 2 2.4 14.240531021388033 18.403512915610605 11.10953898108588 0 0 1
69 1 -1.2 14.98923467047225 19.186779571154823 9.880201005968557 0 0 0
734 2 2.4 16.012695673632887 18.98114428625001 8.559167808402604 0 0 0
725 1 -1.2 17.504540309831693 20.127473998919115 9.084661807402254 0 0 0
539 1 -1.2 20.590557416593096 19.162619446057803 8.91293402520229 0 0 0
88 2 2.4 20.009404650589044 17.741945956426743 9.807804449311652 0 0 0
1131 2 2.4 25.776069826910884 19.11048627607741 9.789079928816955 0 0 0
1150 1 -1.2 24.840059777146653 17.604471239668193 10.282235175844818 0 0 0
1327 1 -1.2 0.21385644004600196 17.953877478570412 10.32601493112686 0 -1 0
518 2 2.4 29.989883673508427 19.35008713932262 11.22705631617752 0 -1 0
605 1 -1.2 1.9314853614378498 20.622059797761583 9.989511238807204 0 1 0
1360 2 2.4 0.47296266137098203 21.105963262980136 9.755563594313672 1 -1 1
1658 2 2.4 3.0097408900963365 19.22886083126885 9.827280777250136 0 0 1
654 1 -1.2 3.747683320743257 20.6801790231032 11.5613451870738 0 0 0
1756 2 2.4 4.040587036936152 22.513927059752653 11.831981896320451 0 0 1
859 1 -1.2 7.358528331142087 22.45815025794917 9.124938593573722 0 0 0
724 2 2.4 7.276838206357606 20.098518122388406 8.503015925902176 0 0 1
1223 1 -1.2 8.301506888564985 19.1728986667405 11.725021767723954 1 0 0
1761 1 -1.2 9.542392499814477 21.745017617423652 11.359271116932602 0 -1 1
1074 1 -1.2 13.166108448105101 20.837216125704362 9.258542562026381 0 0 0
419 1 -1.2 12.749982122760956 22.061241025106774 12.241550757827858 0 0 -1
1161 1 -1.2 10.831862109300141 19.634998046724846 10.211360681665997 0 0 0
1684 2 2.4 13.813910027665303 21.127934655213775 10.761079110608303 0 0 0
651 2 2.4 18.945227260172846 20.1382562078661 8.247559315874375 -1 0 0
91 1 -1.2 14.732801095912315 22.6595747491512 8.492567713535564 0 -1 0
267 2 2.4 19.228101403858393 22.039548594187988 9.703145548675678 0 0 0
403 1 -1.2 19.917665603507906 21.336745659794946 8.534230133374088 0 0 -1
1663 1 -1.2 24.432787411537443 20.229572038038434 9.457617749680102 -1 0 0
1478 2 2.4 23.522639341777577 21.403228656341792 10.057228664122798 0 0 1
1258 1 -1.2 26.46944619313919 20.114535258958448 10.903548478615836 0 0 0
439 1 -1.2 29.630977580418833 20.196502422379403 9.997101153673569 -1 -1 0
1895 1 -1.2 0.6835567375827835 22.56958159349901 10.75677494868557 0 1 1
1240 2 2.4 1.077095416822349 23.62079843678973 11.750841645572704 0 0 0
22 1 -1.2 1.2955263645452944 25.185219568281763 11.164912360165753 0 0 0
1987 1 -1.2 4.795360295605385 23.276391457294093 10.580579124153079 0 1 0
233 1 -1.2 6.883499163340295 25.42746779219167 9.723729389025378 0 0 0
1370 2 2.4 6.477259990505366 23.440057169908254 9.996961224873804 -1 0 0
502 1 -1.2 11.432008905330454 23.26542059998244 9.913275933627245 0 -1 0
1178 2 2.4 11.040780575899852 22.784998646287644 11.496165622014692 0 0 0
498 1 -1.2 10.629502892699866 24.571063182563552 11.894895092240024 1 0 0
608 1 -1.2 15.208147460680435 21.88447576828749 11.051353100983981 -1 0 1
1596 1 -1.2 17.845822390050607 22.719682969442047 9.401430936042162 -1 0 0
2008 2 2.4 15.806528866846158 22.76146891928271 9.736919835012706 0 0 1
2072 1 -1.2 15.981667692521423 24.340561995298884 10.513266199941386 0 0 1
2141 1 -1.2 19.951017291919737 22.61370865152978 11.010148751181323 -1 0 0
186 1 -1.2 22.804312661303292 22.500997981716516 9.125490560104403 0 -1 0
773 1 -1.2 26.80426693721398 23.99267908055006 9.277673308989348 -1 1 0
1783 1 -1.2 24.892713371261205 22.244990811457605 10.583866463894806 0 -1 0
2086 1 -1.2 29.48458171511258 24.429418054130647 9.222944764865375 0 0 0
170 2 2.4 1.7963156757777488 26.49347424845925 10.394076685032557 0 0 0
381 1 -1.2 0.44597033526003804 26.74987459097109 9.598031997951788 1 0 0
368 1 -1.2 5.299937102437219 27.031761773610143 11.249574552505983 -1 0 0
1221 1 -1.2 2.1337954328659334 27.76475922206675 11.35764389134622 1 -1 0
448 2 2.4 6.911363267756775 26.574893062963504 11.190317671192561 0 -2 0
2084 1 -1.2 8.17119343061115 27.47927553423479 10.352001272974046 0 0 1
1774 1 -1.2 12.347689039296274 25.021521382874948 8.630505234636656 1 -2 1
1455 2 2.4 13.155878919909963 26.08022659102146 9.23528382801985 0 0 1
201 1 -1.2 13.128262899063664 26.561752235164338 10.861333523425307 0 0 -1
443 1 -1.2 22.973110949767484 24.81455702063451 10.312495451430049 -1 -1 0
1312 2 2.4 23.380974754543786 25.581966095180253 11.712072600764783 0 -1 0
1486 1 -1.2 22.205042695303717 25.662161961643697 12.881373180583923 0 0 0
1332 1 -1.2 24.257116368351614 26.705489634947746 11.319400619082506 -1 -1 0
1345 2 2.4 27.9609333914106 25.088771257827883 9.228422537248253 0 -1 0
1887 2 2.4 29.40462717656734 27.25063498261923 10.300138416981286 -1 0 1
585 1 -1.2 28.44643249901418 25.846670516360216 10.545344364993039 -1 -1 0
635 1 -1.2 12.226028316480916 27.644471555834834 8.82500335142801 0 0 0
139 1 -1.2 14.35796774788675 29.352475259602173 9.315438543138256 1 -2 0
1530 1 -1.2 18.529599111401108 28.462228454673195 11.24563994769398 -1 0 0
1792 2 2.4 17.693877304313844 28.846826508911352 9.990599376970035 0 -1 1
599 1 -1.2 18.620130351675716 28.390817630292126 8.687220008061084 0 -1 0
1823 1 -1.2 22.98007677664088 1.2897503340989365 10.756181760008003 0 0 0
1196 1 -1.2 22.97518335034139 26.43528037620027 8.275473026512826 0 0 0
190 1 -1.2 24.038726118854804 28.872576199654922 8.091540992493384 0 0 0
1 2 2.4 28.33682523075138 28.90708258491539 7.505032953108645 0 -1 0
767 1 -1.2 28.6698747555781 28.461561219708543 8.83319606271353 -1 1 0
1307 1 -1.2 0.1736421802753126 29.860842066283002 10.92582826813025 0 -1 1
3 2 2.4 3.7406281515812565 2.467652089416605 13.191952206857152 0 0 0
780 1 -1.2 2.867091632978408 2.9655761639552627 11.97994616749191 2 1 0
1414 1 -1.2 4.0018339641843035 0.9244476896672106 13.111525402661035 1 0 0
334 1 -1.2 8.206482338614668 1.3969528702238936 13.896991934211552 1 1 0
135 2 2.4 8.686992281942496 3.0096807528657328 13.883350825465502 1 0 0
1727 1 -1.2 14.448152839496094 2.0862725240429576 14.288558544572458 0 1 0
395 1 -1.2 17.337543666884066 2.6231567200756234 10.623170990226322 0 2 0
606 1 -1.2 19.766350759804492 1.5503937211525105 14.107572172038582 0 0 0
1276 2 2.4 21.29730631309875 0.5696567603369116 10.90066482290093 1 1 0
2114 2 2.4 21.060344014464263 2.321168787227891 13.540863303834746 0 1 0
1821 1 -1.2 20.85807332271992 2.002763031503359 11.941717322141665 -1 0 1
1780 2 2.4 24.40360195839852 0.59034683868928 11.591228971024078 0 0 0
2117 1 -1.2 23.78372961475896 0.8230666545299513 13.14891086566431 0 1 0
933 1 -1.2 28.25676309631157 2.440254203877546 12.713455708356529 0 0 0
1635 2 2.4 29.1274938833305 1.2727521867864646 13.545961466312008 0 1 0
1717 2 2.4 5.957273214998259 4.664446828577903 14.223250805434338 1 1 0
1364 1 -1.2 5.320616165084534 3.0381310109323114 13.668141976224597 1 0 1
2022 1 -1.2 6.317582776372135 6.298182152687216 13.252916752953276 0 0 1
1941 1 -1.2 7.461840220760851 4.2063905808743085 13.994890464226545 1 0 1
1014 1 -1.2 9.65821023683282 2.818369332486555 12.400990764087819 0 0 0
723 2 2.4 14.672008949624926 2.8787862288381314 12.70031034629174 -1 1 0
946 1 -1.2 13.082155816085423 2.8888064149710377 12.31217763749018 0 1 0
2138 2 2.4 12.587894193151875 4.561462643406473 12.81485753521656 0 1 1
355 1 -1.2 18.35103856112437 3.860964034262546 12.736331812075544 0 1 -1
1624 2 2.4 17.3683234282219 3.976151660444544 11.406106066145611 0 0 1
1164 1 -1.2 19.93155905547878 6.021893050047363 12.740076980826784 -1 0 -1
1841 1 -1.2 21.131601302097728 4.008332477008114 13.87469238896119 0 0 0
1462 1 -1.2 24.020040456597624 6.285723701944198 13.020231020821207 0 1 0
277 2 2.4 24.2452459293205 5.49080749245261 14.633439922641509 0 1 0
579 2 2.4 27.159434916357654 3.4243997562770936 13.502524654427573 -1 0 0
763 1 -1.2 26.864958184365666 4.35571840028949 12.145520377962079 0 0 0
1226 2 2.4 26.158076794640458 6.065065392441691 12.37540109670046 -1 2 0
1933 2 2.4 0.5358718565409125 6.434373771457697 11.98065625944585 1 0 0
550 1 -1.2 0.9402445076004582 7.26706785029523 13.280125861869935 1 0 0
728 1 -1.2 8.919100534566368 7.05483606436754 12.284901894731998 0 0 0
675 2 2.4 10.324522561419434 6.802262959986018 13.041544395325435 0 0 0
828 1 -1.2 10.506377260642102 7.403726613770533 14.475139838643953 -1 1 0
1830 1 -1.2 11.107848476090044 5.260162138645462 12.470350397301779 1 0 0
33 1 -1.2 13.459869281738838 5.077455399554324 11.39202656457049 0 0 0
792 1 -1.2 15.802347460990246 4.065054476955629 12.240634690727475 0 0 0
28 2 2.4 14.466017404683774 6.16793073110412 11.628033110657073 0 0 0
527 1 -1.2 17.083920852224953 8.000563932326079 14.339994809761349 0 0 -1
2144 1 -1.2 25.781712288408237 5.617430948388278 14.06965685746341 0 1 0
1451 1 -1.2 27.12233604693584 7.324363555847629 12.811119158831934 -1 0 0
305 1 -1.2 29.385698806304195 6.364309152628423 12.035812796958625 -1 0 -1
699 2 2.4 28.527370482409587 7.0695908193221335 13.426912299248913 -1 1 0
911 1 -1.2 28.697486663879825 8.770449564342229 14.119124769597876 -1 0 0
2015 1 -1.2 2.089384526821225 9.423545813928333 14.551638518690188 1 1 0
1554 1 -1.2 4.649269870663041 8.411317502568588 12.805761280962283 1 0 0
1293 1 -1.2 3.1212100448272815 11.596777074101405 13.971832393320268 1 0 0
1167 2 2.4 4.061033280750171 9.884778211411655 12.572953466608126 0 1 0
851 1 -1.2 5.659125546648143 10.796402577343649 12.872296200614853 0 1 0
1261 2 2.4 8.486590233849515 10.67633233893124 12.526937620213165 0 1 0
1412 1 -1.2 3.1543938139957906 10.605428759790643 11.059568980204656 1 0 0
1301 1 -1.2 8.243920906983837 11.181747063900335 14.03774063917697 0 -1 1
1127 1 -1.2 11.475263983656577 7.854473821223809 12.264352619479096 0 0 0
816 1 -1.2 9.68945644355077 9.535790536727214 12.28309070168812 0 0 0
943 1 -1.2 11.518805093047094 10.049232345881073 13.905570789382708 -1 0 0
159 2 2.4 11.201555072076907 9.432050020685248 12.33132836012692 0 0 0
1393 2 2.4 15.553671366955232 7.994967360210565 13.824313443669615 0 0 1
408 1 -1.2 14.566337285348528 7.347906743620391 12.753019621746526 0 1 0
376 2 2.4 18.97325623221336 9.520306218096499 14.027643601217907 0 1 0
1341 1 -1.2 18.613127001447467 9.401139127229683 15.60855165021865 0 0 0
1699 1 -1.2 20.22162891095874 8.698995520145107 13.384870487426312 0 1 0
2044 2 2.4 21.714211354570473 9.755048014026414 13.36340806757303 0 1 1
67 1 -1.2 22.51747799217472 9.807428557594097 11.865077448846158 0 0 0
1793 1 -1.2 22.517730011433663 9.143542168188217 14.833884037591021 1 0 0
942 1 -1.2 28.67609142297933 10.583323940124734 12.74677816013 -1 0 1
62 2 2.4 28.22555113940509 10.217896022009631 14.366813136138092 0 -1 -1
1781 1 -1.2 0.8163139974471829 10.602326203724731 12.245093211664955 1 0 0
1053 1 -1.2 2.1452547634384524 12.836455672995767 11.666907728874953 0 0 0
1442 2 2.4 2.213567015298951 11.304457243640394 12.419606263622873 0 0 0
263 1 -1.2 2.4962838819120163 13.282906922367784 15.722491143415759 0 0 0
222 1 -1.2 11.119714493929557 13.265675088325281 12.111088143740039 0 0 0
578 2 2.4 12.21571737352361 12.26748644162345 11.524546594507957 0 0 0
500 1 -1.2 13.515351164126455 12.818762615548984 12.464814458037603 0 0 0
2079 2 2.4 16.405824470911597 10.494642927344865 12.446409086374263 0 0 0
479 1 -1.2 15.686989448250577 11.90011956164419 12.268733175649734 0 0 0
259 1 -1.2 17.99702768146612 10.284004121052163 13.001024622725563 1 0 0
154 1 -1.2 21.517810740645757 11.407802315143588 13.703524844747614 -1 0 -1
218 2 2.4 22.392669554316022 12.74117338645745 14.287346624722156 -1 0 0
1533 1 -1.2 2.2120362913987432 14.480270004573015 13.866762763017638 0 0 0
2121 1 -1.2 3.9109309816754827 14.365039320252132 11.006564871902897 0 1 0
565 2 2.4 5.448194064168452 15.487700153776995 11.679352311179505 1 0 0
306 1 -1.2 6.105660237812164 14.582511375268618 12.96128801558768 0 0 0
340 2 2.4 12.306321687232575 14.161489765792465 12.781436377480071 1 1 0
1691 1 -1.2 12.934830751774776 15.582708221938063 12.55940581497672 0 1 0
1995 2 2.4 16.741117653064403 13.505525514833689 11.714473685572665 0 0 0
687 2 2.4 14.52316232450129 15.771969833471978 12.726007821156976 0 0 0
1209 1 -1.2 15.794395705078319 14.76732839695377 12.270918396879127 0 1 0
1481 1 -1.2 17.826352603902677 13.665069561687783 13.000672670478918 0 0 1
499 1 -1.2 23.12131615040925 13.40340576451793 12.957329125202477 -1 -1 0
388 2 2.4 1.3798590646894928 17.973949761944652 11.630545022339497 0 1 0
489 1 -1.2 1.6028053874668624 16.806078953965326 12.629791669651576 1 0 0
65 1 -1.2 6.4614149421928495 16.92608902221756 11.822717950168897 1 -1 -1
1119 2 2.4 6.97759653263111 18.48676961527531 12.329973038344166 0 0 0
966 1 -1.2 9.06554685636891 18.084814817131946 14.078354342806184 1 0 0
1876 2 2.4 10.394394822765264 17.390456459861962 13.305616145799242 0 0 1
690 1 -1.2 10.511189970739585 17.714266869279708 11.729655568243489 0 0 0
107 1 -1.2 11.911268387048608 18.058968892843723 13.86516952247431 -1 0 -1
1413 1 -1.2 15.038850751235374 17.003117536304867 11.563198404975925 0 0 0
1271 1 -1.2 19.377326140878772 18.6077599451301 11.333404585818515 0 1 0
103 1 -1.2 20.04298918433868 17.710146394508048 14.090099533666857 0 0 -1
1645 2 2.4 20.384442183176724 18.45431360563132 12.717754853676567 0 0 1
109 2 2.4 23.197587095449233 18.349614787061448 13.773926419293504 0 0 0
548 1 -1.2 24.887901563084792 18.277609391533144 13.453478570655395 0 0 0
829 2 2.4 25.07702613273574 17.01377878636797 11.920567460968353 -1 0 0
1461 1 -1.2 26.936329205194493 17.214197376955692 12.137502494451644 -1 0 0
379 1 -1.2 28.639587249366723 19.373426212104917 12.228005444524387 -1 0 0
733 2 2.4 4.551778365920294 20.308907250258404 12.889000153827538 0 0 0
883 1 -1.2 4.6328470862927 22.06494512982007 13.291912496255259 0 -1 0
298 1 -1.2 5.902635484835323 19.73122601695196 12.393806811174098 0 0 0
386 2 2.4 9.90735195155071 20.185915301076214 11.473111469685412 -1 1 0
1664 1 -1.2 10.486573947231488 19.750049297295554 13.01262507357853 -1 0 0
1980 1 -1.2 13.678348021302416 19.793439011253252 11.728667638084003 0 0 1
929 1 -1.2 20.771683291639867 20.241441694082436 12.915001871925853 -1 -1 0
1548 1 -1.2 21.95448926738051 17.959425484688115 12.451248166011451 0 -1 0
436 2 2.4 21.161893205455414 21.567648935413576 12.303096755461594 -1 -1 0
1426 1 -1.2 22.213602053714652 21.32360344563463 11.260168611197443 0 0 0
272 1 -1.2 23.537451246618478 19.92841787147368 14.1937926595883 -1 0 -1
1035 2 2.4 27.115369086707236 18.98660388001269 12.223980158579812 -1 0 0
162 1 -1.2 27.116408634737674 19.54435004367919 13.791193855116406 -1 -1 0
433 2 2.4 25.552391652751904 20.29829589032117 14.33019919442458 0 -1 0
331 1 -1.2 0.09028803945995743 23.746081585459766 13.011501037481905 1 1 0
1037 1 -1.2 2.5621144486152505 22.99241841555773 12.313197325052954 0 0 1
310 1 -1.2 7.049829876853397 23.266302179154042 11.625661179122128 0 0 0
1417 2 2.4 7.215070031365723 24.178169372632155 12.928197164823759 1 -1 0
1954 1 -1.2 6.01100861168882 24.325511565122735 13.980064381070395 0 -1 1
166 1 -1.2 8.777716276798218 24.160768536973112 13.5612528840459 0 -1 0
111 2 2.4 15.63203519165751 24.976729237710554 11.905783555033175 0 0 0
918 1 -1.2 15.942685158900797 24.000469934835465 13.17502732361454 1 0 0
1031 1 -1.2 21.269220206648306 22.805528579339537 13.354014927701536 0 0 0
906 1 -1.2 19.875642954313516 25.48546744937196 14.550443870580633 0 -1 -1
1483 1 -1.2 25.746394575227594 21.556107234866126 13.007977169049713 -1 0 0
435 2 2.4 25.600189862409447 23.111876986663585 12.030278193641218 -1 0 0
1689 1 -1.2 27.48327494631923 23.228143915837542 12.322370131167165 -1 1 0
904 2 2.4 28.71283984766158 23.628248615955652 13.496980390354105 0 0 0
1366 1 -1.2 28.794428588505653 22.457468146023388 14.817422270685086 0 -1 0
771 2 2.4 3.888088904992007 27.30434998645073 12.223569625120897 1 0 0
607 1 -1.2 4.454236563005879 26.523167752070343 13.786260310159388 0 -1 0
544 2 2.4 3.034977223443709 26.000342546233608 14.96492043840784 1 -1 0
1536 1 -1.2 7.12264278211693 25.977389849548334 12.591570599153869 0 0 0
169 2 2.4 10.270250160338598 24.92877212343051 13.56139640856758 0 0 0
486 1 -1.2 9.89136866050799 26.488473000896764 13.516819116968797 0 -1 0
2118 1 -1.2 11.543745156153689 24.37437547191021 14.42539990137071 0 0 0
1927 1 -1.2 12.902036784176344 26.262042289184407 13.534991672816169 0 -1 0
1893 1 -1.2 16.485686368469757 26.37860931305275 11.742043027066469 0 -1 1
363 2 2.4 17.494545852180266 27.490770270947856 12.887680782738391 0 0 0
234 1 -1.2 17.501576245683513 26.899256585158817 14.414323410937092 -1 0 0
1340 1 -1.2 19.979158966199194 27.168393409887088 12.60666091698643 0 -1 1
1695 2 2.4 20.98841677614787 26.39049123969883 13.725787238233309 0 0 0
1542 1 -1.2 21.617532692940493 27.233394431456357 14.754210962178592 -1 0 1
2083 1 -1.2 24.336830393584027 24.208691196842313 12.086868531292025 0 0 1
102 1 -1.2 28.584045974276233 25.434062280136274 13.829370155647945 0 -1 0
1097 1 -1.2 29.495107549048143 27.581441309336007 12.050433167727954 -1 0 0
1977 1 -1.2 0.23905275800007703 1.0354692725202097 12.884204125213822 1 0 0
531 2 2.4 5.20755520957501 29.885355616155795 13.3189954961716 1 -1 0
1352 1 -1.2 4.1881385372210405 28.864185822463003 12.86943735987479 0 -1 0
1881 1 -1.2 6.524052784090819 30.128411822307854 12.313628861852969 0 0 1
2089 2 2.4 7.825416260327087 0.028183517688570754 12.942363517798313 0 1 1
655 1 -1.2 8.795163600440711 29.188876297075854 13.595983154601257 0 -1 0
1480 2 2.4 10.087439821221073 28.1737302898731 13.420130239593519 1 -1 1
801 1 -1.2 10.99546255093431 28.213928507591103 12.209047965892768 0 0 0
555 2 2.4 12.547204789301285 27.375121621704896 12.251798966122458 0 0 0
2110 1 -1.2 13.682353090814786 28.294701668417474 12.489814518223056 0 1 1
2065 2 2.4 14.75239987379346 29.173338141005363 13.586496354313905 0 0 1
1675 1 -1.2 16.319271049552754 28.917270212926525 12.796827948783347 0 0 1
841 2 2.4 19.81367890049412 28.786400172251387 12.384850210118048 0 0 0
2082 1 -1.2 18.845587059707483 29.59577094184586 13.704094733881137 1 0 1
1159 1 -1.2 20.808544258394093 29.892612209639267 11.832563688298816 -1 -1 0
1796 1 -1.2 24.824639337384568 29.64230386863577 11.055885489511676 0 -1 1
1820 1 -1.2 26.938133296124118 27.4227248385483 11.643960532282364 -1 -1 1
84 1 -1.2 25.29312263016584 28.02475272171595 13.442780368994939 -1 -1 0
784 2 2.4 25.406223860637546 28.084803049480595 11.777266105461464 0 0 0
769 2 2.4 29.68645375185396 29.24263919383496 12.090724158310133 0 0 0
1351 1 -1.2 28.629786130268034 30.076690603913384 12.974125150116985 -1 -1 0
1550 2 2.4 30.267691542480108 1.8254322933756053 16.565222962482952 0 0 0
631 1 -1.2 3.1684842820260952 3.0814220678764435 14.57306261382229 0 0 0
671 1 -1.2 3.5930545092125454 2.330691442718718 16.660494151820473 0 0 -1
686 2 2.4 7.157467864064553 1.6266363033932274 17.975180861804894 0 1 -1
1499 1 -1.2 6.130293627426876 0.7872336594739747 16.932267995458908 0 1 0
1868 1 -1.2 6.310624023907344 2.9882921456984946 18.067402367689837 1 0 1
1532 1 -1.2 9.713741998087572 3.302132243517382 15.011829928927153 0 2 0
584 1 -1.2 10.219469193575762 0.6913906118305395 16.078032569902177 0 0 0
940 2 2.4 9.766568277762525 2.547031313105311 16.257474008104797 0 0 0
2095 1 -1.2 14.158911943881142 -0.036880422346152214 14.037261603503314 0 1 0
1041 1 -1.2 11.667448100472066 3.162961728950089 16.163117958044282 0 0 0
760 2 2.4 15.292504413904572 1.0559157121944496 14.988482864228294 0 0 0
330 1 -1.2 14.610168540165319 0.8664942507887695 16.45158496213292 0 0 0
1290 1 -1.2 16.89989245845223 0.7432528501181995 14.379452261608073 0 0 0
469 2 2.4 18.57955304422658 0.5711384946979166 14.588559619305562 0 0 0
511 1 -1.2 18.996941589544836 0.10470934602626529 16.290234450178477 0 0 0
1423 1 -1.2 22.066611737797242 1.7266317441580346 14.825714455917483 0 0 0
398 2 2.4 25.10454557332354 1.2264606813174155 14.28478200446651 -1 2 0
1000 2 2.4 23.092317530408224 2.414089375508829 15.631212650842691 0 0 0
2130 1 -1.2 24.346788269104056 1.3269116719307938 15.880910316253381 0 1 1
1316 1 -1.2 25.739262502466524 2.6968118930056644 13.976575592310256 -1 0 0
850 1 -1.2 29.514673681415736 1.4712220928517288 15.113909931172346 0 1 0
909 1 -1.2 0.8028449392009575 3.007910557844048 16.104506174549577 0 0 0
1875 2 2.4 2.399807047499751 3.2794284667959146 15.877695853983013 0 0 0
2017 2 2.4 0.35262613551804667 6.335512777130311 17.129656670941646 0 1 0
740 1 -1.2 5.120418120838321 5.45758045405016 15.49234720700612 0 0 -1
864 1 -1.2 2.6179448648531123 4.7709103988352215 16.255034015401048 1 1 0
788 1 -1.2 8.53840126085253 2.179140441278096 17.149235780837884 1 0 0
488 1 -1.2 12.342721028487038 4.222281231871883 14.308851237262747 1 0 1
167 1 -1.2 11.89520621492808 6.140429658570185 16.884666806969747 -1 0 0
709 2 2.4 12.317861472783356 4.637238547719474 15.854096821662987 1 0 0
490 1 -1.2 13.9861391061741 4.669685795643132 16.02208868217989 0 0 0
1582 1 -1.2 16.730967416892152 4.863487146447884 15.727419117579606 0 1 0
941 1 -1.2 19.185117173182412 4.131938482488694 15.14407719886084 0 0 0
591 2 2.4 19.581293942803555 4.578898800439236 13.324438447613224 0 1 0
1071 2 2.4 18.53946169029086 5.020987863870788 16.220044590701576 0 0 0
1640 1 -1.2 23.55611568115331 3.849080459664253 14.802513359471185 0 1 1
1099 1 -1.2 26.996781303728454 6.071239935423688 16.48552391325376 -1 0 0
1508 1 -1.2 27.631513200193307 3.761637739904111 15.008398299390812 -1 0 1
447 2 2.4 28.331999210091944 5.198884438149065 15.860293281690458 -1 0 0
2108 1 -1.2 30.078205402775243 5.067779580909232 16.0889599271734 -1 1 1
961 2 2.4 1.78878186563242 7.8600790113766354 14.576133866582234 0 -1 0
224 1 -1.2 0.8410994079142633 7.534027975483892 15.828501829947333 -1 0 -1
1314 1 -1.2 2.993629863942785 6.794964747715871 14.541337236457979 0 0 0
556 2 2.4 3.4026018447514295 6.152507211741815 15.803207382649392 1 0 0
1353 1 -1.2 3.6686580943399147 6.995645582994381 17.11348781530967 0 0 0
619 1 -1.2 12.458596864079881 8.562911449483927 16.38349694759406 1 0 0
1669 2 2.4 15.265448266242592 5.572547870151749 16.006543608676868 0 0 0
1498 1 -1.2 15.223218441821889 6.795854504230005 14.885255025566616 0 0 0
467 1 -1.2 15.619863687031133 5.94158980810438 17.646046881483123 0 0 -1
2098 1 -1.2 16.81481219873817 7.572231593509565 16.903775716162535 -1 1 0
1441 2 2.4 17.858619949726098 7.838335051184874 15.683195195749237 0 0 0
1474 1 -1.2 18.647623798635447 6.558046577064482 15.879392456012509 -1 0 0
717 1 -1.2 24.27773642699342 6.357344331106226 15.885952686409373 0 1 0
1003 1 -1.2 28.538671940314778 5.877252611854424 14.258165764330954 1 0 0
1285 2 2.4 2.4592670672146233 11.039367806623915 15.34946860128236 1 0 0
1716 1 -1.2 3.251610249862578 10.615920515138885 16.511927612232707 1 1 0
1538 2 2.4 6.705086940722025 10.194546634239577 14.043926397452813 0 0 0
2146 1 -1.2 6.353834820438535 9.522060988201778 15.45429431134094 1 0 0
1847 1 -1.2 9.722536185655322 9.637700191410557 15.889447355595857 0 0 0
86 2 2.4 9.644001718388083 10.588182705128643 17.322608698129216 0 0 0
808 2 2.4 10.956154784609016 8.935792999942658 15.074674111900356 0 0 0
71 1 -1.2 15.481748642487048 9.791232567112052 13.719094918430969 0 0 -1
1983 2 2.4 23.54094658606855 10.34175880867371 15.627361347231103 0 1 1
1128 1 -1.2 22.718417491155588 10.675119962893222 16.9808191826747 0 0 0
19 1 -1.2 24.884802933732324 9.349995536005776 16.267898287084602 0 0 -1
1835 1 -1.2 26.77418733380928 9.804060827669023 14.99686546061122 0 0 0
196 2 2.4 26.254047672485513 10.09228188921857 16.569829768335318 0 0 -1
944 1 -1.2 26.85021753168937 8.747282936723654 17.576242398663812 -1 0 1
1722 1 -1.2 26.833628022701536 11.517865991727035 17.287606259306738 0 0 0
288 1 -1.2 28.88285190685182 11.241423370393099 15.370574965030206 0 0 0
1572 1 -1.2 0.876811987640762 11.300819601943038 15.824954565701288 0 0 1
5 1 -1.2 30.208598932508675 13.45633526382619 15.4677232257625 -1 -1 -1
483 2 2.4 5.090627166121279 13.940798052343586 16.671158784859337 0 0 0
935 1 -1.2 4.903559878941545 12.430129761009594 16.981734774544044 0 -1 0
2059 1 -1.2 16.49574859978168 12.239586296695487 15.457269785057626 0 0 0
938 2 2.4 16.55485375184751 12.126215110484871 17.156350542928532 0 0 0
281 1 -1.2 15.346598180669272 11.16945749571658 17.6804232722655 1 0 0
1434 1 -1.2 18.27006588215702 11.797232096772662 17.618001128746133 0 0 1
648 1 -1.2 18.860137253020923 14.237928823114075 15.50437817546551 0 -1 0
2016 1 -1.2 21.715789633506844 13.546449678004922 15.419913330584611 0 0 0
1775 1 -1.2 23.646500082226606 11.776020168376863 15.096505512975837 0 0 0
520 2 2.4 29.784138690298334 12.036719016440372 16.309179023488863 -1 0 0
754 1 -1.2 29.02217209812977 12.463263183665292 17.610877230471683 -1 1 0
1731 2 2.4 2.885530916402404 16.160263812472184 13.699660173439856 0 0 0
1113 1 -1.2 1.021700229776412 15.422864885226117 16.33144570912791 0 0 0
460 2 2.4 1.1910990552353509 14.011640061901 15.11146453493298 0 -1 0
1733 1 -1.2 4.407317083121593 16.341672208485818 13.447493258158872 0 0 0
992 1 -1.2 3.749703056765368 14.98237066717389 16.76953865093462 0 0 0
350 2 2.4 5.9453520001419795 15.66378811451672 14.242758956422882 1 0 0
1052 1 -1.2 5.669087710289094 14.657880629947359 15.432922824194602 1 0 0
571 1 -1.2 10.257036109069407 15.865884881197148 14.321280329431467 1 0 0
1313 1 -1.2 9.834434004809216 14.196047349348536 15.554311158387186 0 -1 0
1124 1 -1.2 12.071954848336187 13.850095995658236 14.386538704760042 0 1 0
614 2 2.4 11.257506005587743 15.108827682650217 15.427918466589647 0 0 0
1277 1 -1.2 11.823403668488245 16.056137116279224 16.54289133808947 1 1 0
461 1 -1.2 14.807520820656269 16.706950923213835 13.932119892032063 -1 -1 0
756 1 -1.2 14.591864132308118 15.576676606775369 16.096376696804562 0 1 0
458 2 2.4 15.587946290791809 16.374689543650614 15.319330422878435 0 -1 0
1334 2 2.4 17.26682966887155 13.638152890822335 14.631793920776776 0 0 0
1721 1 -1.2 16.761254863583574 15.079583235829105 14.722201270256695 1 1 0
51 2 2.4 20.25345361299294 13.916131154720457 16.175262016270143 0 0 0
1829 1 -1.2 21.290539683251037 15.468518648032639 15.81530680922459 0 -1 0
1176 1 -1.2 22.650054724825463 15.988777648304655 17.690602946100807 0 1 0
1580 1 -1.2 25.943104449020584 15.737123315864888 18.33777309693816 0 0 0
1286 2 2.4 26.833220154959083 15.637117693535334 17.236377625928988 0 0 0
1064 1 -1.2 26.571149450486644 15.774580990434174 15.698312950575271 0 0 0
1080 1 -1.2 2.721472318437056 17.27214109912814 15.243148816328283 1 -1 0
1529 1 -1.2 1.8286532884831974 18.856011854603395 18.323500559102726 0 0 1
758 2 2.4 2.9144243504679257 18.948311604072984 15.62171083916634 1 0 0
1101 1 -1.2 3.8309780265221103 20.099436326140697 14.391640069932057 0 0 0
535 1 -1.2 7.67527027635343 15.7949927953868 14.695936057493213 1 0 0
2066 2 2.4 7.967462877201187 17.369679109108635 15.19587115554445 1 0 1
1931 1 -1.2 8.089216020127104 17.158927405011788 16.756342309333714 1 -1 0
1324 2 2.4 15.40487906571771 18.91556053037515 16.069502926974852 0 -1 0
1470 1 -1.2 16.464161444558336 17.7002249089859 15.925146306428632 0 0 1
710 2 2.4 21.038742667756278 16.947436425325407 15.235900058988836 0 0 -1
814 1 -1.2 20.31123512958778 17.83938776424278 16.378899996438033 0 0 0
1629 1 -1.2 22.642425303609397 17.59744182543093 15.077756270227658 0 0 1
283 1 -1.2 1.6008184044272924 19.789102315147925 15.924559308371188 1 0 -1
2006 2 2.4 0.6120870615810676 19.43443557349359 17.20948796291279 1 0 0
2097 1 -1.2 29.746877348075923 18.43012325422025 16.751985472370123 -1 0 0
978 1 -1.2 6.732569215328872 18.560866274772128 14.359944268784053 0 -1 0
704 1 -1.2 8.004261828420454 21.130740865724636 17.01849049893001 0 0 0
252 1 -1.2 9.973809498664858 20.81268278343873 15.086262132184777 1 0 0
1093 2 2.4 11.208075602127899 19.485989695269897 14.305953225962773 0 1 0
969 1 -1.2 12.110009056047366 20.44367370211086 15.138989603035112 0 -1 0
580 2 2.4 13.567394397364897 21.208241651390583 15.294730350256913 0 0 0
1242 1 -1.2 15.03486643969602 20.175750738101485 15.019878227383026 0 0 0
24 1 -1.2 14.082409136616667 22.267519082332573 14.151504640177798 0 0 -1
378 1 -1.2 17.902817863559157 21.57130410520446 16.279067358759256 0 0 -2
118 1 -1.2 29.64801531977326 25.56148512738954 16.0256268889348 -1 0 0
402 1 -1.2 3.781090260591975 24.769571687318933 15.64713906913341 1 0 0
158 2 2.4 5.504511011250821 24.634988073780047 15.359437883321489 0 0 0
357 1 -1.2 6.908002964419123 23.95646973507191 16.413210051229786 1 0 0
1067 1 -1.2 14.399115885964319 24.964320949446382 15.326818852294116 0 -1 0
1216 2 2.4 15.192063671990319 23.451313106729263 14.564989386188357 0 -1 0
1764 1 -1.2 16.442092701187573 23.38643667031784 15.765930762686828 0 0 0
1932 1 -1.2 18.858258521253262 23.053813096357725 14.269687866959131 1 -1 1
590 2 2.4 18.18937610635656 23.12326152876146 15.87461549048213 -1 0 0
1278 1 -1.2 19.06144969772028 23.990363737044508 16.80323966498628 0 0 0
1642 1 -1.2 21.35256891342702 23.114837496778083 15.71220894783151 0 0 0
1994 2 2.4 20.42138487969606 23.684775183109583 14.511964386511865 0 0 1
1375 1 -1.2 25.69243219401036 21.110992069696547 15.979610319455574 -1 -1 0
1148 1 -1.2 25.055528299915622 23.282278876225476 16.56518208822505 0 0 0
999 2 2.4 24.821411878739678 21.776954488844847 16.928907184345324 0 0 0
1389 1 -1.2 26.999250135053064 24.558043709891393 15.652336512375186 0 1 0
1130 2 2.4 28.385892576437104 23.789334441373928 16.131406060298332 -1 0 0
1662 1 -1.2 28.515455778270194 22.84154477362333 17.57748866370241 -1 0 0
1090 1 -1.2 30.173786297043115 27.584585347544547 14.837691533195072 -2 0 0
64 2 2.4 0.5652982683587121 26.921575117434873 16.458308189695643 1 -1 0
2010 1 -1.2 1.6021156855280017 26.621027954697535 15.40055603622858 1 0 0
960 1 -1.2 6.050332809996139 26.18608802353695 15.483148335469457 0 -1 0
554 2 2.4 6.307233989206812 26.687315902304324 17.12805263040628 0 -1 -1
400 2 2.4 12.979474693028571 25.52497501658034 14.964695067492695 0 0 0
156 1 -1.2 12.047955736533744 26.155681627331596 16.250121164167798 0 -1 0
1416 1 -1.2 16.686855054952073 26.416827903460366 16.94734996265907 0 -1 0
679 1 -1.2 22.548692490467783 28.078135264332282 17.245884320267013 0 -1 0
1718 2 2.4 26.052822331886112 24.492465339579493 17.10969748208668 0 0 0
2020 2 2.4 28.91347287569197 26.577140286761058 14.805516348245636 -1 0 1
491 1 -1.2 27.684783958468355 27.3608856690088 15.494259964084703 -1 -1 0
477 1 -1.2 1.1801572411306098 28.10712727612248 17.648877057653532 1 -1 0
264 1 -1.2 6.245423774610957 29.759060170392107 14.69344630639611 0 0 -1
532 2 2.4 6.627951737058698 29.694328620864248 16.20721657328122 0 -1 0
300 1 -1.2 8.247310770200855 29.662606162075278 16.474303977176145 0 -1 0
47 1 -1.2 5.821952769259101 28.356224354791564 17.145031595701916 1 -1 0
1163 1 -1.2 10.528356930462477 28.897479759241534 15.046252548866478 -1 -1 0
1501 2 2.4 9.838682182143465 29.712899581760922 16.302608256274784 1 -1 0
988 2 2.4 16.356337809324767 27.544251289537133 15.842463484732459 1 -1 0
1109 1 -1.2 15.00016174067211 28.41052113474022 15.118973897881178 0 0 0
1112 1 -1.2 21.000665231617177 29.09616276144506 15.836170931546226 -1 0 0
698 2 2.4 22.398726591639605 28.305679036100805 15.704504639331349 0 0 0
1701 1 -1.2 23.405038636093725 29.159425571331585 14.695087071470866 0 0 0
569 1 -1.2 25.838932881649196 30.28303611347664 15.04520852349175 0 -1 0
53 1 -1.2 25.12783254301404 28.05102526534459 16.044753525482154 0 -1 -1
890 2 2.4 25.03007357480806 28.9189693331973 14.730908053835288 0 -1 0
1143 2 2.4 26.533496704698162 27.5545986613606 16.797813114812474 0 0 0
1007 1 -1.2 0.15729370882168098 0.5431484980358857 17.647519386243534 2 1 0
901 2 2.4 3.2814614496821575 1.5934906160054012 18.15624398659355 1 0 0
1619 1 -1.2 2.485388254865184 0.10514612164465217 17.397414225201583 0 1 0
2039 1 -1.2 4.349930801436586 2.027287215355791 19.590964946318298 0 1 0
1001 1 -1.2 7.397313495619596 1.0850869307516056 19.462160811742205 0 0 0
1025 1 -1.2 8.917703119107072 29.99265464231181 20.435995251521923 0 0 0
1175 1 -1.2 11.315452248454225 3.2208545312150756 20.74192785931109 0 0 0
1347 2 2.4 14.556999213617798 2.1438709420670072 17.847602908085015 0 0 0
119 1 -1.2 14.035363829793935 1.0784682173340145 18.90932388069344 0 0 -1
566 2 2.4 14.455447259397813 0.7109009668205253 20.656420368251876 0 0 0
1213 2 2.4 17.558813622324703 0.27160620501285077 20.526444643444826 1 0 1
572 1 -1.2 16.01715093550159 3.4707836048571608 17.987246364249362 1 0 0
2096 1 -1.2 24.017470665978713 29.25804523540082 19.78665962153658 0 0 0
836 1 -1.2 26.628007206702186 3.4190973680752044 17.69045260283516 0 1 0
1791 2 2.4 27.97576173506959 3.0693300077377437 18.503665456532733 0 0 0
1349 1 -1.2 27.85574024698995 1.5086232790321756 18.99836755261078 -1 0 0
1472 1 -1.2 2.1265783442043857 2.473561890447844 18.709477038350606 0 0 0
2019 2 2.4 1.4728942735281252 3.0215106293226346 20.06353070714925 0 1 1
597 1 -1.2 2.595423868294271 4.355723767186446 20.271380481378202 0 0 -1
451 1 -1.2 8.117268838760012 4.745086706102623 16.74923534619564 0 -1 0
1142 2 2.4 7.374800807005284 4.268361089962843 18.312643472861147 1 0 0
203 1 -1.2 7.947762131530403 4.930898152529007 19.90041097721517 1 -1 0
2026 1 -1.2 4.870906874413137 5.414703688450675 18.677331015737355 0 0 0
1066 1 -1.2 10.696250958517723 5.567289916952897 19.47192353732794 0 0 0
1013 1 -1.2 13.417083480863987 5.936670994062469 19.08212307669733 0 0 0
424 2 2.4 14.930126645961227 4.7811823020032085 18.611729447501855 0 0 0
1603 1 -1.2 13.618822268860551 3.4598848269940743 18.34656691876729 0 1 0
2037 1 -1.2 19.313312564472263 4.366071483708452 17.46642594407521 -1 1 1
1974 1 -1.2 22.84934055251457 3.536481684726241 17.013686369390975 0 0 1
858 1 -1.2 23.131248513620296 3.276822645160376 19.74361769824864 0 1 0
268 2 2.4 22.775019618969075 4.431556840355025 18.58063798074922 0 1 0
669 1 -1.2 24.363603857324467 5.0216342878255835 18.087561551547715 0 0 0
1564 2 2.4 26.151364668288757 5.204658489664224 17.720268092018717 0 0 0
1004 1 -1.2 26.415478100955273 6.0379832878656305 19.02938653624921 0 0 0
1030 1 -1.2 29.113203967242022 2.4997156416226596 17.41018744752044 -1 1 0
1822 1 -1.2 28.94106867094727 4.423361974282542 18.575680082195927 0 0 0
1190 2 2.4 28.279162906989285 6.220983673040391 19.271211461946194 0 -1 0
6 1 -1.2 1.2476785136296924 5.565751014300377 18.441207865472297 -1 0 -1
529 2 2.4 2.2083974917462927 6.008839259385599 19.739091056568693 1 0 0
2045 1 -1.2 0.9069144994305854 6.858802422423006 20.407849408003813 1 0 1
1207 1 -1.2 3.3354324122556767 7.444599134536775 19.73223187359821 0 1 -1
482 2 2.4 4.555426572574553 6.927444192753939 18.407634501170033 0 0 0
774 1 -1.2 6.08773311523859 7.883796044172581 18.50757122348105 1 0 0
1310 2 2.4 11.832632813521963 6.217446341539657 18.528597750258545 0 0 0
1522 1 -1.2 11.821680859228461 8.011868217723944 18.80748681832921 -1 0 0
1325 1 -1.2 15.900072264634808 7.595464652330879 19.546171930262076 0 0 -1
285 1 -1.2 15.677064836471857 5.041742288429653 20.077854175878844 0 1 -1
1600 2 2.4 15.394799806494255 6.610624909670759 20.736689644128223 -1 1 0
747 2 2.4 18.148004843619827 4.395194932943351 18.69913367747497 0 0 0
2069 1 -1.2 18.451879710969045 6.485243767399371 18.763552306288634 0 1 0
1765 2 2.4 17.34596380636459 7.821957826875685 18.736893225452548 0 0 0
777 1 -1.2 21.312762300932228 7.887246234610204 20.60241704917257 0 1 0
601 2 2.4 22.645704116609206 7.0050701663271 19.68304976481339 0 0 -1
894 1 -1.2 22.977279830110064 8.413512497029581 18.91285623353526 0 0 0
322 1 -1.2 21.957028555691636 5.676492922847941 18.83363915206633 0 1 -1
1966 1 -1.2 23.7386914615254 5.900896932549589 20.54919919872855 0 1 1
1198 1 -1.2 29.1999887376991 7.604367866416998 18.229471265627335 0 0 0
473 1 -1.2 5.577639706105714 10.596270222692185 18.21741556799706 1 0 0
1106 2 2.4 6.758425799829503 9.779390136297378 18.798089765355286 0 0 -1
236 1 -1.2 8.176305848512701 10.12265940891277 18.225366785831987 0 0 0
1398 1 -1.2 7.092479752325184 9.345900324489648 20.281268115944037 0 0 0
130 1 -1.2 10.76255538133502 9.93015766920001 18.446098737649834 0 0 0
2103 2 2.4 12.310746800694833 9.266956537905546 18.002821237660747 0 0 0
1836 1 -1.2 13.11028078223128 10.463144678295286 18.88410775955413 0 0 0
1651 1 -1.2 15.209420946318087 10.831894348025415 20.367802114704002 -1 0 0
70 1 -1.2 18.07630441921248 9.347025485462297 19.161661787132637 1 0 0
604 2 2.4 19.015193393608136 10.551321929249996 18.59886198729361 0 -1 0
2064 1 -1.2 20.366257096443032 10.257094332030968 18.00267652742927 0 0 -1
916 2 2.4 22.015836370260605 10.065115294298758 18.227728745651014 0 0 0
1493 1 -1.2 22.53293698239185 10.942913308562671 19.50089558330147 0 -1 0
385 2 2.4 23.385850328225906 10.892563228138522 20.964631654579367 0 1 0
454 1 -1.2 27.170561522691735 9.036187496246859 20.140671253316352 -1 0 0
1322 2 2.4 27.996613521396622 8.870375553592115 18.779999224646684 0 0 0
1463 1 -1.2 28.86126029766904 10.135201297548564 18.53895948288023 0 0 0
843 2 2.4 1.974870387490195 13.019312897897521 19.26979743678337 1 1 0
371 1 -1.2 0.3344960321423195 12.558955581578136 19.89144480322072 0 0 0
770 2 2.4 4.12962293119491 11.19841255963814 17.76895095017301 0 0 0
1769 1 -1.2 3.1740862494373965 11.755121445301592 18.879806582452147 0 0 0
428 1 -1.2 10.465267918132977 11.953710637303253 17.102188651391415 1 1 0
1515 2 2.4 14.319207504811605 11.549701301319024 18.890019273800892 -1 0 0
127 1 -1.2 14.145116758936458 13.100910336223635 19.426232508337293 1 -1 -1
429 1 -1.2 16.02242448641622 13.622693242797412 17.86283929605585 0 1 0
1798 1 -1.2 19.167554089722774 11.097539957066981 20.223572695875944 1 0 1
1594 1 -1.2 23.58232410134193 12.415082453748939 21.596068845756253 -1 -1 0
1227 2 2.4 28.094856188476903 11.391152237502933 18.246599802133563 -1 1 0
1734 1 -1.2 27.18624671098305 12.035028823736107 19.6680125668214 -1 -1 0
1789 2 2.4 27.084931489602887 13.606047335961861 19.802327968570157 0 -1 0
1245 1 -1.2 28.34742388844112 13.936844450874773 21.373563055528244 -1 0 0
1951 1 -1.2 2.028487849234384 13.753272237682875 17.89256234923396 0 1 1
937 2 2.4 0.7530148570822845 16.49628123455668 19.643946650959627 0 -1 0
7 1 -1.2 0.3285265277567574 14.938240986668003 20.288704482445308 1 -1 -1
325 2 2.4 2.162815677434893 15.253607765115762 17.316048924585676 0 0 -1
802 1 -1.2 1.8631795226195662 16.405221680989126 18.53252402404498 0 0 0
1882 1 -1.2 6.032357709618686 14.46907484500474 17.98706632410774 0 0 0
1525 2 2.4 7.549963842804371 14.745822911171363 18.97846573603365 0 0 0
1206 1 -1.2 7.453464697006178 16.344314760167514 19.847410254436397 1 1 0
1630 1 -1.2 8.785597807023057 14.310990769688836 18.02952428043519 0 0 0
1012 2 2.4 10.146658539742424 13.855550148784872 17.25802218251644 0 0 0
1401 1 -1.2 11.53232128620511 13.96683316562589 18.458901840549746 0 0 0
1541 1 -1.2 10.115632834474376 16.885193734863446 19.095937493043497 0 0 0
1477 2 2.4 13.348670201180276 16.458174895756983 17.146104762367894 0 0 0
452 1 -1.2 13.17897692315442 15.96355452550437 18.858879022363077 0 -1 0
688 2 2.4 12.029773790431172 14.948117860471596 19.535033710725475 0 -1 0
2 2 2.4 15.7898788229603 14.262234869634087 19.36970512760997 -1 0 -1
1811 1 -1.2 15.39112130397038 15.7397017889869 19.22279952305379 0 0 0
1188 1 -1.2 21.01163005675773 13.470150495818048 17.682839241763606 0 0 0
713 1 -1.2 22.305888287214074 14.350293124546969 20.229798691070453 0 -1 0
805 2 2.4 22.19143605628517 14.47460206530916 18.263882050891436 0 1 0
1063 1 -1.2 23.763479639543046 13.956996507475036 18.234425502412943 0 0 0
928 2 2.4 24.663632084284778 15.076754524861943 19.281368461613894 0 0 0
318 1 -1.2 25.48240009539543 14.207333488299783 20.339616327814504 0 0 0
1448 1 -1.2 24.12337096282736 16.50573779645862 20.49814855490527 -1 0 0
1601 1 -1.2 27.858137528660066 14.341282820406853 18.301143522357204 -1 0 0
2003 1 -1.2 29.718165900289293 17.08809554948887 19.225683474874252 0 0 0
2013 1 -1.2 3.9698071390837586 19.01892498271308 16.790673148818517 1 0 1
888 1 -1.2 5.021124974805804 17.496068806784177 18.77916722019524 -1 -1 0
824 1 -1.2 7.876167154458056 18.521419040531327 18.905674451523993 0 1 0
359 1 -1.2 6.456291557329377 18.924749609456157 20.7285723155247 0 0 0
1971 2 2.4 9.153128024659221 17.906054055034975 18.016270078464984 0 0 0
1126 1 -1.2 10.004089327988648 18.94789750480892 16.96890334180823 0 0 0
1962 1 -1.2 13.902776432673159 18.001682664392533 16.884870630557614 0 0 0
1355 1 -1.2 19.4552047770655 16.9029716734961 18.56635251365504 0 0 0
1840 2 2.4 19.8548007066735 18.359743575998607 17.65860643320561 0 -1 0
1694 2 2.4 18.703829221254725 16.76883198362538 20.09434405622633 0 0 0
1404 1 -1.2 27.87298287489657 16.922694906346486 17.368616080255904 -1 0 0
1180 2 2.4 29.03103588282413 17.849229590543413 18.078766005244997 -1 0 0
1800 1 -1.2 27.941390907209918 19.07283685940666 18.829367139057446 0 -1 0
401 1 -1.2 0.37477039153516606 20.588344434439527 18.304042296717494 1 0 0
1979 1 -1.2 1.0061359256103544 21.48736738661299 20.928511616947272 0 0 0
1077 1 -1.2 5.291675375894687 22.518971283582438 17.992538377975002 0 0 1
1670 2 2.4 3.7831258141677258 18.740564289947226 18.394283661583355 0 0 0
1953 1 -1.2 4.6616175825404165 20.063864906107963 18.954762232835627 0 0 1
541 2 2.4 4.318325003899607 21.486408813100866 19.32739580814988 1 -1 0
998 2 2.4 7.022741194372325 22.456759404695475 17.071106881349234 1 -1 0
1467 2 2.4 9.874255630913009 20.48792420051962 16.650524967307007 0 -1 0
329 1 -1.2 10.697747024821284 21.13745260690769 17.760176554134425 0 0 0
646 1 -1.2 16.001293836930945 20.388320132078384 17.422536815875283 0 1 -1
896 1 -1.2 18.425810513297343 19.26090247604979 17.899684458439186 0 -1 0
1273 2 2.4 17.568072656782668 20.58102951373141 17.72620664073017 0 0 0
1907 1 -1.2 17.610047270655766 21.49126156050457 19.07174682606103 0 0 0
1217 1 -1.2 20.928288663223746 19.56180663768376 18.37618062948101 0 0 0
472 2 2.4 20.70287383405188 20.88253521606436 19.304734370298902 0 -1 -1
965 1 -1.2 22.186744149178498 21.45126892210558 19.85340204144819 -1 0 0
523 1 -1.2 25.798566162274863 20.22446223339104 20.267757449610084 -1 0 0
735 2 2.4 27.386434189618516 20.03567202880701 19.984432926170772 -1 0 0
878 2 2.4 1.083444500531417 21.885909163033862 19.32582376669236 0 0 0
270 1 -1.2 1.019101016848733 23.48809755062476 18.836910003818787 1 0 0
521 1 -1.2 2.7609932782904454 21.79835373713884 19.246308689955235 0 -1 0
576 1 -1.2 7.334629271093788 23.17572382297784 18.842160061241493 1 -1 -1
1246 1 -1.2 11.638599665304724 23.955061283753917 17.40765442222695 -1 0 0
389 1 -1.2 9.164957719893748 25.19242674404212 20.246191680239058 0 0 0
846 1 -1.2 13.484514325314134 21.848184321021066 16.644536757515983 1 1 0
640 2 2.4 12.076267518642661 22.115169569920177 17.952804802799175 0 0 0
1697 1 -1.2 13.248992689690839 21.902100198939372 19.16853779064731 0 1 0
1778 2 2.4 15.330145239206729 25.174550239653566 19.688637285088376 0 -1 0
1291 1 -1.2 14.782348901309906 25.314328349757506 18.285960405904085 1 0 0
337 2 2.4 20.54321485115499 23.10015066682442 17.13749750032186 0 0 0
1296 1 -1.2 20.16438333412563 21.706337028528356 17.8486914758246 0 0 0
1676 1 -1.2 21.03539632479514 24.415148023287383 18.364265921470313 -1 -1 0
374 2 2.4 23.52163259244023 22.301154062857588 19.556483252700538 0 0 0
1473 1 -1.2 23.644601111695223 21.317395822077287 18.02677848073654 0 0 0
776 1 -1.2 23.544000092408364 24.08662737512544 19.367099343219987 -1 0 -1
1102 1 -1.2 26.442837757254317 23.523690897814685 18.56890942375865 -1 -1 0
1616 1 -1.2 28.023315480752387 21.531835361753608 19.868003114617398 -1 0 0
628 2 2.4 27.832028689039454 22.937300407968525 19.174963065800373 0 0 0
54 1 -1.2 28.66691853674311 24.04214656904606 20.20350324721262 0 -1 0
764 1 -1.2 30.254657709922018 25.551849401489555 20.021162043486843 -1 0 0
506 2 2.4 1.0486919844028322 25.078209984556928 19.132394805536197 0 -1 0
168 1 -1.2 0.9983112121814863 25.702788207976333 17.589097033211534 0 -1 -1
871 1 -1.2 2.6454672098660255 25.121799783834483 19.447392524975122 -1 -1 0
193 2 2.4 2.412851726127345 28.725022615220123 20.527334712315117 1 -1 0
1739 1 -1.2 5.09464055642821 26.279073644208356 18.02614958219868 0 -1 0
1969 2 2.4 4.0357571599414 26.219782001631433 19.637452714124308 1 -1 0
1784 1 -1.2 3.3024116753734125 27.50018789359946 20.21112886518516 0 -1 1
665 1 -1.2 7.595169807177385 26.046346812888387 17.988704778193757 0 -2 0
595 1 -1.2 9.994019130376062 26.29183727592122 17.555592735859406 0 -1 0
2115 2 2.4 11.37979168529142 25.598743134402255 17.577497314530785 0 0 0
617 1 -1.2 11.969440182069139 25.980808296161282 19.23414728968315 0 0 0
1029 1 -1.2 14.508142628182858 27.633932327450786 17.28024286110676 0 -1 0
1239 2 2.4 15.463183908652532 26.788679254738934 18.058291128203145 0 0 0
1989 1 -1.2 16.247958484760535 26.517774972156783 19.603476191477085 0 0 1
844 2 2.4 21.852573584814134 24.48575931526981 19.861619755683343 0 0 0
1459 1 -1.2 21.50634729514935 25.86536731673514 20.7512176073441 0 -1 -1
1173 1 -1.2 26.367659298993317 26.07071245365495 17.61383980077001 0 -1 0
1805 1 -1.2 28.118774334129647 26.836000591706618 19.86637820666052 -1 -1 0
1503 2 2.4 28.767506503571585 25.60423502545938 20.64876277649213 0 0 0
1371 2 2.4 1.181368786675268 29.691029754609104 17.929865307267256 0 0 0
1410 1 -1.2 1.3529848539816662 29.428186102037806 19.520635366194142 1 -1 0
1320 1 -1.2 10.303431210323286 29.041568380771178 17.769853719273346 0 -1 0
1610 2 2.4 8.798988004609424 26.344362384461014 19.0313114249471 0 -1 0
560 1 -1.2 9.092208296191977 27.822190507992484 19.006777301995236 1 -1 0
1299 2 2.4 10.100144376739049 29.234887946303 19.52973634974426 0 0 0
1505 1 -1.2 11.806275685483413 29.485040171572393 19.883024910095948 0 -1 0
1019 1 -1.2 15.954730388884785 0.8595761261495671 20.29397242652531 0 0 0
176 1 -1.2 17.77041957459228 0.24829416986180866 18.52509213358365 -1 1 0
1777 2 2.4 18.090853178901877 29.601799475242895 17.450196751018527 0 -1 0
837 1 -1.2 17.089457220830763 29.073187015611204 16.304613938786915 0 0 0
2051 1 -1.2 21.33219618354789 30.303334935222523 18.349538914447244 -1 -1 1
2154 1 -1.2 19.38685869250529 28.617725800003655 17.953402703509116 0 0 0
2080 2 2.4 21.08923531035364 29.02259752301236 17.493934513060307 0 0 1
1959 2 2.4 22.40441221654211 29.587765418300176 19.710912905708028 0 -1 0
811 1 -1.2 25.95622459254603 28.288980314522345 20.442622388904052 -1 0 0
478 1 -1.2 27.303492240956388 28.436318586547888 17.988091710877285 0 -1 0
1396 2 2.4 27.5036927811389 28.444700300286446 19.69262552390813 0 -1 0
1942 1 -1.2 28.49106622643203 29.54976968129479 19.94006689036207 0 -1 1
1556 1 -1.2 29.193287540144 1.3283702702744042 21.411262711845104 -1 0 0
925 2 2.4 0.2776862698789117 2.2738228939045366 22.23341908965003 1 0 0
185 1 -1.2 5.446234396021366 1.1096949238086504 21.622017031724912 1 0 0
1179 2 2.4 5.781002371562053 2.1403424514412936 20.306352598870493 0 0 0
293 1 -1.2 8.755438405888379 2.2614188088937888 21.694042808504825 0 0 0
823 1 -1.2 7.59043514043202 3.1250628544876595 23.370370949576273 0 1 -1
914 2 2.4 10.39495664621679 2.175331170991621 21.48839653289486 1 0 0
1365 1 -1.2 11.026075256912398 1.2555866881124957 22.404583902861784 0 0 0
762 1 -1.2 14.344343732327753 2.0895021876674886 22.379790563443404 1 1 0
99 2 2.4 15.057385101908418 2.250839188968886 23.905357142611557 0 0 -1
23 1 -1.2 18.727989405652494 1.5024102839208011 20.688111312629697 0 0 0
2057 1 -1.2 16.91695756683162 2.539817298068315 24.360781293158393 0 1 0
1788 1 -1.2 18.808382150354742 3.0185090867765987 22.71966071581875 0 0 0
695 1 -1.2 22.277895166387545 0.7345320060314587 20.30961140898553 0 0 0
970 1 -1.2 24.913099658756998 30.11918272465977 22.572345511455712 -1 0 0
1692 1 -1.2 26.581859082923852 0.9916207289178626 24.7532286783092 -1 1 0
1587 2 2.4 26.34445374421938 0.1688584877941434 23.223229446080566 -1 1 0
962 2 2.4 27.992070340224448 0.7653137202314182 20.378566115433127 -1 0 0
1110 1 -1.2 26.794594053001628 0.7259841004498955 21.668934528609572 0 0 0
1544 1 -1.2 1.7947775164905653 2.027151596938713 21.52841645942835 0 1 0
1771 1 -1.2 30.15469266365025 3.3883794112573513 20.70524317538257 -1 0 1
1026 1 -1.2 6.179632388595493 3.5835873358479082 20.984083768890542 0 0 0
637 2 2.4 6.200973315354612 4.863529088607587 20.094906874501127 1 0 0
657 1 -1.2 5.882556835268426 5.534335850599853 21.901734240360298 0 1 0
361 2 2.4 9.015445942537793 3.759905346954417 22.660343123424205 -1 1 -1
1121 1 -1.2 9.317009387838437 5.169828178703853 21.752680102651926 0 1 -1
32 1 -1.2 14.380093693455764 3.7461210666134277 24.489274698313125 0 -1 -1
1923 2 2.4 18.089765942298087 5.471420381775044 25.06602444344114 1 0 0
860 1 -1.2 21.166677439375675 2.678250048875595 21.757607799787735 0 1 0
1659 2 2.4 19.56704968409151 2.748973188562755 21.05834216600794 0 1 -1
496 2 2.4 22.675261930300586 2.3787761809187993 20.963960992014187 0 0 0
2073 1 -1.2 23.87711097871807 2.885707547475618 21.991526822345065 0 1 0
1839 2 2.4 24.051818370177426 3.6583486984192084 23.453409218582088 0 0 1
653 1 -1.2 25.432211853142775 2.9308162615055884 24.00337171644021 0 0 0
863 1 -1.2 0.43507962042639936 5.793964763929829 22.98639121695043 1 1 -1
1656 1 -1.2 9.31558364253477 7.722462247691282 21.26860378877757 0 1 0
1707 2 2.4 10.238957089842138 6.2222293856601745 20.981423941113967 1 1 0
715 1 -1.2 11.509607818931158 5.924777466372006 22.048747875073765 1 1 0
1083 2 2.4 12.81869350216904 7.1811836837803416 22.397384716411363 -1 0 -1
623 1 -1.2 13.508322020754047 6.669965036374627 23.779922190650677 1 0 0
778 1 -1.2 16.141017897553418 6.7715647248943425 22.153424189762095 1 0 0
902 2 2.4 16.35597446848866 8.252101464911732 22.912068451519612 0 0 0
620 1 -1.2 19.2263162952589 3.5714577347474306 19.744484869734855 0 0 0
786 1 -1.2 16.819433525601045 5.026948940817108 24.3727082189292 1 1 -1
1960 2 2.4 24.700803467278142 6.798453519538163 21.928353057887684 0 0 0
29 1 -1.2 24.855223475700388 5.4311103062196455 22.73604330098826 0 0 0
1535 1 -1.2 25.913324007410903 7.8079766980589635 21.864700624301875 0 0 0
1168 2 2.4 30.241083494259374 6.6226879999161055 21.645908235379103 -1 0 0
1913 1 -1.2 28.807092438395703 6.237177862544194 20.70270301123381 0 0 0
465 1 -1.2 1.6314189652322346 10.032184435268832 20.106657443836955 0 0 0
480 1 -1.2 1.9942455364260159 8.572671615530487 21.94326999042645 0 0 -1
1406 2 2.4 0.40843962215297386 9.635048464612147 21.345999817508478 0 0 0
621 1 -1.2 4.5694858744435125 9.498671904886436 21.14790166843644 1 0 0
1910 2 2.4 3.0098245759913467 9.325358445673977 21.024200826101737 0 0 0
1970 2 2.4 6.201946433485719 10.370571984376474 21.262002681801768 0 0 0
2058 1 -1.2 6.995305046417499 9.772667829594386 22.708134858323437 0 1 0
1934 2 2.4 8.551551120867845 10.720019699511267 23.310202174247255 1 0 0
1597 2 2.4 10.212899293080397 8.354520878538793 22.592920003267817 0 0 0
1973 1 -1.2 9.823112592363692 9.940852459148982 22.67158863258031 0 0 0
2060 1 -1.2 11.815897265712444 8.550339257415503 22.41128705727677 0 0 0
707 1 -1.2 13.918142813889505 7.2465018973085655 21.04712852976882 0 0 -1
926 2 2.4 15.808301783509982 11.050755589461009 21.907479817957785 1 0 0
885 1 -1.2 15.541352928257846 9.41868635525003 22.329804622761486 0 0 -1
1487 1 -1.2 17.975448748745503 8.69184431937887 22.654261864155316 0 0 0
1768 2 2.4 21.72277111674964 8.52774429464081 22.233010673960017 -1 0 0
1265 1 -1.2 20.547155707615435 8.338890836087977 23.33347088270096 0 1 0
1458 1 -1.2 22.13142279122209 10.339237165961862 21.993695525174132 0 1 0
1926 1 -1.2 23.113518143356508 7.601970987090911 22.499372033387466 0 0 1
1378 1 -1.2 24.782310541564026 10.086994507389479 21.014861227261065 -1 0 0
1082 2 2.4 26.159111886364208 9.360732555232252 21.66325029266074 -1 0 0
68 1 -1.2 26.87295447724217 10.284713795883588 22.933828347491534 0 0 0
1149 1 -1.2 29.74144906141408 8.224668787217837 21.804034520693055 0 1 0
1929 1 -1.2 29.97309199046053 10.74623377015832 21.91707753626757 0 1 0
732 1 -1.2 0.3563890621320737 13.541458153581278 22.63193669079774 0 0 -1
1302 1 -1.2 6.5372184934077895 11.974315501505629 20.577558826287678 0 0 0
1623 2 2.4 3.7387220124572655 12.867938010377848 22.2064627320302 0 0 0
1986 1 -1.2 5.269234255586872 12.826754429482069 22.995653145688475 1 0 0
1809 1 -1.2 3.2780174923724505 11.632991123375033 22.894214444940133 0 0 0
124 2 2.4 7.016605926044589 13.069250019212841 21.753986311907155 1 0 0
641 1 -1.2 8.12615471198148 12.201324286545093 22.583494793409034 1 0 -1
775 1 -1.2 14.89656196723074 12.005248781074048 23.01723634411091 0 -1 0
202 1 -1.2 17.27859562240565 11.778336392630969 22.13337938413328 0 0 -1
1369 2 2.4 18.046213050559757 12.035250545038712 20.736321869978816 0 0 0
1602 1 -1.2 18.94211579813564 13.038880912581238 21.54171715388419 0 0 1
611 1 -1.2 3.0644726890098486 13.113545144955781 20.667612446214754 1 -1 0
2156 1 -1.2 7.53985539820711 14.027198853520973 20.516046341108634 1 0 1
1869 1 -1.2 9.670009802565449 16.44250791853511 22.17085735134931 1 0 0
1917 1 -1.2 11.74483948785476 15.064963975036209 20.948585816644087 0 0 0
1494 1 -1.2 16.630192667224247 13.878992553329132 20.567191792417926 0 0 0
1759 1 -1.2 21.159917311650297 13.246097891700174 22.221974778742357 0 -1 0
1036 2 2.4 19.864050656853415 14.34809998712298 21.95508995889298 0 0 0
2133 1 -1.2 19.472291837123375 15.602404524948533 21.20796778734812 -1 0 0
508 2 2.4 22.55939211220281 13.67195301938846 21.642921078760953 0 0 0
1385 1 -1.2 23.539696275918484 14.601676083316416 22.84270707253428 0 0 0
49 2 2.4 24.172950556638835 16.14178988624412 22.02443474295364 0 -1 0
74 2 2.4 29.86049441346228 13.586001872344772 20.896169875245857 -1 -1 -1
1443 2 2.4 0.9923930509171797 17.595429376973602 22.64574627285476 0 0 0
1617 1 -1.2 1.1377526916929661 17.518312050612973 20.945292211101023 0 0 0
375 2 2.4 5.701134030117125 19.87575556885318 23.94480334133964 0 0 -1
347 1 -1.2 4.398263565992524 19.139222916338568 23.94952969319715 1 0 -1
1736 1 -1.2 1.5035488319386234 18.8893315071613 23.396317286941166 0 0 0
830 2 2.4 6.62307632431563 17.658958396673963 19.597603712087555 0 0 -1
664 2 2.4 10.241306846773517 17.746255600654116 21.05152444381766 0 0 0
214 1 -1.2 9.17194118187487 18.997313180563847 21.111400620954914 1 -1 0
1507 1 -1.2 11.953077009328037 17.698976930754082 21.140244872471925 0 0 0
538 1 -1.2 15.371224332046706 18.520688443645135 19.977179612621644 0 0 0
509 1 -1.2 14.777346158385244 16.436785303285923 21.793137781496448 0 0 0
1191 2 2.4 15.644821398893933 16.997744157534274 20.401856410427822 0 0 0
1356 1 -1.2 16.67248013173844 18.29014127735653 22.370688498478582 0 -1 0
993 1 -1.2 17.253380924318908 16.463140963363976 20.531866626533716 0 0 0
1614 1 -1.2 18.854020171381016 18.506612820017942 20.861122967274557 0 0 0
589 2 2.4 22.660324188128296 18.86813608360134 22.932568888510406 -1 0 0
1520 1 -1.2 23.620134061650848 17.508817735694475 22.725621872125487 0 0 1
1283 1 -1.2 23.433029668444377 20.07881651434014 22.218951778821552 0 0 -1
1282 1 -1.2 29.78548780349846 17.43830184059035 22.900826614262733 0 1 0
273 1 -1.2 2.6749083401210805 20.729722395942968 22.460443893757613 0 0 0
1309 2 2.4 1.6135825722639305 21.969216865238856 22.362930137693663 0 -1 0
1335 2 2.4 7.745534913817173 19.855175715615438 21.523001782526052 0 0 0
934 1 -1.2 7.078697509422283 19.526127778090242 22.99286462260925 1 0 0
659 1 -1.2 8.051907384852782 21.32361279042029 20.792458674202983 -1 -1 -1
1155 2 2.4 12.816081606253318 18.967319722455755 21.598352315975944 -1 0 0
1247 1 -1.2 12.220538476656603 20.067583287424867 20.290473068552323 -1 0 0
1956 1 -1.2 14.217452561860277 19.11597763439728 22.240755126977373 0 0 0
721 2 2.4 15.746637321270587 19.27660558602028 21.373601631012548 -1 0 -1
1044 1 -1.2 16.105666223568917 20.8205445731895 20.96918869679615 0 0 0
1153 2 2.4 16.818483741092468 22.342604513286812 20.112834934993007 0 0 0
1238 2 2.4 20.013809041936284 19.539640939873426 21.622542527709218 0 1 0
416 1 -1.2 21.240547252540456 18.654174763434412 22.124490118252567 0 0 0
101 1 -1.2 19.82767952797827 20.805750389478845 20.575761456766227 0 0 0
1146 1 -1.2 19.929835475502955 20.424445357655078 23.282609715162113 1 0 -1
2122 1 -1.2 24.582888724667182 22.463985227140704 20.892647486886812 0 0 0
1562 2 2.4 25.16747278926176 21.013003851307047 21.592197239602168 0 0 0
296 1 -1.2 26.46289568584846 20.809651455313563 22.753601593103927 -1 0 0
142 1 -1.2 28.087902669788946 19.730277703388907 21.341635986642405 0 -1 0
2054 2 2.4 28.03732213316469 20.46802228847366 22.980753372771527 1 0 0
79 1 -1.2 0.7993027676774619 23.561020013277115 23.44650717508492 0 -1 0
696 1 -1.2 2.355699809445448 23.226909567165244 21.567985667817478 1 0 0
2134 1 -1.2 4.655560582528852 25.318522684568883 20.9919470123043 0 1 0
1838 2 2.4 3.4138630531343477 24.301247828250037 22.04428698577652 1 0 0
1622 2 2.4 6.791101300023338 22.532631300400897 20.39271313243854 0 0 0
1017 1 -1.2 5.082970045674563 22.43075294417881 20.49444524839765 -1 -1 0
1135 1 -1.2 7.348544542358813 23.722704781479063 21.397871988868193 0 0 0
1049 1 -1.2 11.007400449801947 22.521088745719403 20.571151995353183 0 -1 0
932 1 -1.2 9.328471914179312 24.382393199475665 22.792663419276714 1 0 0
160 2 2.4 8.396561915359158 24.874964917418954 21.524709201789246 0 0 0
1958 2 2.4 12.379250000447163 21.80630222436354 20.731345078935757 0 0 0
1428 1 -1.2 15.507763508417296 23.404014764729624 20.01375960937906 1 -1 0
1315 1 -1.2 18.055185780574153 23.164558809106843 20.86761559918249 0 -1 0
1528 2 2.4 19.318976248431138 23.71289038217185 21.53752559025964 0 0 0
672 1 -1.2 20.602794611777558 23.418184757844195 20.454953155513433 0 0 -1
474 1 -1.2 2.509377106797963 25.533937922760856 22.410183646448218 1 -1 0
126 1 -1.2 1.4295067702655428 27.919815251151167 21.70970900493151 1 -1 -1
2152 2 2.4 1.7055048747407242 26.789078786541573 22.752232061739385 1 0 0
647 1 -1.2 7.525237179529595 26.750918233057043 21.63526522091765 1 0 0
15 2 2.4 12.576433858073424 25.955987334107796 20.866360093887913 0 -1 0
1409 1 -1.2 11.729976588667524 25.45557480136679 22.49459509618942 1 -1 1
312 1 -1.2 14.01237514131731 25.077350449413927 20.83165703741655 0 0 -1
1858 1 -1.2 13.105220368127107 27.40508391146809 21.309461650265213 1 0 1
1005 1 -1.2 18.923626334718044 25.31086746635525 21.83048085454751 1 -1 0
953 1 -1.2 20.63544846427012 27.709724951939506 22.682943732556062 0 -1 0
344 1 -1.2 23.50310324928062 25.0931276051712 22.77688785266917 0 0 -1
304 2 2.4 24.226962781773103 26.540783639459466 23.363535806664913 -1 -1 0
1939 1 -1.2 25.817773582009444 26.532898621319998 22.897776205073257 0 -1 1
855 2 2.4 27.11842393237655 25.41841005685342 23.18034107471119 0 0 0
1905 1 -1.2 28.07710621693922 25.692883685483757 21.96086781107718 -2 0 0
209 1 -1.2 27.796733903753886 24.388488966078025 24.342430082854037 1 0 0
743 1 -1.2 3.518501296028197 30.009353122229896 20.399970047879712 0 -1 0
1022 2 2.4 4.806478456686446 30.07837351352166 21.849246067033825 0 -1 0
57 1 -1.2 4.561547729883988 29.49804678885707 23.504979677060525 1 0 0
1738 1 -1.2 5.931335054436064 28.9894462123538 21.46233646351148 -1 -1 0
519 2 2.4 6.545544793676783 27.662931776634323 22.53450012619093 0 -1 -1
1911 2 2.4 12.58705573449917 29.152116040744534 21.09658358387814 0 0 0
164 1 -1.2 12.08585087895685 29.38136994454064 22.64476207375282 0 0 -1
913 2 2.4 11.138779886024155 -0.10004892137535118 23.388112247998162 0 0 -1
1184 1 -1.2 13.92128121756256 29.708883264525053 20.934953317454166 0 0 0
1088 1 -1.2 17.73141070628952 27.38197027357585 23.183376880799123 0 -1 0
581 1 -1.2 16.92461135253144 29.707562937986847 21.47755974554776 -1 0 0
1888 2 2.4 17.30472133087678 28.90036698526224 22.91736569087744 0 0 0
39 2 2.4 21.774829898825203 27.281921734229055 21.634035982940322 0 0 -1
1073 1 -1.2 21.694627725397318 28.521680965809626 20.614669675840247 0 0 0
235 1 -1.2 23.37453413411525 27.69700669777243 22.432351217953617 -1 0 0
1492 2 2.4 24.79808606603134 29.26285728738292 21.0749891444656 0 -1 0
1547 1 -1.2 2.701510644856591 0.03779665461175755 24.32754298079321 0 0 0
266 2 2.4 2.632683551796472 1.7336714943802058 25.767922543924396 1 0 -1
1139 1 -1.2 3.8476242716926237 2.939223870178473 25.78288661435242 0 0 0
441 1 -1.2 8.033296081358275 0.7633814270749022 24.884318546813084 0 0 0
975 2 2.4 7.8559390704474295 2.3283119706605997 24.95622870730275 0 0 0
510 1 -1.2 6.260003126496638 2.373526185857611 25.799624377320498 0 0 -1
1079 1 -1.2 14.640049346877827 0.9897540063504169 24.4876657458684 0 0 0
2126 2 2.4 18.498420555998205 2.655487614811001 24.228099909037002 0 1 0
251 1 -1.2 19.353423411774973 1.1672499269116752 25.052199498657874 0 0 -1
217 2 2.4 18.28223229420801 0.1574252905765988 25.056037834580685 0 0 -1
870 1 -1.2 16.62943017370657 30.137250602700334 25.450684149667556 -1 -1 -1
1230 1 -1.2 20.468971168656523 0.7526988583731296 27.531993615669162 -1 1 -1
955 1 -1.2 24.47427450945981 2.410577132248703 26.320147005405932 -1 0 0
1998 1 -1.2 27.19752018449763 29.24396956819816 23.744195938714654 0 0 0
1323 2 2.4 27.969539328125496 28.601128160869838 25.525502948174616 0 -1 0
1930 1 -1.2 1.3338947321852692 2.6068785496032705 26.424311584984398 1 1 0
1655 1 -1.2 0.7614452373892249 2.858283645474675 23.650222592607893 1 0 1
387 2 2.4 0.3125066424579215 3.4283192122218127 25.312419640642634 0 1 -1
2027 1 -1.2 1.2870437879144545 4.916708133122683 25.269788114843827 0 1 0
1650 1 -1.2 4.85362792957665 4.169273705680954 24.19634385855844 1 1 0
1215 2 2.4 5.312939143907881 3.7127430032080064 25.67567732946269 0 1 0
1308 1 -1.2 8.91336378429707 2.9581736165657415 25.960891593733702 0 -1 0
13 2 2.4 10.083745897347953 4.066313386964674 25.088087160330613 0 0 -1
1915 1 -1.2 10.423301217265536 3.450299962860084 23.591008347835484 0 0 0
2032 2 2.4 15.594964250443027 4.56969066345432 25.31698682631853 0 1 0
1709 1 -1.2 16.262722383607592 3.625839196674832 26.589709740365063 0 1 0
1403 1 -1.2 19.07507364000176 3.9827845147516743 24.953506325619447 0 0 0
1719 2 2.4 23.01942921757882 3.146893123007339 25.899747216196417 0 1 0
1450 1 -1.2 22.55884061245615 3.6996906839927104 24.423831062531296 0 0 0
973 2 2.4 25.93542148712047 2.4918637731049924 25.485251435273096 0 0 0
1627 1 -1.2 26.593186533518395 3.814905556643968 25.97898292501793 -1 2 0
1249 2 2.4 28.07677814271792 4.455914797798367 25.896153760515578 -1 1 0
951 2 2.4 0.617525880443793 6.243918580366258 24.573278449582418 1 0 0
1141 2 2.4 3.488243871078324 7.502250543300621 25.04115075663579 0 1 0
1745 1 -1.2 4.0473585967503 6.785625186575127 23.543489228502132 0 -1 0
827 1 -1.2 1.9949647454521549 6.933759477242859 25.004366449595217 0 1 0
61 2 2.4 5.712096883306815 5.534359066874535 23.531170195315283 1 0 -1
1785 1 -1.2 6.264962077082437 5.272575570753168 25.357932797676217 1 -1 0
1358 2 2.4 6.477619659909321 6.7980464443976585 25.864055967112478 0 0 0
727 1 -1.2 4.610762171311491 7.339234253793605 26.11543513071315 0 0 0
146 2 2.4 9.433698642098621 7.058161033397418 25.459299228687208 0 0 0
1208 1 -1.2 9.805498364241512 7.936732066091615 24.111754165161297 0 1 0
1908 1 -1.2 9.081047751690557 5.482302315133016 24.804831504348872 0 0 0
1068 1 -1.2 8.042771974012355 7.749456376987665 26.0096000678607 0 0 0
1255 1 -1.2 10.666338804498269 7.193464963734707 26.319333037947935 0 0 0
1818 1 -1.2 14.941939685437564 6.088042415410272 25.646998289593505 0 -1 0
1922 2 2.4 14.402160834798533 7.426780958939862 25.197940527211315 0 0 0
1712 1 -1.2 15.778761628742606 8.560176299524022 24.574732619199203 0 1 0
1491 2 2.4 18.914296173952508 8.1165809494082 23.917743268289623 0 1 0
1665 1 -1.2 18.966815841044692 6.522676632759605 23.92033415891839 0 1 0
1147 1 -1.2 23.192040508900707 7.612485765097678 25.541740342164463 0 0 0
1938 1 -1.2 29.868656157740446 6.726223941439563 25.912948214980553 0 0 1
189 1 -1.2 28.520727048444723 5.535621925823056 24.51792080630109 -1 0 -1
1028 1 -1.2 2.4751801002686205 11.746694938249393 25.28595537244117 -1 0 0
983 1 -1.2 0.6274747444809117 9.198439288016345 26.082454855483174 0 -1 0
1880 1 -1.2 3.6097298710211025 9.455444531477198 24.400176136726838 -1 0 0
1816 2 2.4 3.68114460592027 10.984500377691457 24.625137031937065 0 0 0
1103 1 -1.2 9.24837557614375 11.265518623673247 24.88174281517283 0 0 0
536 1 -1.2 13.829149786589662 7.9866357460071855 26.56364383952323 0 0 -1
626 2 2.4 21.95139816319326 11.881375949839557 26.614387613701275 0 0 -1
718 1 -1.2 22.231928139892513 10.272734376350224 26.18531934852642 0 0 0
438 1 -1.2 20.595589157035338 11.625722102970999 25.691513863846232 -1 0 0
1321 2 2.4 23.448594640533397 9.141432138678235 25.97167783057069 -1 -1 0
897 1 -1.2 21.278426781430266 6.6384525452892955 27.9839854300941 -1 0 0
1181 1 -1.2 24.239901928586626 9.880615360562668 24.582601226717568 0 0 0
1096 2 2.4 25.90891852324882 10.30106925222011 24.20161289558141 -1 0 0
55 1 -1.2 27.047648651571915 9.94598012296678 25.666864683387843 -1 0 -1
1766 2 2.4 1.2791402468462352 10.71410708733285 26.0431692089832 0 0 0
1425 1 -1.2 0.09904299898015184 10.847108216408342 24.54973678722356 1 0 0
1637 1 -1.2 4.860593358900945 11.508460935036638 25.734935683691187 1 1 -1
242 2 2.4 8.548780127209689 11.852532374553602 26.342618819787738 0 0 -1
924 1 -1.2 14.455566294648719 10.607435788633795 25.66330420047351 0 0 0
1294 1 -1.2 13.33207420034853 13.032810795485581 24.572868816771603 1 1 0
736 2 2.4 14.372325889269355 11.856377450396554 24.45298514441285 0 0 -1
2034 1 -1.2 15.710828720522494 12.686956100972036 25.02842739878291 -1 0 0
1479 2 2.4 16.658447616949974 13.412046270866622 25.98725181407028 0 0 0
643 1 -1.2 17.844734832686974 12.382153257963747 27.063294824321968 0 0 -1
612 1 -1.2 25.593665613791888 12.025002394367911 24.19503354248493 0 0 -1
314 2 2.4 29.966441144975253 11.804985211515033 23.199572284810824 -1 0 0
1865 1 -1.2 28.262987256661223 12.09356606219192 23.337963204656226 0 0 1
1648 2 2.4 27.122079917541765 12.73977087455728 24.35517562108825 1 0 0
1060 2 2.4 1.8470621530802533 14.952439988610827 23.550959673567416 1 0 0
1613 1 -1.2 2.254288045485471 16.418601858606408 23.070779540245834 0 -1 0
367 1 -1.2 3.2372833129540757 14.256432746542568 22.91061847563493 0 1 -1
360 1 -1.2 9.39977610002894 15.469217395622877 24.839816142446143 1 1 -1
207 2 2.4 8.917496941162272 15.086538533665912 26.319761305698563 1 0 -1
853 2 2.4 10.497911104259417 16.050271476969115 23.673212589779634 1 0 0
1400 1 -1.2 8.800253905908273 13.484027808146472 26.172546748808262 0 0 0
1854 1 -1.2 11.68069524730937 15.234018506010141 24.05694096920159 1 0 0
674 2 2.4 12.726612394880915 14.687460394326433 25.085279551270304 0 0 -1
1212 1 -1.2 11.54477882409217 14.578897687165163 26.672513242831663 0 0 0
1485 1 -1.2 13.842216180061694 15.72458338969836 25.617283417680124 0 0 0
1152 1 -1.2 17.338899976908234 16.110131242775083 23.375435958302855 1 -1 -1
108 1 -1.2 17.48392190744783 14.40757138008309 25.1600520205942 0 0 -1
1886 2 2.4 18.345736192522132 15.279259434172653 24.329060444053034 0 0 0
2129 1 -1.2 19.711521063072617 14.92467109124549 23.30669724482324 0 1 0
714 1 -1.2 25.73277092840022 15.977671139797858 22.516522155082345 1 0 0
609 1 -1.2 27.07466973455276 14.282318495040878 24.044428490926702 0 0 0
676 2 2.4 26.116771643139383 15.366216913397198 23.864842892266758 0 0 0
1038 1 -1.2 24.914076357408863 15.302671936247414 25.015338024302856 0 0 0
246 1 -1.2 2.6959776865124048 20.574345367997942 24.947094830643096 0 0 -1
1903 1 -1.2 4.67414666292893 15.949577330198796 24.83850902045684 0 0 1
291 2 2.4 5.77908248618164 15.957707086611286 26.170416840105148 0 0 -1
178 1 -1.2 6.331727827969168 17.43716403532051 26.52831144026443 1 0 -1
2157 1 -1.2 6.186899730871342 19.947040439845026 25.437811240916098 1 0 0
1680 1 -1.2 10.630944971088558 17.508098006529966 24.417527903742965 0 0 0
105 1 -1.2 13.301880636761506 18.197562532773045 24.197698189930477 0 0 -1
494 2 2.4 11.87109472262146 18.778138673625946 24.123334889936206 1 -1 0
1874 2 2.4 14.050151929947928 17.363242426687794 25.485802187795294 -1 0 0
1747 1 -1.2 15.357942227087298 17.426008020205423 24.82091176589506 0 -1 0
2128 2 2.4 15.950749084034133 17.182667468360037 23.38500529025565 0 0 0
833 1 -1.2 18.855247119801298 16.41763285423785 25.497066497955156 -1 1 -1
1735 1 -1.2 22.39504430652159 19.126101596475017 24.389474007448953 0 -1 0
1866 1 -1.2 27.089143419741482 16.73466469035765 24.00019270368679 0 0 0
738 1 -1.2 29.368287853346075 17.290914427800626 25.580703047360334 -1 0 -1
1873 2 2.4 28.724223959790862 17.39738946937724 24.144752031352017 0 0 0
971 1 -1.2 28.39469598948954 19.18122057265995 23.969710875727657 0 0 0
976 2 2.4 2.8454835662910827 19.77628574275053 23.61891588865028 1 0 0
534 1 -1.2 3.7963926332925624 19.597271434502833 29.91465143971651 0 0 -1
1205 1 -1.2 4.909650919658542 21.696938009852598 24.002798259166546 1 0 0
1338 1 -1.2 11.853247400890082 19.593378399207033 22.78772367367686 0 -1 0
94 1 -1.2 18.374982641878677 19.148777207371907 25.687049198449994 0 -1 -1
131 1 -1.2 18.509975934568168 21.86878495573888 25.383982315846726 0 -1 -1
840 1 -1.2 20.906074829193358 20.163598415905447 25.571143643570423 -1 0 -1
1513 2 2.4 19.463076712195882 20.615545112083094 25.086067803360184 0 -1 0
1813 2 2.4 22.462557182160445 19.727430586214837 25.799512340248043 -1 0 0
1976 1 -1.2 23.122064743212732 21.239734324777686 26.113763917167393 -1 0 1
81 1 -1.2 28.84608720323643 21.818601933266653 23.26908682483113 -1 0 0
810 1 -1.2 4.334869040688165 23.85788310783596 23.330561478630248 0 0 -1
183 2 2.4 5.027549147742336 23.12403632327637 24.750567046901104 0 0 -1
78 1 -1.2 4.78161634223429 23.52086540283862 26.462111663817844 0 -1 -1
995 1 -1.2 6.356028086565073 23.972396271279866 24.798385768286774 1 -1 -1
2150 2 2.4 7.063830999725042 25.17799704670309 25.843022927687777 1 0 -1
1999 1 -1.2 13.644197595568968 22.05342849903973 21.72150499329596 0 0 0
2132 1 -1.2 13.832876765441661 22.29583106798955 24.28359207927446 0 0 0
232 2 2.4 13.203673828919973 23.02774331033873 23.01198005163902 0 -1 0
1737 1 -1.2 14.416956600594624 24.224595986050097 23.06759583973772 -1 -1 0
1850 2 2.4 15.17136890895764 23.26717509571816 24.172241874932674 0 -1 0
602 2 2.4 17.918844310679138 23.23813438386912 25.037221384523292 0 0 0
835 1 -1.2 16.821050930692692 24.089752794615304 23.722177986334376 1 0 0
237 1 -1.2 19.165326863104237 23.335227493760595 23.18445528164994 -1 0 0
662 2 2.4 23.236689430745468 22.830372398345116 25.934517447542287 -1 0 -1
1253 1 -1.2 23.086067397111524 23.01679527756148 24.33951286193573 0 0 0
825 1 -1.2 29.319856755486487 22.781004277079965 25.750586855170344 0 0 -1
613 2 2.4 30.132914723762244 22.421892523823857 23.990425483154738 0 -1 -1
303 2 2.4 28.260679037161683 24.30039082374489 25.981101645473558 0 0 -1
2088 1 -1.2 5.529354652868078 27.25010070987218 23.69899455277097 1 0 -1
42 1 -1.2 3.3501120298391203 25.61889995168542 25.81606494485905 0 -1 -1
1046 2 2.4 4.863156875626956 27.258364880062892 25.338617014786273 1 0 0
175 1 -1.2 8.352456854446661 25.993130484470203 25.585407408888596 0 -1 -1
455 1 -1.2 5.824454495058894 25.993461341572925 26.48352720694095 0 -1 0
905 1 -1.2 10.563261699726668 27.690070026119553 26.13959382677052 0 -1 0
575 1 -1.2 10.901438826034495 25.784990893913818 24.576454045347408 1 -1 0
650 2 2.4 10.001539514131874 26.111687496039682 25.99985694371084 0 -1 1
14 2 2.4 10.741784755561069 24.67786561010204 23.43667131563366 0 -1 -1
2106 1 -1.2 11.542584227173384 23.21309269342792 23.004068568362875 0 0 0
1192 2 2.4 14.048225195224733 25.320264503651263 26.444455955766124 0 -1 0
1319 1 -1.2 12.92815273072267 26.47121759451497 25.78481364316789 0 -1 0
1968 1 -1.2 15.229843619080901 24.18303879488459 25.66462114932043 0 0 0
616 2 2.4 19.225350362973607 26.71338023262379 23.23530668813625 0 0 0
1856 1 -1.2 21.131433646084417 25.203969658669944 24.43626367954719 0 -1 0
1849 2 2.4 20.774860091616404 26.752529198857648 25.315829512411312 0 -1 0
1571 1 -1.2 19.25929128246208 26.345299375490047 24.763162833189906 0 0 0
1300 2 2.4 22.858471095384488 24.82050807766601 24.13037515500162 0 0 0
1832 1 -1.2 24.165012739593234 25.744205468353062 25.016300817793745 0 0 0
1392 1 -1.2 29.41038776940501 25.488632888060803 26.12897105916623 -1 0 0
1421 1 -1.2 0.11791402803847287 26.41728813728541 23.527833480884738 1 -1 0
75 2 2.4 29.817386989374647 26.609802329023854 25.157081219521082 -1 -1 -1
882 1 -1.2 2.0215585889283663 27.97784803661141 24.057698019427363 1 0 0
1641 1 -1.2 0.11150305454627067 27.91871850320013 25.9852322526518 1 0 0
459 2 2.4 3.3780880915626676 29.133725556606095 24.585167853537406 0 0 0
2135 1 -1.2 4.454957368116608 28.95499179713553 25.88013953625147 0 0 0
1199 1 -1.2 7.671688449108308 28.303862550991912 23.614955008838702 0 0 0
179 1 -1.2 9.768577087320379 29.554744422593522 23.711269432507205 0 -1 0
1599 2 2.4 8.35430390266539 29.543969038637982 24.56837475982058 0 0 0
980 1 -1.2 11.77272313715391 0.7318823033043483 24.601760552223862 0 0 0
171 2 2.4 12.268503464460144 -0.03307163722336901 26.223733053351758 0 1 -1
1859 1 -1.2 15.35090443311746 28.79271691815134 23.72864845291366 0 -1 0
2120 1 -1.2 13.649289682132519 29.664654028178845 25.88792554221594 0 0 0
2068 2 2.4 14.88998443965342 29.777744521926504 24.77002727527778 1 -1 0
1411 1 -1.2 18.53211041877351 29.696483953546245 23.675848581003052 0 0 0
1687 1 -1.2 22.246734169390354 27.106240652756227 24.92689614179439 0 0 0
445 2 2.4 23.435349564636404 27.992146263734824 25.503138543958805 -1 -1 0
922 1 -1.2 24.41261065614532 28.008715131186605 24.40615068360649 0 -1 -1
1268 1 -1.2 28.360508535026653 27.06248689361826 24.861440350211986 -1 0 0
1742 2 2.4 2.00290159114644 -0.05522393225880316 27.9380385137399 0 0 0
1810 1 -1.2 0.4632899700068741 0.568047909433486 27.471756031314907 0 0 0
557 1 -1.2 3.132365463349115 0.5228914318231123 26.830421211224103 0 0 -1
1591 1 -1.2 4.696559161045772 2.0426850712637106 29.100946064785774 0 1 0
1311 2 2.4 5.920413582138759 2.827813643153059 28.414896304009133 0 0 0
213 1 -1.2 7.593453186007088 2.4695735049627596 28.74194814630731 1 1 -1
2124 1 -1.2 9.87421272922035 2.9833124297444504 29.559773688986077 0 1 0
1034 2 2.4 8.390644734204924 3.1233871628377434 30.311842557526003 1 1 0
730 1 -1.2 11.37215671195544 1.0308799399044855 30.022951296866758 -1 0 0
1688 1 -1.2 12.989147785846706 1.0014252247393771 27.447675109997316 0 1 0
328 2 2.4 12.694296206861734 0.9198891855889377 28.998981577843395 0 1 -1
1943 1 -1.2 15.827763289890644 2.5882927708002126 28.659543188804776 0 1 0
1266 1 -1.2 13.781844454802144 2.208329537394563 29.729412535221613 0 1 -1
889 2 2.4 15.542548142474024 1.853199409472906 29.98943160430183 0 0 0
151 1 -1.2 18.595128034425198 29.577715588915854 26.37270780799377 -1 -1 -1
726 1 -1.2 22.93408017115847 0.1765264195612048 27.693991131539896 -1 1 -1
133 2 2.4 21.93772225359436 0.21167078811170045 26.52927082736301 0 0 0
1195 1 -1.2 21.793158480142804 29.44860094679743 25.63426179614307 0 0 0
335 1 -1.2 26.454791603240718 28.353155685267595 26.221353846242692 0 0 -1
583 1 -1.2 28.639973227675142 30.12894602080583 25.98787257714769 -1 -1 -1
505 2 2.4 29.511225969075635 -0.04619317616287981 27.63419632773365 0 0 0
1834 1 -1.2 5.36883210337332 4.02407238794533 27.42075356126594 1 1 0
668 1 -1.2 10.95523301252575 4.620930814640264 26.31060792908226 0 1 0
1132 2 2.4 13.23958484021589 5.575486719554636 29.26080266267068 1 1 1
2023 1 -1.2 14.893251681778514 5.225678376768903 28.95568505340024 0 1 1
1814 2 2.4 16.182488065578436 4.067005565924848 28.223131113962676 0 0 0
753 1 -1.2 17.26124514069529 4.925629261114091 29.174783045580963 0 1 -1
1639 1 -1.2 22.011088073525528 1.6175327960531287 25.841388659585377 0 1 0
1746 1 -1.2 22.415027015206466 5.457610686330617 26.067593371680665 -1 0 0
2067 2 2.4 22.762319257207352 5.124018746546122 28.140525581912875 0 0 0
1763 1 -1.2 23.02189974474504 3.646437724685266 27.595822740924653 -1 0 0
1819 1 -1.2 28.186917242734104 5.417021774781286 27.13304878294417 0 0 0
370 1 -1.2 25.8007847340752 4.036595062699353 28.997689705227927 0 1 0
804 1 -1.2 29.110515906493735 3.2838854458668147 25.926593371122152 -1 1 0
492 1 -1.2 0.7402214535325887 7.871146290552071 28.066902394380865 0 0 -1
875 1 -1.2 6.924369387812213 6.900384211401955 27.818045828579596 0 -1 0
11 1 -1.2 10.120026357832538 5.677485967555516 28.802687913668297 -1 -1 -1
349 2 2.4 10.80469045105284 5.87569000465272 27.390951949684318 1 0 0
1517 1 -1.2 12.406765011775587 6.080420875513512 28.04251978655158 -1 0 0
1376 1 -1.2 17.994296208795458 6.445880431762077 26.60026275443527 0 0 0
1720 2 2.4 21.63579511668037 6.805717409570103 26.395055761405477 0 1 1
497 1 -1.2 20.068892958218655 7.510796833939005 25.91177266757166 0 0 0
1916 1 -1.2 24.638973220242825 8.644071558866752 26.998978735456944 -1 0 0
241 2 2.4 27.0009958914078 5.114136433678769 28.265523799061285 0 0 -1
87 2 2.4 25.123966860405336 7.217810077357724 27.944315691978716 -1 1 -1
1918 1 -1.2 24.182942716326284 6.150295843875237 28.57801397621031 -1 0 0
1531 1 -1.2 26.476275215408023 6.476993577440681 27.895813052251242 -1 0 0
1540 2 2.4 30.232563108920687 8.124000415228211 26.801186843770942 -1 0 0
1059 2 2.4 1.5560898995026662 8.503234781764814 29.23437892698677 1 0 0
921 1 -1.2 0.5863423263421906 9.883564765113011 29.522848091549093 1 0 0
1673 1 -1.2 3.101492238977092 8.610070648414979 28.51004711270352 1 1 0
1682 2 2.4 4.67296003114121 9.007528430089828 29.333880513584393 0 1 0
1961 1 -1.2 10.944708140073354 10.662431827950673 29.631117348056442 0 1 0
1982 2 2.4 11.142016361465393 11.26426798840014 28.2194809860452 0 0 0
1565 1 -1.2 12.612712168326954 10.244501904190896 27.608002997071623 0 1 -1
856 2 2.4 13.990465071951668 9.55597606637199 27.027637050841765 0 0 0
525 1 -1.2 15.517512200161926 9.712171238940158 27.974903098678116 0 1 -1
820 2 2.4 15.98145032542514 9.744548576133292 29.790536007242746 0 1 -1
1842 1 -1.2 18.502279851535835 9.405439064431043 26.55903379527616 1 0 0
1379 1 -1.2 17.4108853618774 9.112688300172112 29.390782919846313 -1 -1 0
182 2 2.4 18.78537400419185 7.873342390338913 26.86160082165043 0 0 -1
1615 1 -1.2 27.165238491555293 11.028302241389568 28.853844653527812 0 0 1
543 2 2.4 27.79006030151756 10.37985703848277 27.379415766316 0 0 -1
1824 1 -1.2 29.053114043665843 9.416870273656498 27.815999903882968 -1 0 1
1527 2 2.4 1.007761200495493 11.40530732513076 29.04230544125532 1 0 0
1350 1 -1.2 1.0849008653184302 11.512307132034238 27.364926594832518 2 -1 0
959 1 -1.2 5.190389418948741 9.846203238624264 27.886164153814033 0 0 0
1808 1 -1.2 7.312469699664798 10.839548220056672 26.86096536765873 0 0 1
1348 2 2.4 5.6877916796231744 11.265203226418645 27.503916193317174 0 0 0
1955 1 -1.2 5.155008461806267 12.764930061461614 27.92531897496441 0 0 0
1440 1 -1.2 9.92848863738696 11.446818038006278 27.314143032543697 1 1 0
1723 1 -1.2 12.166613665804752 12.801465990223258 28.840743148725444 0 0 0
1604 1 -1.2 15.777267463224481 14.316223882857688 26.917013041705278 0 0 0
484 2 2.4 18.863523297925298 11.147678753884415 26.757207666193654 0 0 -1
848 1 -1.2 19.985742070034558 12.038358344487769 28.0675072713322 0 1 -1
192 1 -1.2 24.00200943389092 10.946673566886517 28.79607994785223 0 1 -1
1431 2 2.4 24.2816255805774 12.537381161191021 28.745735128976882 0 0 0
2052 1 -1.2 28.206466681704597 13.820911078626882 27.629110690275997 -1 0 0
537 1 -1.2 23.579086661083547 13.690883601359273 26.572788582981996 0 0 0
645 1 -1.2 28.38259145141956 11.808360370840811 26.391574248194154 0 0 0
1137 1 -1.2 30.133586563264764 12.508138418621426 29.07393800754183 0 0 0
1298 2 2.4 29.518392236333028 13.1285144840349 27.15062234769775 0 0 0
920 1 -1.2 1.9032670903861615 14.487700390171456 25.05545742225042 1 -1 0
1576 2 2.4 1.530591886062179 15.207951461508085 26.390971256740677 1 0 0
1557 1 -1.2 2.3972336415690334 14.94877662818759 27.825057442715085 1 0 0
1259 1 -1.2 4.602958541746148 14.137725180440563 29.708869726450462 1 0 0
697 2 2.4 5.614623045112639 14.046618846195324 28.566750133702516 1 0 -1
2050 1 -1.2 5.056512161882238 15.147059902880894 27.396346537397037 1 0 0
1581 1 -1.2 7.276870260463834 15.239157719594516 26.160540111689045 1 0 0
1390 1 -1.2 7.231872398846269 14.821187913863143 29.10667754289381 0 0 0
1032 1 -1.2 9.20271893059534 15.964075729851615 27.58056756370393 0 0 0
1045 2 2.4 10.230393289607674 16.790048613291106 28.619063318297123 1 0 0
627 2 2.4 12.163807750883706 14.30019331663324 28.1581379845283 0 0 -1
1904 1 -1.2 11.373105371796866 15.650387611354573 28.818927500275297 0 0 0
1476 1 -1.2 13.703219365239645 14.781265606536072 28.456316837936544 0 0 0
1465 2 2.4 15.38418223680529 14.6728164628613 28.486069536070183 0 0 -1
694 1 -1.2 16.04139522897446 16.42092167406011 28.585141182392892 0 0 0
1174 1 -1.2 24.408402496506245 16.31854265114028 27.393090986731917 -1 0 0
1633 2 2.4 24.556282554947646 14.786152011899068 26.527032078325227 -1 1 0
1397 1 -1.2 25.818948095413322 14.789694397635738 27.366100253504936 0 0 0
1399 1 -1.2 0.14931972741142613 13.937973963203467 26.33088295224771 1 0 0
2035 1 -1.2 1.2874983398637672 16.75880055619522 26.997181366319744 1 0 0
593 1 -1.2 11.062962680546557 19.790199581422925 25.479294681715757 0 0 -1
313 2 2.4 10.974699000848661 19.672382930421595 26.989078342203083 0 1 -1
765 1 -1.2 12.510703547982002 20.228307007746274 27.893022972056205 0 0 -1
893 1 -1.2 13.329784880561226 17.988064372551865 26.79800529526019 -1 -1 0
1857 1 -1.2 17.607938375111647 17.81314925403506 27.61507160304223 0 0 0
1468 2 2.4 18.860366228687496 17.75523781183648 26.329798800602262 0 0 0
1303 1 -1.2 20.551114061652267 17.3446748321055 27.408633706037847 0 0 0
1008 1 -1.2 22.455273512148228 17.028261326727094 29.37575954657642 0 0 0
712 2 2.4 23.709018621651367 17.787620778230778 28.19887908405293 0 0 0
790 1 -1.2 22.990541962048294 18.639657154735257 27.00201485228536 0 0 0
1776 1 -1.2 24.994588493500817 17.890653472103303 29.236639981970434 0 0 0
1058 2 2.4 -0.03228167051212912 18.18449816444316 26.919495480135744 1 0 0
250 1 -1.2 28.347976661201596 18.89568595239849 26.991250644858383 0 0 -1
1935 2 2.4 2.5490489701390278 19.98620350293643 26.482637990973146 1 0 1
323 1 -1.2 1.1871489996370412 19.451164774947554 27.066684242556136 0 0 -1
821 1 -1.2 3.7155524206838177 18.61661433085213 26.246251173018905 0 0 0
1418 2 2.4 5.520050772165619 19.055789741676534 26.604399437874534 1 0 0
798 1 -1.2 5.747651077070616 20.008234068067694 27.997102182230005 0 0 -1
1848 1 -1.2 8.275994467521382 19.934747844961255 28.941109214158004 1 0 0
211 1 -1.2 10.262040105742349 21.13955028156269 27.26851032178863 1 -1 -1
2056 2 2.4 9.654670386391418 21.412800536675835 28.690809819342796 0 0 0
757 2 2.4 14.202039982791902 19.28024040059715 27.49544428709978 1 0 0
636 1 -1.2 14.959738703138 20.10696073829434 26.170384129918293 1 0 -1
573 1 -1.2 19.282178369870746 20.722873573913166 28.885082976187874 1 0 0
610 1 -1.2 26.72800555923566 21.061223849440577 27.994041402892805 0 0 0
1634 2 2.4 27.905162859620578 19.86324980076422 28.311012956047076 -1 0 0
1495 1 -1.2 2.7232023452720115 21.064032615519544 27.54360300048916 1 0 0
1609 2 2.4 2.3764565456641495 21.94899333395579 28.856163930933057 1 0 0
1568 1 -1.2 2.0697848288534093 24.986735685306762 29.372614721072033 0 0 0
2153 1 -1.2 7.3424374430834405 24.35915810044318 27.228609168722503 0 0 0
1906 1 -1.2 8.83018429569276 23.02078989819561 28.660499512600392 0 0 0
793 2 2.4 8.605898964045199 25.003357893559915 28.278492091064507 0 0 -1
1546 1 -1.2 16.31427475210658 22.023008499386194 25.098679157163886 0 0 0
279 2 2.4 15.929327089579255 21.567211210054804 26.711801867240048 0 0 -1
1211 1 -1.2 14.83012222944438 22.104517682165746 27.950682799716642 0 0 -1
431 1 -1.2 18.527852724808554 24.34619732515947 26.06876326476595 0 0 -1
113 1 -1.2 18.34534621162513 23.447001613643323 28.330182750240166 0 -1 -1
1708 2 2.4 19.2795777866118 24.814561442670705 27.808344038051786 0 0 0
59 1 -1.2 20.74401819746158 25.112070611323826 28.261636484186077 0 -1 -1
1672 2 2.4 21.969516398347757 23.943361359654755 28.392683768019843 0 0 0
115 1 -1.2 22.36390877994291 24.069233027375528 26.79908490307893 0 0 -1
1252 2 2.4 24.759327585696965 24.014264645968204 30.251204872866623 0 0 -1
332 1 -1.2 27.174008314960602 23.780494755279726 27.054934017119113 0 0 -1
1947 2 2.4 25.96119573070346 22.629221187649016 27.800672723238048 -1 0 0
274 1 -1.2 24.787861759613392 23.152354960515236 26.826103803104594 0 -1 0
1644 1 -1.2 25.573882396742928 22.50457170957018 29.518254715965643 0 0 0
311 1 -1.2 0.8787433981664805 22.74780383263379 28.6895405724916 0 0 -1
276 1 -1.2 0.7462469066024713 26.756655587880555 28.061509090690937 0 0 -1
1136 1 -1.2 4.500459387338371 25.066395026087786 28.740042933585265 0 0 0
2137 2 2.4 4.218972609215235 24.991785273886887 27.13999941566273 1 0 0
1584 1 -1.2 9.85795237199529 25.335051907183594 27.388254053874203 1 0 0
317 1 -1.2 7.730388314565492 26.364016774097138 28.919262975171897 1 0 0
1108 2 2.4 13.461957300807363 22.83450043568226 28.25908982460305 0 0 0
656 1 -1.2 13.151298229758952 23.910693085962077 26.980311656368443 0 0 0
177 1 -1.2 18.67301813823335 26.358534916439883 28.10702754244734 0 0 0
1949 1 -1.2 21.085638704842278 27.048010279684185 26.83543872612765 -1 0 0
339 2 2.4 20.186005717939654 27.013971991921355 28.608498393358026 0 0 -1
1579 1 -1.2 25.633560554715537 25.370281833539547 29.611573883174575 0 0 0
1693 2 2.4 0.3053538273060493 28.206914537523847 27.42440621760539 0 -1 0
249 1 -1.2 1.9828248984831593 28.817900272062943 27.742871509900926 1 -1 -1
958 1 -1.2 4.973574024336709 27.84244609143372 32.368665666113976 0 -1 0
2000 1 -1.2 8.448989228148983 29.29289089581405 26.655086438075408 0 0 0
1357 2 2.4 9.84118947981339 28.70434452689321 27.391710673619176 1 0 0
1509 1 -1.2 9.479614914978702 28.40568698045507 29.01019029414131 0 -1 0
31 1 -1.2 11.186003970628692 29.815230917836573 27.284035161035465 0 -1 -1
1729 2 2.4 19.377088540558653 -0.114068592530523 27.625206877218176 -1 0 0
957 1 -1.2 19.742244406706416 28.56920369295865 28.419466194237085 -1 -1 -1
93 1 -1.2 23.96798840188273 28.029966710656012 27.157523279662993 -1 0 -1
95 1 -1.2 25.890090388130254 27.97003677581921 28.864668294879507 -1 -1 -1
990 1 -1.2 25.65078352928119 -0.09865590535516416 27.474244384356954 0 0 0
256 2 2.4 25.63784747319289 28.685628728725387 27.49771508676993 0 0 -1
1284 1 -1.2 29.535825280187996 28.87834701038195 28.198643633562718 0 0 0
1767 2 2.4 3.831902609132003 0.8190659317737584 30.311299839424496 -1 0 0
128 1 -1.2 2.777406394474512 0.16612935558045797 29.332681068025977 1 0 -1
440 1 -1.2 3.4784612978950626 1.551215177230357 31.62689362497064 0 0 0
1287 2 2.4 10.3752656771222 2.080917726386603 30.783262610136006 1 1 -1
1098 1 -1.2 9.005489984988186 2.2203381831368487 31.528465879806646 0 1 0
404 1 -1.2 13.241924409961218 30.036204081161227 29.64525237268524 0 0 -1
546 1 -1.2 18.034472113132434 0.03123361099585231 28.52722062441573 0 0 -2
873 1 -1.2 15.719885004648777 0.5453667969881528 29.582355397386912 -1 0 0
2053 2 2.4 16.672282870508493 29.554476460425438 29.201470670622708 0 0 0
1704 1 -1.2 17.029435860758515 29.341794222961045 30.722156225715658 0 0 0
1539 2 2.4 24.453433009751986 0.13148995182027187 28.652319447160373 -1 0 0
46 1 -1.2 24.878806082975014 29.86260528212547 30.280250571717186 0 -1 -1
1123 1 -1.2 24.473519461497702 1.6427399106010456 29.282569153769046 0 0 -1
1344 1 -1.2 26.77739584840796 2.0170224386844544 30.607432694369688 -1 0 0
822 1 -1.2 28.582312589348277 0.3087258152016111 28.89207391680786 0 1 -1
781 2 2.4 28.09646894045378 1.0214924731554356 30.544637275879943 0 0 -1
2159 1 -1.2 29.220159212777236 1.4002274440158378 31.53921387159563 0 1 0
797 1 -1.2 5.5545121626471605 5.218777090307682 29.830193591591335 -1 1 -1
1047 2 2.4 6.034499917464906 4.545685723222314 31.525525893567014 0 0 0
1770 1 -1.2 4.834084543487822 3.581160051704197 32.25085945280685 0 -1 0
1748 1 -1.2 7.642346109153509 4.043983218098818 31.39218562632536 0 0 0
1666 1 -1.2 11.288914654282783 2.9128513262501405 31.733581980548696 0 1 0
847 1 -1.2 12.481091452560612 4.719294159957256 30.424584437769166 1 1 0
1466 2 2.4 11.736234195768622 4.520766034018139 31.813573474626324 0 1 0
191 1 -1.2 12.366045846821423 4.538080093929927 33.51086388116507 0 0 -1
1618 1 -1.2 16.22630684967103 3.2660551921098477 30.754253237170563 0 1 0
1985 1 -1.2 13.251959619617148 6.769795496417453 33.13221092643148 1 0 0
289 2 2.4 16.960236022017796 4.691787505087916 30.838663247438717 0 0 -1
324 1 -1.2 18.60596235264325 4.803633433644081 31.18349191838771 0 1 0
629 1 -1.2 19.659372298209625 3.7906082215884846 33.232547685670426 -1 0 -1
132 1 -1.2 22.788143116397354 4.4018016153936665 29.714732587046328 0 0 -1
1504 2 2.4 23.06939568015181 4.946226771830441 31.205848286260125 0 0 0
603 2 2.4 25.53650516328207 2.6677128696223007 29.988892352069268 0 1 -1
1125 1 -1.2 24.262092102689685 3.817055613444171 31.746089240450427 0 1 -1
1802 2 2.4 30.114399627496894 2.631230452833303 32.35123426339519 -1 0 0
464 1 -1.2 29.605918060984283 4.007145424783665 31.69807053467934 -1 0 0
1772 1 -1.2 1.7027073310154515 7.36749608375827 30.456120117234285 1 0 0
1743 2 2.4 0.6189825902438371 6.822603461259383 31.311293026971835 0 1 0
1833 1 -1.2 3.263467573098383 6.695742681611729 32.96611809065213 1 1 0
1779 2 2.4 6.644583736252709 6.543945204156471 29.359360353164686 0 0 0
1225 2 2.4 4.869466886011248 6.57905073598862 33.32996168365894 -1 1 0
1593 1 -1.2 5.345942036957285 7.977895376436041 33.945013438092104 0 0 0
1795 1 -1.2 10.532751273496304 6.254568477474231 31.399593794403692 0 0 0
1628 1 -1.2 7.994166121577021 6.714686898463237 30.09666760853787 0 -1 0
1202 2 2.4 9.675797352695614 6.557284250068325 30.12049728420519 0 1 0
558 1 -1.2 9.998806556161133 8.245547905539215 29.65796683429899 0 0 0
692 1 -1.2 13.606447347896294 7.03080047456119 30.371584665954373 0 0 0
362 2 2.4 14.98093123101103 7.0557971543125415 31.333203204835073 -1 1 -1
1377 1 -1.2 15.725124185282686 7.334491971839731 32.99822370453 -1 0 0
1750 1 -1.2 15.91655064228083 5.841469717604163 30.95441384230079 -1 0 0
2148 1 -1.2 20.743995848468924 8.31343891893198 31.042170465510594 1 1 0
294 1 -1.2 18.330210450517875 8.001340102970264 31.06725270053854 -1 1 -1
2040 1 -1.2 23.04053471990972 6.5489452293483685 31.47271210389644 -1 1 0
40 2 2.4 22.351440180359912 8.213579063891759 31.63741668331186 0 -1 -1
1328 1 -1.2 27.524827441962863 6.021046982173514 32.233203849310726 -1 0 0
244 2 2.4 28.515099297625166 5.550394212733705 31.144214964772104 -1 1 -1
1054 1 -1.2 29.698432182232008 6.298062268757381 30.280745740637443 0 1 0
545 1 -1.2 27.685686695188675 4.982842279476369 29.933997048909823 0 -1 0
1078 1 -1.2 0.01876595496157639 8.094961703210114 32.257369373215084 1 0 -1
82 1 -1.2 4.550449359380894 9.661445126807369 30.794221955044414 0 0 -1
1157 1 -1.2 5.599828121213953 7.788208848693061 29.475060947129286 0 0 -1
2043 2 2.4 11.925550046691681 9.461963964773933 33.02444401314523 0 1 0
936 1 -1.2 11.89945688746519 8.989646828895978 31.37528049716016 1 0 0
390 1 -1.2 15.561139636099307 9.24807131845577 31.130030482335656 0 2 -1
501 1 -1.2 19.753176884494497 8.847222022704036 28.26966757609195 0 0 0
1395 2 2.4 18.98291228459905 8.915771905715003 29.612476764471502 0 0 0
862 1 -1.2 19.488815416230004 10.437029719032461 30.058282664700634 0 1 0
430 1 -1.2 23.2131257776369 9.690068330593013 31.38280835519418 0 0 -1
1588 2 2.4 23.082965061261724 11.523536705643275 32.37072012197002 -1 0 0
2024 1 -1.2 25.422860851157097 8.499109972896681 29.13351845028178 -1 1 0
964 2 2.4 25.672744500779437 10.055110692891983 29.480700071830746 0 0 0
1435 1 -1.2 2.2498356807784905 11.507376948517797 30.07133876814369 1 0 0
1011 2 2.4 3.3196892560116837 10.664860711846238 31.291081819275636 0 0 0
1160 1 -1.2 2.1374045396713135 14.953108024638532 30.665568905291433 0 0 0
1177 2 2.4 10.479067917524564 9.439538047307401 30.659596766194074 0 1 0
1138 1 -1.2 9.808640528355719 10.693179612361465 31.562271854120212 0 0 -1
475 1 -1.2 16.014125209811993 11.685870875778212 29.811806064300644 0 0 -1
2011 1 -1.2 16.014993861419843 12.691133495077178 31.926602431844525 0 0 0
1909 2 2.4 16.875257436450337 12.772553671560715 30.756333707307597 0 0 0
742 1 -1.2 18.643183771962253 12.626228612790227 30.907687412399255 0 0 -1
748 2 2.4 19.65896193428613 11.997072434495264 29.680244934674775 0 0 -1
1559 1 -1.2 20.926467812511156 13.278886607291497 30.23865926882197 -1 0 0
1831 1 -1.2 23.38626945812062 11.946478329167762 30.877026385789488 0 0 0
968 1 -1.2 23.036370060718546 13.482838697573525 29.105099675054383 0 0 0
373 2 2.4 22.396074485002984 13.446212083571398 30.58072196707042 -1 0 -1
1232 1 -1.2 25.704523861732262 10.366035543426264 31.026742147900883 0 1 0
1117 2 2.4 3.1131084073668047 14.843033049810195 29.233221000571707 0 0 0
809 1 -1.2 3.526901304190318 16.785357489331375 29.009916557100926 0 0 0
181 2 2.4 7.136058000530587 16.20857715335872 29.768207168152454 1 0 -1
204 1 -1.2 6.822143469095559 16.106602073364623 31.425003348356398 0 0 -1
1812 1 -1.2 9.18935050588245 16.492805520074267 29.9839298356213 0 -1 0
369 1 -1.2 16.632896552398606 14.395359899323589 29.51900274606755 -1 0 -1
1116 1 -1.2 16.973425243082183 17.770798766173485 33.40886389115072 1 0 0
1075 1 -1.2 22.575684072984412 15.010384732019407 31.252932923360916 0 -1 -1
377 1 -1.2 25.758138280012016 12.96519575052604 29.233387999850926 0 1 -1
1454 2 2.4 26.76603104353808 14.183911757075002 28.60755369565265 -1 0 0
406 1 -1.2 27.383647018009643 15.05608141403081 29.834049616858202 0 0 0
258 1 -1.2 29.644863411412235 15.986548737664215 31.019843816477515 0 0 -1
1946 2 2.4 30.161464898616913 17.372003193797845 30.67170962489404 0 0 0
1496 1 -1.2 1.3527352368408954 17.4697834780927 30.858833858074505 1 -1 0
97 2 2.4 2.8061772791818047 16.8121247281215 30.72990032288175 1 0 -1
1595 1 -1.2 4.440549977199089 17.12739142776376 31.597686731528018 0 0 0
1741 2 2.4 4.703582073702988 18.067913285582733 30.268415491167282 0 -1 0
1280 1 -1.2 6.238681119900754 17.474791663577044 29.500904719804947 1 0 -1
872 1 -1.2 10.354325851494895 18.50603584861288 28.0522078952974 0 0 0
456 1 -1.2 15.43193014098027 18.870459955898358 28.52315391920367 0 -1 -1
2042 2 2.4 16.710494048226938 17.852259631962557 28.992110341095987 0 0 0
165 1 -1.2 17.601967756982415 18.680248592785492 30.08471043515409 0 0 -1
25 2 2.4 18.841166881429494 17.611498066394365 31.032190722594333 0 0 -1
1419 2 2.4 21.078511460614465 17.72816724934447 29.024122964830113 0 0 -1
1891 1 -1.2 19.66015489298634 17.06114345267561 29.840155254826872 0 0 0
716 1 -1.2 27.157134758730365 19.861942732343095 30.048356309807414 0 1 -1
861 1 -1.2 27.395468406843495 17.06904478134073 31.020510531565705 0 0 -1
1679 1 -1.2 30.175109611526434 18.18706310228082 28.973418548869184 -1 1 0
685 2 2.4 27.908000604322208 18.712902228630618 31.06785068730694 0 0 -1
755 1 -1.2 4.046726855075567 20.757830934083362 32.28146122649327 0 0 -1
172 2 2.4 6.473417835558317 20.153035727993565 29.601220605381666 1 0 -1
1367 1 -1.2 6.115005061047271 19.042837363839514 30.89186613908663 1 -1 0
269 1 -1.2 21.563570005614196 19.286047598068162 29.074311179899805 0 0 -1
1786 1 -1.2 21.342841623424135 22.56179193461173 28.13528197541306 0 -1 0
1359 2 2.4 20.808791053635534 20.915972559092395 29.172403998855177 0 -1 0
570 1 -1.2 21.02608548975065 21.599230092979134 30.663022993325402 1 -1 -1
2004 1 -1.2 29.099601728213422 20.864095831517297 28.878475343724755 0 0 1
1439 1 -1.2 27.56109674333041 18.81295357000348 32.759023590076055 -1 -1 0
356 1 -1.2 1.5415744451764237 20.646961595930858 29.541382830350884 1 0 0
974 2 2.4 4.316506359810174 20.80381529855154 30.770931049615154 0 0 0
1661 1 -1.2 3.407702019807444 22.10517872233084 30.066493236423895 1 0 -1
17 1 -1.2 5.92519465868151 21.365163295740892 30.386522231064674 0 -1 0
1510 1 -1.2 10.6234426049508 21.824433366132364 29.95695140433269 1 0 0
547 1 -1.2 8.989170842972621 24.3550976601999 30.754303902436078 0 -1 0
2078 2 2.4 10.278011425396965 23.348377050285187 30.501249874340022 1 0 0
358 1 -1.2 11.370903683681622 24.41936824849551 30.64106300913071 1 0 -1
422 2 2.4 12.971165048832429 23.756286946855873 30.95879536328898 1 0 -1
563 1 -1.2 16.95174974982964 21.044705787302846 27.84677782420904 1 0 -1
994 1 -1.2 13.571198498358974 22.70946364641476 32.0182765307117 0 0 0
1827 2 2.4 17.963532193054583 22.00807009623578 28.798990098393283 0 0 0
813 1 -1.2 17.416495017769186 21.683247849431503 30.328384551609098 0 0 0
43 1 -1.2 22.956625115163046 24.57748394516634 29.489607095045248 0 0 -1
221 1 -1.2 24.483226737617066 23.88759025576479 31.726883803894307 -1 0 -1
854 2 2.4 0.04519294480886207 21.63896494317785 29.77487422241923 1 0 0
1447 1 -1.2 29.858138885565857 22.92730185473523 30.86991768363233 0 0 0
1950 1 -1.2 0.5798326906085264 26.760178592979667 30.978271052302954 0 0 0
397 2 2.4 1.516098527311147 26.576472416271223 29.41815725608393 1 0 -1
1862 2 2.4 30.209089182977053 27.23758952526803 32.48642013746337 0 -1 0
766 1 -1.2 3.1701532740084044 27.319703169649348 29.90103329148568 0 0 0
1402 1 -1.2 4.379550930321732 24.91362392052936 31.156202127969667 1 0 0
351 2 2.4 3.6915513911951665 25.817453260130815 29.927615689217323 1 1 -1
1744 2 2.4 8.265978158352112 27.474122879958777 29.94394267994469 0 -1 0
689 1 -1.2 9.323442038047029 26.993923882691234 31.10498886075028 1 0 -1
2107 1 -1.2 13.534022728112578 23.768721280657033 29.409037429074544 0 0 0
287 1 -1.2 14.961776627192528 25.903668539066043 27.49904099675734 0 0 -1
442 1 -1.2 21.148785281744264 26.771437744975017 30.041345569586728 -1 -1 -1
412 2 2.4 21.9920816429742 27.544913401828115 31.061539305357712 0 0 -1
1574 2 2.4 24.869041831098237 27.206577072727224 32.20141255992078 0 0 0
900 1 -1.2 23.546360880226835 26.61954236445871 31.38448506787191 0 -1 -1
26 2 2.4 26.625532758762013 26.529662802689234 29.850651551948683 0 0 -1
36 1 -1.2 25.978231388986593 27.845929212445217 31.134034843627564 -1 -1 -1
705 1 -1.2 28.251532043595205 26.58246505214846 29.780298990960322 0 0 0
1871 1 -1.2 4.9566647979586955 29.935389838222175 30.23376374899207 1 -1 1
1631 1 -1.2 7.016548894235589 28.85062145792262 30.170501417732545 0 0 0
1204 2 2.4 5.441320816918006 28.733522137332216 31.18221507218433 1 0 0
1086 1 -1.2 7.35251045284435 28.606304066193367 32.94622341359008 0 0 -1
85 2 2.4 13.120430629126293 28.674531680075876 30.741306695611655 0 0 -1
2071 1 -1.2 11.699731569705698 29.301260131674038 31.368952124529883 0 0 0
2099 1 -1.2 15.968108771925936 28.450069436506013 28.399673887020267 -1 0 0
526 1 -1.2 13.518722552498689 27.51119558112061 29.570125787515938 0 -1 -1
446 2 2.4 14.96675409802632 27.01703268926453 28.714682295112926 0 -1 0
1937 1 -1.2 14.49942347696309 28.971834990037376 31.42538943830643 0 -1 0
582 1 -1.2 15.46458177170067 26.585653998965793 30.348022485697655 -1 -1 0
92 1 -1.2 22.306714508090003 29.07278192367978 30.636259872446168 -1 -1 -1
110 2 2.4 23.674511499264167 29.730644721448883 31.7546647100001 0 -1 -1
923 1 -1.2 24.339582104557927 28.49405582291847 33.0711545043788 0 0 -1
683 1 -1.2 27.599828256192634 29.69630862434575 30.78899901171013 0 -1 -1
783 2 2.4 27.423696536863503 28.72872531166503 32.01635822625204 0 0 -1
427 1 -1.2 28.895804649795647 28.300939558541568 32.015647795126775 0 0 -1
2018 2 2.4 4.0071090323355305 0.7765503531176507 -0.11670114863115726 0 0 1
1605 1 -1.2 3.9002541388181924 2.3237014156518034 34.56565996265766 0 1 0
796 2 2.4 3.6476954795602508 2.686241772622632 32.916883609396535 0 1 -1
1387 1 -1.2 7.865095919271561 29.24787757110034 -0.09425300026147676 0 -1 1
977 1 -1.2 17.442414812394823 3.184135428988422 34.86304623319074 0 0 0
426 1 -1.2 22.762696807014706 0.08824394012723728 32.81009148998842 0 1 -1
1543 1 -1.2 22.200405757529527 2.359613892746778 33.05647776070745 0 0 0
1972 2 2.4 23.363712613454005 1.407739578148176 33.545884539793974 0 1 0
380 1 -1.2 25.05584953425804 1.226535792054163 33.07378776589221 -1 1 -1
1713 1 -1.2 1.1215221199184913 2.208090159065152 32.89475628852032 1 1 -1
744 1 -1.2 2.538109000461155 3.995697043706945 33.356323925188875 0 0 -1
1469 1 -1.2 6.129328524720837 5.963343269495224 32.41241967203614 1 1 0
996 1 -1.2 12.995419884309664 5.614796129079882 0.4192866503640116 0 0 0
1552 2 2.4 13.682341807486416 5.481658708209782 34.05600002031119 0 1 0
513 1 -1.2 15.290880505100919 4.833036587756066 33.835299826277534 0 1 -1
831 2 2.4 16.737992597105492 4.590764600090462 34.73807551840248 0 1 -1
1889 1 -1.2 17.67771462504358 5.5055612196544494 33.93459513739968 0 1 0
1330 1 -1.2 16.12938373813731 5.315690640582721 0.9742209115138407 0 0 0
1288 2 2.4 18.984755475591154 5.2251322042320005 32.80776247954204 0 1 0
1235 1 -1.2 21.648347877123857 4.03773983812478 34.8852376390912 -1 1 0
987 2 2.4 21.298124537886835 3.5479696457127003 33.362540077166045 0 0 0
739 1 -1.2 21.572107105142287 4.504293775994629 31.954149006642435 0 1 -1
58 1 -1.2 27.540480288495633 4.696351284997682 34.70188744202153 0 0 0
528 1 -1.2 28.78480837795322 3.01498037761508 1.2325017342802362 -1 0 0
680 1 -1.2 0.7453101775768382 5.791436441710528 32.63609495402419 0 0 0
1200 1 -1.2 2.033735962397316 5.831944497108484 35.05191481059748 0 0 -1
819 2 2.4 2.0522724717279295 5.475498104932801 33.46834357732419 0 0 0
931 1 -1.2 3.467188830218479 8.085711255595028 0.6124052329085766 1 0 1
1281 1 -1.2 4.9758233033945345 5.9812353015748885 35.0292610173024 1 0 0
333 1 -1.2 13.511763633431372 9.253487952583617 33.191855472264805 0 1 -1
206 2 2.4 14.398640626704543 7.965421788260081 33.55607628033101 1 0 -1
2074 1 -1.2 14.636922002179672 7.731165479020284 -0.1196462737077931 0 1 1
44 1 -1.2 19.380727308432956 9.363412977354733 33.02321802321881 -1 0 -1
1992 1 -1.2 19.823926272201142 6.597826356785214 32.780125048177 1 0 0
100 2 2.4 19.66713363103933 8.001491278921671 32.494435554125985 -1 0 -1
1260 1 -1.2 22.318728720437047 8.215728483608368 33.205652087021384 0 0 -1
1057 2 2.4 28.19019738780739 6.296312178856322 33.93375552800714 -1 1 0
140 1 -1.2 26.710967435682893 6.873983888426724 34.46166196333506 0 0 -1
1879 1 -1.2 29.375409231817446 6.947336882153154 35.019617868915965 -1 0 0
1872 1 -1.2 2.2888870766412044 9.965328891107811 32.41097081383358 0 0 0
495 2 2.4 0.8538877702255135 9.21364566876042 33.03308297125157 1 0 -1
1512 1 -1.2 1.2254900445094077 8.267817921017684 34.22783902706563 1 0 -1
1438 1 -1.2 6.2724959209544116 8.704507389477662 1.1587918423413386 1 0 1
1671 2 2.4 5.01202852546104 7.845075363883823 0.40845472157932605 0 0 1
2139 2 2.4 9.513620396671248 8.630883374338977 34.47527362609778 0 1 0
336 1 -1.2 8.481988464016366 9.256117272781156 33.43486745349551 1 0 0
114 1 -1.2 10.816139970902615 8.271942514885396 33.59468644204872 0 -1 0
98 2 2.4 23.063932687304426 7.956576628378982 34.5970058118329 0 0 -1
120 1 -1.2 24.599969568510296 8.247804986189461 34.79091854708277 0 -1 -1
383 1 -1.2 21.372029438110243 10.82769740722022 32.095759440889694 -1 1 -2
1660 2 2.4 26.150520124818183 8.215199852271171 34.466142208209064 -1 0 0
681 1 -1.2 26.77268265800846 9.277515373905263 33.24683038691312 0 0 0
1062 1 -1.2 0.10564073489491513 10.689530651322226 33.24342594621032 1 0 0
1551 2 2.4 30.220273702568896 12.201340028107824 33.921634406863795 -1 0 0
1091 1 -1.2 4.655346541432765 11.607844224734821 32.44677907172778 -1 1 0
1936 2 2.4 5.131201848829702 13.027604791009326 32.89898486109345 1 0 0
839 1 -1.2 5.537437172161612 12.432175253009811 34.52125050580627 0 1 0
622 1 -1.2 8.81950443680959 12.140711193818726 33.194651048855704 0 0 -1
1573 2 2.4 9.143557803165026 13.600505563908557 34.07199301752317 1 0 0
1843 1 -1.2 11.213188638944482 10.655998879664171 33.891532620741174 0 1 0
1050 1 -1.2 13.249360323708963 13.336797286355043 34.49964934508 0 0 -1
1901 1 -1.2 15.923938326473882 13.190268744261493 34.59115523701061 0 0 0
842 2 2.4 16.553330615652204 13.804155683611317 33.09690436670007 0 0 -1
1081 2 2.4 20.264333611837035 10.699940736240219 33.3268895168692 -1 -1 0
881 1 -1.2 18.96441976311419 11.665209328472889 33.980058844077895 0 0 -1
1643 1 -1.2 22.91746380938551 13.16224098011744 32.675416258951735 0 0 0
463 1 -1.2 24.337017004421 11.081554777900624 33.17485726245767 -1 0 0
1297 2 2.4 25.986776844436584 10.585086896465391 32.75965342794525 -1 -1 0
18 1 -1.2 26.501921252348513 12.089757725133122 32.744162467426456 0 0 0
2143 1 -1.2 28.845542249393972 13.04506425626339 34.44762551082081 0 1 0
1154 2 2.4 27.039576002702194 13.442710692474357 33.67624905868704 -1 0 -1
624 1 -1.2 1.226148716685058 13.121624286345247 33.162632486077385 1 0 -1
1264 2 2.4 2.2921287044566014 14.396585844792346 32.87237561240073 0 1 0
215 1 -1.2 2.3720501638394516 15.87438765714224 33.35558528353944 0 0 -1
1018 1 -1.2 3.924798662939599 14.023768788030326 33.10267538942395 1 0 0
12 1 -1.2 6.474150119335295 13.70698285038293 32.26535678995213 0 0 -1
2031 2 2.4 7.24518852323315 15.186479037431871 32.631862035470924 0 0 0
787 1 -1.2 10.681192835658699 13.699666749166939 34.02201880190448 1 0 -1
799 1 -1.2 8.639418868773866 14.740915084504099 32.815774375846075 -1 1 -1
2038 1 -1.2 12.282140948583764 15.660621696766531 0.253523559015087 0 0 1
393 1 -1.2 15.999029704968244 15.47895855948647 33.036440603799676 0 1 -1
874 1 -1.2 17.080616700265118 16.392976371398536 0.3117058921717211 0 -1 1
540 1 -1.2 18.33089935997224 14.352113075048848 33.51898067645967 0 0 -1
1945 2 2.4 16.398930985670777 16.531102895185807 33.999656763095345 0 0 0
772 2 2.4 19.29939706482345 13.281125041633025 34.43448917219789 0 1 0
199 1 -1.2 20.843218914637248 13.980199113580793 33.83603951268248 0 0 -1
1586 2 2.4 21.996929550172908 14.721710183155105 32.872564130736556 0 0 0
749 1 -1.2 22.371655343204534 15.827116550112288 33.983192598602585 0 0 -1
1021 2 2.4 28.11159667083921 15.673886039441145 31.160081130681373 -1 0 0
420 1 -1.2 27.48666616104874 14.679683315981729 32.5012195156163 0 1 -1
1484 1 -1.2 0.6599495536843477 17.10126577559783 34.40864669218536 1 0 0
1902 1 -1.2 2.797704939271654 18.5977455965631 32.87716134794377 0 0 -1
37 2 2.4 2.21150489644581 17.33782347750539 34.02928466142351 0 -1 -1
701 1 -1.2 2.8452971548559627 17.35718096029584 0.2501806510290614 0 0 0
1754 2 2.4 5.7693989043128235 17.674356414216057 34.95678969254905 0 0 0
137 1 -1.2 7.141362407106022 16.312375207009858 34.09885256023136 1 0 0
514 1 -1.2 5.088467046304429 18.794128276616345 34.151593315161804 1 0 0
530 2 2.4 13.639163805036791 16.554830447863594 0.4291363315459851 0 0 0
1436 1 -1.2 14.606347512899305 17.46182833860726 34.73724486693899 0 0 0
1797 1 -1.2 19.50487014358115 17.791858882875548 32.42749325684258 0 -1 0
832 2 2.4 18.617877315138465 19.110448161701854 33.09306451282791 0 0 0
1085 1 -1.2 29.328792228855953 19.689878652249025 34.72318877388035 -1 0 0
48 1 -1.2 29.618194757643753 18.92488890498273 31.47166933371792 0 -1 -1
239 1 -1.2 3.4515147801459705 20.471856549749145 34.82078914161637 0 0 -1
230 2 2.4 4.865617758697205 20.38224340075621 33.69451400240687 0 0 -1
1016 1 -1.2 6.52522798501443 20.662437204318273 33.163763987924035 0 -1 0
396 1 -1.2 11.452089352087166 18.030739331098623 33.353112478903995 0 0 -1
1698 1 -1.2 12.38114975617881 21.045945464012515 34.05846081897334 0 0 -1
2090 2 2.4 13.823759558724657 21.84144293613008 33.5732062648399 0 0 0
1424 1 -1.2 14.598465173449044 20.428693710688727 33.70942418497997 0 -1 0
1237 2 2.4 16.348086724869617 20.539342035069218 33.77404734708887 0 -1 -1
345 1 -1.2 16.93976202447919 19.605824317178477 32.463835772820936 0 0 -1
1652 1 -1.2 19.50355177650983 20.499057472708596 32.67970144501629 1 1 0
411 2 2.4 20.394880037221956 21.646043895627187 32.179903233393524 0 0 -1
1583 1 -1.2 26.672573260276774 21.24064554595829 34.04530333396383 0 0 0
1993 2 2.4 28.31958518568697 20.495323980185326 33.79173999605097 0 0 0
1817 1 -1.2 29.104631082865414 21.43953797042717 32.98509665027705 -1 0 0
338 2 2.4 2.5778664218455503 23.03539342214257 1.4126715867919872 1 0 0
1449 1 -1.2 1.1372164166627585 21.514084665471444 33.23429564485315 0 0 0
2136 1 -1.2 3.315968913794168 24.139411824667263 0.6658103216636126 0 1 0
2112 1 -1.2 5.461908069188399 23.142549740584474 32.59834707497474 -1 0 0
1020 1 -1.2 7.008741982139377 25.08265774386347 32.63018473576037 1 -1 0
1885 2 2.4 6.608708089462363 22.349516042886048 33.577347846093836 0 0 0
1306 1 -1.2 8.195513299953783 22.895066003215117 33.339454688595744 1 0 0
1890 1 -1.2 10.808291213552168 22.750427384408393 32.058944956003565 0 0 0
2149 2 2.4 8.586133707734366 24.34916378672934 32.513638737633855 0 0 0
2030 2 2.4 10.30239856597986 23.937773642194905 34.621991065230276 0 0 -1
1382 2 2.4 10.633916747513483 21.582387909008244 33.10818688027181 0 0 0
682 1 -1.2 10.812555204997082 22.31392163408144 34.66549624909858 0 0 0
1151 1 -1.2 14.348499294069274 22.873387695198613 34.795394827066275 0 0 -1
1674 1 -1.2 16.656241676536183 21.961425716866817 32.84848219565249 -1 0 0
1549 2 2.4 17.582771807963248 22.69421890105741 31.75313664569498 0 -1 0
1122 1 -1.2 19.45738573814721 22.88652469395208 32.049833875917706 0 0 0
1845 1 -1.2 21.57097242571626 21.305314969124428 33.2654528553255 0 0 0
504 1 -1.2 24.178079338925222 23.951609824699823 34.021940792646326 0 -1 -1
366 1 -1.2 26.92136361761904 24.479613366060637 33.304379751947195 -1 0 -1
1585 2 2.4 25.26674851402654 24.329304775572208 32.950927980360326 -1 0 0
212 1 -1.2 29.534221119080172 24.013304294125284 33.69303556842952 1 0 -1
220 2 2.4 30.178472792489742 22.435154944314956 32.92722754524229 -1 0 -1
652 2 2.4 28.350548731734303 25.16300324704425 33.65541930818379 0 -1 -1
391 1 -1.2 2.061172752967276 26.046747586298267 34.80111994194983 0 0 -1
1500 1 -1.2 0.40061605751418666 28.07016893811088 33.60067089874688 1 -1 0
265 2 2.4 3.5615841862351587 25.726607147797864 0.036512401215784085 1 -1 0
1194 1 -1.2 4.555856496328329 25.514283341991497 33.93023224870908 1 0 -1
1621 2 2.4 5.359878591828885 24.807245341183656 32.612994742729555 0 0 0
125 1 -1.2 9.803435311809189 25.02457862852176 33.1493303502847 1 0 -1
1654 1 -1.2 13.241740401362213 24.901369726706555 32.17932582026482 0 0 -1
826 1 -1.2 12.290628153324189 27.139652222768444 32.940273205723685 1 1 -1
198 1 -1.2 14.01559817867448 25.638130564708934 34.68180911128174 0 0 -1
782 2 2.4 13.617916890000318 26.095303680598203 33.14372859790572 0 0 -1
919 1 -1.2 15.20175043855233 26.47202745461593 32.905042836939764 0 0 -1
1170 1 -1.2 17.05173777502631 24.339316480343424 31.047350561363338 1 0 -1
1275 2 2.4 16.793562329428852 25.439994842734613 32.24952490023326 0 0 0
2049 1 -1.2 17.928475152566467 26.796119867311106 31.63343583610172 -1 0 0
1991 1 -1.2 21.12886329458712 27.946935730960412 32.36926706532492 0 0 0
719 1 -1.2 24.96895411436756 25.839177763006848 33.22491796809682 0 -1 -1
1267 1 -1.2 28.98093497226857 26.437426549524048 32.782972005153276 0 0 0
1725 1 -1.2 28.797106514418278 30.041885283639143 0.6589728316394747 1 0 0
227 1 -1.2 1.471029319053336 28.499475843592098 0.6421800022300415 1 -1 0
1251 2 2.4 0.9658442281024587 27.226928462879957 34.99355338133153 0 0 0
1914 1 -1.2 5.204448879515746 30.011660530472497 34.60235878948404 0 0 0
633 1 -1.2 6.121937820203027 27.627837097630902 0.15194361363601563 1 -1 0
2077 2 2.4 6.433725427413944 28.949513610687234 34.450774649596255 1 0 0
35 1 -1.2 8.554308701504958 26.72478500916726 34.058382935547485 0 -1 -1
2029 2 2.4 10.835351315490202 27.781568400382515 32.12696866775871 0 0 0
104 1 -1.2 9.878442913690789 28.946440495728524 33.23295740952154 1 -1 -1
1801 2 2.4 8.511690510544327 28.312917714437102 33.90878607915188 0 -1 0
997 2 2.4 16.102160282705494 28.049062465542107 31.448001604870704 0 -1 -1
307 1 -1.2 16.373254961592444 28.340308011900404 32.934230404417534 0 0 -1
117 1 -1.2 27.745427106691565 29.72206107672365 33.56048711928843 0 -1 -1

Velocities

1782 8.784050950990336 -42.58428166842035 4.146172564985831
1837 -12.513353423289375 18.097837950519658 -12.322757910517959
1988 -2.2847450599041497 24.805641471898227 28.96764426592904
684 -17.447361096459655 -21.053582945773275 -13.887718193051084
1864 1.6855318949047855 0.08518027090041405 14.812554764938204
262 -6.1262663579775545 8.437263342156776 -7.579913835556497
1828 -7.172628385806281 -1.884682690991 10.842725704992958
1677 -5.402328202969193 -18.776569829407443 12.732728397708486
425 6.494249059833394 14.806466414352883 -13.89897862773094
10 -0.3404644723894815 -7.750416424686232 -23.4148888811861
661 -0.71203091965704 -14.058251466945109 2.2012032713750176
1140 8.47978475995187 -2.1224687827661213 14.887184557728776
2041 14.96938783729553 -18.740686003735224 4.5302830998409345
468 -15.779922472428138 9.801093253885663 20.944521745988578
678 -2.1239470889273857 6.411990654449171 -5.201224990370364
1043 8.946253465998286 -3.1530597157968394 1.3191715820903969
485 7.473622392947961 -9.645416078668458 -5.3654035492134655
134 17.006135875505795 14.209409737144023 24.91117059419495
129 27.131579549380486 12.630895789725729 17.485941976055834
1386 1.0943059413008562 9.246213720978373 -12.721598304606058
1453 -7.354584774492042 13.609943839840241 8.543240285355767
240 -4.085059202265417 14.368176763185767 -8.69572907792285
963 -22.107257518727337 8.326272189584563 2.680751153681827
768 17.637221541753785 -2.3595106334385636 -10.41781669264185
2093 -8.078465936054833 14.361166019454805 -3.1387393407342374
1561 -2.5662056143290513 5.1785623872097135 -26.11793318509704
1317 3.1549334951437786 6.855129018826492 1.1294397219566727
1657 8.067938082447998 4.706943436894352 14.843999938553534
1867 -11.364698188534337 -4.0536272646674245 7.366574856024366
471 4.364478699671077 -0.0826698480859687 -10.049893616317027
1134 -10.29897327966615 20.061038283746466 29.861738619883596
625 0.08401031704650841 -14.684640258091695 -7.2436220689482
857 -13.970223293858503 -12.31719662805155 0.5418455594299507
1620 -2.13695660557865 -0.3807205553880968 -0.5253821158870626
1900 17.085139759938716 -2.509805080880782 -1.9956298059474682
394 -4.289162531614 -5.76460351207495 3.8908303325086946
1304 18.427252855967186 11.322346039316056 -9.498904632357757
1711 9.603602826858562 2.518142961388012 -6.770842793529938
80 -9.68247283805965 -2.2043727957655603 -10.349537883180943
487 1.6147139623281945 -11.54606825371211 -5.284719046428477
553 -9.769859149597332 15.035015665361316 10.139977177451403
161 6.089386493705931 16.82814840316852 8.059896891028714
470 18.208968289967054 1.1018136163296657 -4.557108004102336
180 7.017683037328569 -0.7113766059197008 3.5166287428894285
145 -2.145494022774166 1.25813760053889 3.992234058413521
1984 27.310758989634387 -7.755989085237009 -0.7862892660672969
34 -3.6113586230430954 -10.843405867578905 3.663811442288808
1558 8.54498292012214 0.7913739127060342 -16.421920661470228
1475 1.6078124297546041 -20.220266096888505 -10.046829799820706
66 -0.25974982746491315 0.17414758975483005 -14.449771121235775
1384 7.346936756554777 -1.4570329415289702 7.064058306091174
2025 -5.078236664109834 10.238994084939433 -10.006900924978599
225 -9.505580598036522 -23.707781574104697 3.2334624589542957
615 0.7499864454669964 16.37238065658333 -2.920268583373242
515 -10.352982160713129 -3.5205693669771017 14.426833678103549
444 -1.360415920489008 10.263718986869321 -2.897512006111281
1234 7.975303298559211 -19.710817967306518 -10.856927515749915
1896 6.841689652799714 5.46907393114528 -4.628404348801821
2101 11.594530980255161 -16.162143536959665 3.663846882488151
574 -4.584829786156658 -4.096514557810359 0.8815390608234134
516 -15.29588248262635 7.497823018834346 -1.2440685663672648
280 -3.03083623523974 13.150709463838375 -10.420595759416745
163 7.303287564902741 -14.2872967360157 -1.1450265492231806
879 -4.103037700003498 -1.4569769277924312 -15.375370739167547
1015 -0.017655637657325366 5.766776712181004 -3.621457455616445
991 6.116183585900036 16.977524071252272 6.69161950883122
284 1.813232921989078 21.37760013619062 -15.97757278788368
1010 -2.017724376487982 8.069990144604462 -6.94410319983236
702 -10.198933646755847 -2.9602046044097468 14.48450792153431
1706 -10.554823363990925 7.0517431363163166 -24.537887321003844
1815 1.3297467231474782 -18.405617916825303 -18.4862414002489
1577 0.0186925535105315 0.17429642291098654 -5.2684208138834725
1129 11.128759795373815 4.509810411676967 -0.7607549108943369
598 10.084165337396902 -17.15405580289501 -15.304335326937354
286 6.584541655418119 5.483230942928376 1.9812746218288395
1023 15.249626355970133 -4.055242715347454 -4.113477168262104
243 0.7139298109809603 3.9065699049269793 4.288879606428001
1087 -23.298474194031265 1.7590849042169867 21.902900536590344
1924 6.315597427041354 -4.725002889562583 -2.8103420783050104
1702 -14.278892732192071 -13.705774459995334 12.5462751124597
666 -9.593869525588055 18.157205281658236 -15.300360355851765
1752 -5.027042424972794 17.98110144935344 4.749707632687714
421 7.475288232640432 6.520420575981947 1.492698247639922
1186 -11.629430848524716 2.0128557347976086 -5.400651938729752
1094 25.040502372331726 -2.7657706216494224 -19.633361495752023
254 -8.140343167941616 -10.8477169005423 -1.7297070322764565
152 -8.061591892827746 -1.7961849860031722 -8.52517115389513
2100 3.7347615845821838 8.498031184483724 -15.312573114045545
877 5.352705518621866 5.688548475249034 22.081555030392344
1055 3.9786892821176876 -10.170562276963272 26.124300381037187
1456 1.3172893731618527 7.75366268194664 1.5761343652787123
1578 4.371232610492092 -1.9405758409815037 7.141576764886732
2081 1.4875491263812888 -18.80891009281355 -2.2226605563211885
1380 -7.815627940864166 25.21171845933173 -14.787988640855374
1069 -6.641713318225571 -2.056204796641915 -4.073073450131094
1965 -9.324613140912982 15.172563329905467 -22.14182790344897
1197 8.034041034536797 -0.3452731819859087 10.016465775417949
1457 37.09302620661007 0.6526556147109834 0.19762238343045502
1405 7.402929458892439 5.282382399421903 -9.972220188743826
542 -22.004467435886706 -7.6395282983199735 33.96301240235017
731 -11.251201177765099 -2.2479331951116865 30.87752819443959
982 -25.91931670442909 -17.436131536083348 -12.683631359124709
2007 0.6716114875119911 -9.114054495106974 -16.08071767073625
1219 -31.612885636255445 -16.59971719401558 10.735874070114965
1444 -12.268114921899738 11.408927272073003 3.0995016078288358
1295 13.52427243130822 -15.276428437729505 -13.122743487630343
1006 6.420538164207025 1.531437002334415 4.93615242094909
1118 10.72181987804232 -2.363718750773945 0.24572690304731548
453 -19.480843531956864 -0.54526666615574 6.670841460060545
1391 6.725839044039672 12.774988666014206 -15.04152143223659
703 -9.52765064232142 18.46863531584194 -20.732709472200135
673 2.469474586798843 -3.1415260244952625 -14.609105804012628
1740 -25.155530653634003 -30.088181024553545 4.505597520394651
600 -18.81705624615465 7.57914730560386 -13.002994019411027
1607 -0.2582326371324183 -1.9228456013143458 -11.404872876534247
711 -9.572873270717581 -14.5565414651378 8.97560143493278
779 -1.2015748216960098 9.378748715095755 -7.280409583372463
1683 -1.1273255473967836 -14.750894283578372 -4.564662115514874
223 10.06383188332761 6.7589095581344285 -7.691581643358305
587 -21.277424009193506 0.804325381219661 0.7580043512550074
248 -7.534492015487575 12.394962260192843 21.32256360285387
1024 -6.540947102315758 1.3097986832310076 3.8183659894566966
1892 17.00302335175702 -2.956585807829537 -10.553436239259195
392 1.3704848285886875 11.02885975795803 -13.707589636858422
1427 6.05167357375422 11.471590065027504 1.3949665888641878
2104 -3.64369523835168 -7.950506044594994 7.824772490695997
1070 3.020217213942935 -0.5367152483057007 12.528149472831641
634 -4.444455036740501 -13.690224561127351 -21.210696775572572
372 3.7860375858674393 -10.816261861578836 34.04419109772646
1883 -18.611763247955288 23.894800880230925 -9.371879111677828
745 -10.165490945210282 -8.491991782487316 1.7821461579319453
1274 -0.05985979254494811 -6.038166064347153 -4.6270252087565655
346 19.735177823978837 21.614563248916838 7.227484129155202
1846 -1.31570816843056 -4.787410542659899 -5.4220894906587045
1760 10.44286178864784 -0.9815474411612194 -7.604034155079652
1394 -2.268223478786143 2.345956922378263 -12.049201104506228
1560 12.14557635531883 -3.3167243352269655 7.482402862207488
200 0.3961466719032093 -6.023482104861979 4.657074204618307
1189 0.8411193370341329 -3.9092927625306966 1.0890270787619152
2001 12.707072777129255 5.622352259886227 24.231846440439075
342 17.046395613575132 1.8154896628161408 10.396506442877968
353 8.334754370355306 15.640176326502651 14.241193702616966
1250 6.758777497138617 11.321114174637113 15.306379444457722
1860 18.267653867065178 -7.462253462404884 2.4140857690563955
1105 12.047476646069681 -4.959984063050025 4.55745858887685
667 26.79799007660859 -2.451397331981132 -8.558248980954605
1553 -2.7420244434656493 8.771976935657896 18.892194682626883
149 -4.311180368146115 -18.24681496499916 -11.73278611036156
1851 -19.445821689488216 13.670815113279772 -1.8887715342014118
326 9.373188470648666 -4.233578103393029 2.1143824159828246
2014 2.540428306091507 -7.0111356137861005 -37.87947699951897
1703 -18.762836861176567 15.582908147317392 -36.709539887935094
38 -7.698404542931234 -8.480804644210584 8.924832265604175
1145 -17.450456840361856 17.663022948998474 1.6835732496641718
1482 -13.552342943636212 5.352731458965748 3.325918073576957
83 7.687009514505 11.934927565135885 -3.4192471203427552
1228 -11.774088773517722 -5.95156942356868 -1.031721987776046
812 -4.3656393305483085 3.487543075272445 -6.603172792396501
2094 11.242170378350673 10.05066996163072 18.13286770260706
245 4.396397220458906 -0.47490684663618643 16.26737600649841
2151 -8.934185665268263 2.728128558962939 2.4186182443974977
1710 -21.91875308739681 -17.378192996303824 -9.301389534715723
1855 12.778183521935802 -19.172119483432873 -2.7226111529021546
1048 5.280916053864009 8.81346984866632 4.375755909960034
1361 -3.6542843607054882 -9.548765168617006 -13.293737351050883
1632 -2.113967125446555 0.5413406975470098 5.547566176740225
1667 3.337365814369027 -0.7859414986188022 -34.27097150330549
708 -8.76248687946775 -10.430495790675728 -8.483579563442234
1975 5.63502102559997 -0.4086374492702969 13.293838287151404
2142 -4.07478246891722 -7.36791245392801 -12.898437892658825
63 8.749892751234722 0.3349689412960854 16.83636856035588
1422 -3.561587301996828 20.53880573424061 -11.89200437474212
365 8.602664171170897 -18.289496727757744 12.764446626015497
1231 4.630301403669721 -0.3245662120108235 17.54512122840666
722 11.551493617567642 10.43759677914936 -9.303583546007392
1072 -7.165718320032355 -0.6537074527158905 -9.348078892969141
1884 -19.623931414482524 -5.972098600954127 -7.188978918286937
1592 -7.611919518474542 -4.4612621550088045 -2.671741478676376
1372 -11.27934696966792 -2.141849961413431 21.13590481549537
1898 7.809984899064627 0.007401643214297135 2.948342352747792
8 -3.487137306494774 6.184225727780416 9.170594404629847
1187 3.137289490679871 -16.240394208808794 -8.553554302215138
2085 4.995173508276493 25.452779961452592 13.71740740840455
50 0.009736217923975565 -1.7882192638552792 6.881362385470722
1870 -13.914454894565532 1.9119451212284604 -1.5966668491146883
2125 3.6741760913545627 -0.920691191287149 0.955692801291074
1488 -10.532126756727491 -23.79304928715121 -20.993006652879917
972 -2.7765658971651797 3.7448562545350255 2.6906540437460307
956 3.973098801058123 2.2581286430190906 -6.206758564759923
2127 6.205407024383179 3.0473187334901115 -17.365852166416325
741 -6.36880948369766 7.761873218021379 3.8202235091885006
410 -2.0508805400726926 8.884596211569313 -9.981265027927222
1668 0.15154528580274312 -8.63512568188761 0.02797408068286318
1524 9.648362796112176 -1.9408561366596746 -14.659895668927467
9 6.43072517767291 26.891474399761492 -6.857401537564373
89 7.381419575759802 -12.359707031790258 16.84994136953269
1681 6.7478103865837715 -19.590332646117933 -8.277501499373521
2009 3.968829360246788 -2.028433319624524 2.1709098127500033
898 -18.02100040370717 6.671252837540011 15.3951119084173
1647 -1.134587015011342 16.257362578760493 6.8538829174102345
1464 0.8163476883324291 -23.90758041109598 -2.2849184099342867
658 0.7586956404311292 -3.6138639198014566 -9.002218333058186
1921 15.613007039791139 1.882960156305479 9.979908636317967
2145 -6.255320097635842 14.629477655273998 7.726932446929351
660 -19.981557656834273 2.270421985441447 5.838483931007062
481 18.32212160656819 3.656035133162431 10.204276586812092
1534 2.4510938527374444 -3.026867391873744 4.85221393068421
229 0.5690151099680787 11.404655059709247 4.257637378392333
275 5.5999527715884145 0.09740443924599075 0.5837337792192251
1002 -0.2510731026870215 -1.891594319515656 4.23899224017751
1065 -5.339798728533941 -13.40816004169491 -3.3352371684360005
642 -8.022127902098957 -0.43296967125027913 -21.964820332153913
1040 -16.504963943104492 9.76738521234315 4.757332693160571
845 -12.086717694277272 23.972961029649785 -10.272540809646353
803 -18.949896541968144 -7.042834622794709 -4.078697094918677
60 -18.60736078351215 21.615127611352044 10.319845102641748
1248 -16.634861013816188 -9.19945768831164 7.025464612731074
1537 -21.78336601475715 0.4331404058650801 -6.3415839807378855
549 1.7304732577352346 12.730471641104051 10.463181685098093
1156 -5.5490895098145385 -11.141240422350014 -18.11126252065402
2109 -5.0667143245066075 -0.12898077650882103 7.430864068702958
1804 3.097458000653765 -15.79920186401073 26.84815674549868
1185 1.559089382103379 -2.005255036742647 7.521706129142754
2012 3.7756101626334257 -13.575173613212097 -12.647001595655878
2116 -15.74267714840282 3.443065075478572 0.711971014353745
1606 10.441188113085614 -6.625394787460765 -23.40439128605505
795 6.882419608158678 1.0170901265346783 -17.619085828020378
1243 11.806349365875342 -7.890381430846035 -10.078484153248052
2075 5.120563165076058 13.937215389179302 -20.52369218207053
364 0.7596514654601239 14.027360561258702 -4.694487453617756
1511 11.466212294441068 -19.036864074549985 15.773190538615001
1545 11.034710186516971 -8.71333815053347 6.000236541902434
292 -3.2657112197627005 12.441012513648529 -3.7020008291578823
948 -9.959625681430776 1.8027068924953982 -1.4048811439955085
1506 -9.618810168718467 2.895222367201219 -12.763158835410986
260 -3.1331918271496964 8.483703123035399 -13.914818135765701
1636 21.795257615926005 17.076033243909933 -2.674050821460698
2028 -10.690112010558114 -4.0778982375839865 -11.700718623350815
1270 -21.41593281934145 3.420123144806434 13.876364503679772
706 -19.86994904438328 -0.8470991235138431 -0.3139344042242207
552 18.175807681356083 -13.220527941971444 -12.076071782749995
791 8.587502792289154 -8.884920665909595 -22.053741240877926
632 -24.329737372965873 -5.093309621392213 22.783361253915775
1612 14.00975881267198 -0.779451695403982 8.276013753455358
2123 -0.5821282809074285 6.006946218821785 14.803889905054664
806 9.071073844152561 -14.284721362007284 6.843420571723135
561 -21.910299658722995 -9.865475178919986 -20.307198963321884
27 -8.29327502166342 -10.262296400780468 -9.375819254927963
1120 -4.6220808686541455 -0.7352021412842094 4.91287734483031
432 9.237603852237823 34.38530349634934 -1.715899846153497
989 -3.3548020524375657 3.8127771405269426 22.22543497551985
1948 -25.98465224249815 -3.037026092898876 -7.356358157232996
2111 -8.633627230804318 -1.5918732391933093 4.6806901714423885
384 -5.572124727709969 -14.733265877917368 -2.3145134884200043
493 10.517629849794982 0.1447032592308957 3.0789351492953005
867 14.123066940054755 -24.010994799574625 12.234147034511828
155 -9.811476409784397 8.786391647571481 -1.0766362930864055
1944 -3.842324837571523 12.836739149963236 -12.294211889017566
981 -5.731334478849483 11.067193354048577 -25.415876220419634
1990 -1.539550063190755 19.484711903133764 4.345014062847792
891 5.226718822659815 -8.88526868951848 -1.6957020799651894
1182 -16.0253045215738 -10.492775168383766 1.042641547798108
1220 0.9750367346614415 -18.233682935127618 8.962111143211631
1826 -0.3718383650714002 -13.63020307970732 2.5571840619950392
1169 19.40138661913714 -6.893379605018472 -9.139932079365883
2055 2.112275478058028 -9.861846056569128 1.5537006011406727
618 -0.6292714025976017 -2.5968074470257596 4.042842069636674
1590 13.547446821177306 24.617934907326827 -44.06461300554172
302 3.303058909299732 1.1280473751957258 3.5933183023598345
228 17.96299658393061 -8.537405319427164 39.519692596386854
752 -3.0644252895445754 6.941246051882804 4.994667310241576
1218 5.682861450184751 7.055083095717809 13.264743763170184
1165 -6.9003514314661 -5.576241092358282 20.639707948337527
96 18.01114088240468 -7.931457381281747 -26.563284774482465
1446 10.69589947324688 -13.351782872662264 -19.06718378551305
1201 7.957127917698107 -6.42543611053016 -5.874281414951431
1726 7.953074109665504 -2.530204036911265 -9.215354311105559
315 -9.640966545590125 6.077922829436311 14.289529297913598
800 -2.8270871026407587 -13.46266157592776 6.5806596097626375
512 6.230307095534323 -8.583515079674303 10.408440968910153
2105 -15.996908585943029 3.012821812535769 26.283717596386868
1928 7.928066745107309 6.980511480760201 -14.316226167224622
1696 16.712275204009877 -8.816784840738832 9.086214840792673
174 8.25352272037598 -24.23023497343343 -10.180508146891734
1700 0.03041661653817874 -7.778559141765028 -0.6662564189105036
1925 -9.019374585936998 3.0801426617995977 -4.8945056357952685
1755 -11.617095976253884 -14.688009021463772 12.01902977166173
1894 -18.676908015585507 -17.003935547267904 30.152651271492896
1329 8.643186492738055 -14.158717249066562 9.593617194829902
1429 -12.054595171195338 -9.17951084155798 -6.000430534675044
1452 -1.7592700491891393 1.285599970587928 2.0349135108673337
1408 -2.814303242855322 15.89991699690187 16.156823611398277
257 2.2269253393641466 0.36283723314029437 12.883390587683406
1878 7.7274574719802205 -5.694150479278238 0.8602847125567944
197 -10.774812015264239 -15.937378513360224 -9.787821783323068
208 4.296369371054927 -3.4649285879806406 -4.455270319221506
1518 1.0857435533036124 -6.479777331546707 -32.708484434572135
1853 -12.762249664358201 10.185803665090477 -7.43055406760963
76 -17.762897218364646 8.993389598542683 4.2806833999003695
187 15.806728826563434 2.0201733904167996 14.874140831910966
910 -24.026610883187466 1.192005796031026 -8.045537172194532
1897 4.08172980844576 9.54329281541988 -14.774736058753227
1272 10.218247035713413 -12.689101270011987 27.11333111144489
20 10.922290452993932 7.5825265648582265 27.20294709561395
1471 -0.4718359002549908 16.678599767368507 -27.75009391700142
899 -1.9270907750377824 -2.317599236880019 -2.8127549249167063
316 -8.231274314564935 -3.65391157857413 -0.5671273765453299
1420 -3.7598882958353403 4.216494342227816 -3.493848208608306
309 -17.934895815890272 -7.986421284952879 0.9822503084795813
1653 -14.632765512512973 -10.986524162990873 -12.626612482056599
939 -1.0666593427584814 2.9529627776434553 -8.555080668839981
1430 16.52503041566519 11.260905627666741 -13.319225337592153
886 -0.665125792275736 -7.1760759488773 9.160996733612405
1569 18.793182419310334 -4.972159171239212 -4.512801354617901
301 9.99035465902569 1.8652441987563628 -5.793266181705313
354 18.32272425445797 -1.134407966966733 33.68379346523812
903 18.050072076911405 -8.55894502500226 10.841156082193926
1158 19.025922384577374 -21.051271786065925 0.16560422324613744
299 2.8240064770014377 19.924149747432498 2.422473924398285
868 -8.062518416007093 0.7789583704615572 4.452370913648835
106 -12.131205922474642 10.816892631038147 -9.158625005026984
567 3.931673792851674 1.4886268123845359 14.31249532892328
1111 -13.585585278344151 -5.010325577404707 10.30895426811181
216 -1.5537706475819157 -18.103841521578513 8.005283286987087
1460 -2.5937235006520707 9.292379837201029 -7.645121653079593
594 13.77594554238162 1.6485694820429186 -3.8094456801550574
157 0.2350227053202191 7.160245207369446 6.860916706659977
1626 -5.635427637851396 -6.675184721577471 -15.687646100598695
343 8.378804707715773 14.518534126759262 -23.989093894576914
2140 6.5614165844844425 -8.938117229229873 -5.313822686304627
838 13.85630632662036 -16.328432905437896 -27.30343846282106
586 -10.258702567132444 23.180975488059794 6.592530820413746
2160 12.886745120974473 -6.988530694353777 17.025113122610797
1166 1.2840178253957386 19.012215239435353 -2.49096321201362
1787 -3.9390907820119505 6.507348663663364 18.191033677905143
1806 15.551852128226527 10.985897973336638 -19.190461296716137
1336 9.939424930749183 -4.1874184181192575 -12.424683732984024
1566 15.088454944740338 9.41807370326432 -46.00743245554749
1758 -11.729466375332795 -4.904747004426101 0.0703995712202951
2062 -23.294370077617323 -7.957036692293919 7.142104308659333
1598 -20.309224508256623 14.763606758785198 -14.497036733303268
1611 3.3525270027751417 0.9924648208786803 2.42651057268987
568 12.233374622047798 5.33103449910774 -24.211812042778135
1115 7.63372780446602 2.7968403262825037 0.28741275243076797
1354 10.204380275718707 -2.3142215394964882 -9.258556094210446
1803 1.1326175113591352 -1.5384845439249413 3.4822427907631823
77 5.904772956683614 16.685854592555895 7.812323137977292
1214 -8.191015642375216 -7.144823859209206 5.786474256426864
407 -6.121081475808926 14.918608406926268 -5.517806967805121
153 9.168867281574977 4.137145303059485 -11.482275749250801
1490 -15.737012955368886 5.959704788841787 -21.10736943134885
720 -9.368242803545662 -10.897189562534063 18.947462614613222
141 -8.502890851816762 5.506683182687121 26.752916287894454
1263 16.798740581644292 -1.1303213176273748 10.768742552189586
746 4.720636959007748 5.582492500133735 9.775911972998957
437 0.262682423989968 3.927899226483759 7.601890927572611
1920 8.765785768763063 1.6306624445263633 -23.24950280487275
417 1.6544756205784008 -4.37517446965799 -25.393674698171733
562 0.40754685292533277 8.475731070606603 -28.62145740396434
670 -2.0461262617755227 3.989117820232056 17.032657540442056
866 -1.7030966497506153 13.915592430639164 -11.794263590550067
1374 8.061683621071833 -21.56542445671879 12.54063001295134
2113 9.859919781344562 6.200029408881737 -32.87392652048298
1222 4.927640127578304 4.242374724213744 -10.81012497208762
295 6.668233967307167 16.611156997869553 -6.9606680658934135
16 -6.756487023281842 -8.574124884106954 7.756707244376684
327 1.362279144825844 13.392456308792395 6.776159493603736
1963 -6.209713263517751 -0.6208168157330234 9.013095596404453
644 -1.1860880086468906 -12.096962341194295 -2.104434937945763
2033 -28.436357579939557 1.3268654290381823 -7.91426870612884
1563 -9.168063260860363 1.0654190981611187 -13.214499879268546
45 0.5576717189517396 -4.679489684412358 -7.988105998869976
1996 -1.8257337079367886 -1.6318665319022518 11.269535611002244
1337 -19.590356890814924 -2.051332487101829 20.013976279023392
418 -5.363178428856537 -21.121586288665934 2.360138022347472
834 -13.778456068727525 2.7427584256808033 -14.237168875125727
869 -20.468393791170215 -2.4727390304474994 12.413988287784656
1133 -5.510798200499631 -2.286120664641627 -0.31749591775373076
533 24.433647536151174 4.668111331580673 3.794143337076701
1753 1.6381022937544156 -18.684275444448698 -7.172984678998146
1519 12.278585764715766 -2.28676637865006 2.1529144845788757
2087 14.26288259593905 -2.8404392137823873 -32.535447399340605
785 -7.83765769090514 2.22541593622404 5.636147898058121
195 -1.8334650718320313 3.280907869259937 -3.6331359797740954
52 6.50440195392861 17.248936483088254 15.937170776978263
1318 -7.095533713142387 6.625327608820118 -9.60910553240587
1383 -3.070882658262749 1.478687483464174 16.103467320072248
150 22.209755098212778 -5.976947772274026 -8.450629664168918
290 20.15152706199119 -18.559799177886713 -19.15516469476038
271 0.04399734702536569 16.105331992590067 4.2890555944556255
1269 9.263433713102966 0.24317980258851715 -12.205522665571738
2021 -24.119501521689685 -14.44487080728183 15.241867459446507
503 15.553407540670731 -2.2712873492990706 6.48596814631186
184 12.266851355632411 -8.979884554734209 5.814684467079084
423 19.08094015295369 -9.473767982148232 9.718440612286587
979 7.575161681129966 13.83699763603722 6.717341290531387
1981 -14.031877620311915 16.37281130305429 17.364415267586313
1373 -5.149784695135635 2.6707244330005104 -4.949567834535212
761 10.958136985363836 5.010981824402906 16.687868125779744
1757 -0.755157129799422 10.841941028436697 12.222615647545824
147 -13.035723739309892 -5.014922875565572 -16.856094184809354
1104 -8.703299135330878 2.7501896455668637 -4.854842427492175
912 -3.6047700556090234 -17.724159642114074 -7.123782553291226
136 3.2593220589600955 3.0243721440223745 13.442318983296047
255 -5.525433583186 19.36755764003392 -0.28637728113845606
1061 3.1786523658336354 17.666005627202647 11.522049939898535
630 -17.64236604340294 -16.661120988896656 -3.1540498097978134
1649 -15.036563379249893 -0.12759453744178997 -7.506658083900013
807 1.4947114932871668 12.709891524880462 -1.4266581788766184
1056 12.74792399739106 0.17378792832868237 -15.001458392752847
247 -18.715770967150398 10.294021298897716 -11.994198085834435
2063 7.152477112954904 6.950431042351619 -6.549075075030269
1555 0.20165950402313323 -7.275050813738359 -9.719862506751854
409 -4.523846787672389 9.965861492586928 18.57220687773741
1732 9.840443217742004 6.982000919537148 16.764004269011444
1794 14.411423043289423 2.276374711509089 0.05215264520190942
1343 -28.84765221737595 10.957127125221268 12.907215894501206
1730 2.131237472863737 9.22475115725213 13.064882932420876
1790 3.461992303395185 -21.689114402138934 -4.547611678542117
297 13.004452587758603 -18.28960184819177 27.677500544138994
1432 7.364640601915872 -9.742752528830078 -4.4962274586357305
1229 -14.774034366996322 -12.309140456826947 16.81105365180929
751 6.125188562543583 7.3376445370425545 6.504088180458192
950 7.250481405315219 17.41873857255688 5.110926355692543
341 -21.97258266319361 0.3308052070941947 12.743531101229
112 -1.1999785375104552 22.309509080664927 9.128835258896446
1978 -12.290570444132564 -1.706524757179572 10.72273502518414
596 5.079199633985931 6.015474569166162 25.39823659843205
1254 -8.036523964193478 -6.27979772917672 -4.000761604945771
1516 5.659295400863255 7.766490455298429 6.865172430529045
1825 12.494511282546709 14.466738236107238 -8.546096037394278
1183 8.952608093719379 -2.029955779796315 -33.44831131419462
1728 -12.939905432511052 5.577299971296642 -6.112417980437745
1686 27.39031441031414 -16.415306162090143 11.440652522024504
908 -6.953809164426929 -14.165509667079936 8.224776703693825
1009 -10.749799800243075 5.906240869852034 1.2499050698308367
1714 1.564608561699035 -9.129680697795662 6.940201689014875
887 -2.6996744296648374 26.35573131810362 5.646066834334646
1715 -26.32789913104548 -1.596502824564328 -4.946065428258849
750 -3.7039586941938496 -1.1493328881275113 -8.011707874660093
649 7.3887343430487515 -2.3902159475532145 2.126785545251283
1497 5.972886358119991 -21.560293270422694 -7.528704680961009
522 6.472087391808609 9.40859167924298 0.3809705590858909
73 -3.080552840746699 5.498993825396489 9.021735271430657
2046 5.126619271021695 -2.2932594013745975 25.068101120675657
1415 11.741169560974983 -10.62095346523065 17.198704352162906
1799 3.2675581253056087 -1.9512715923483033 -29.388666244006913
1095 -0.06862248875738049 -5.130864860788799 -0.029324874218068384
1244 -16.553832096785953 6.174302199608922 -3.032540846666599
21 30.950448024487056 0.27603683423477887 -13.816532926861724
1762 14.964634329567717 11.702821313164241 2.267804689012718
759 6.9346260247336735 18.729093413268792 3.408226378907413
1608 10.486193198697826 2.2945102883330457 -13.559664334858224
1171 -19.023206833771752 7.69887535711424 9.220694946686356
1333 -9.781851181600558 13.07428032160644 -0.037088912015103045
1388 9.523943148446577 18.486753906923827 4.083508680018389
789 0.9166901727645491 -6.858963371377734 10.250175052011802
794 15.127653804931903 -13.484519669913183 -3.7388294301785328
907 -21.13390644964882 0.3717769909627106 3.7761979857634045
517 -16.558688332316734 3.0008119587348983 21.184668614457305
1502 -6.306931780027357 -17.600595227460772 -30.5417169406085
1967 26.196272921529268 -21.851624298479415 6.109699833566084
238 1.752649703541108 -7.061518491125544 -9.80834967313492
1144 1.3411050542923304 3.61475926848179 17.294807223349334
1039 -7.1133501878466605 -15.139336481672496 -12.807555290382282
2147 -9.874580324187468 11.513483747369934 4.578540773794448
1033 -2.111505929842529 -3.6767276256578767 8.700648888810404
852 -25.903094442660624 4.197946728654612 -10.185189684895004
2070 -18.37103784426659 9.515432504026833 -7.882602691704825
927 11.635468637926556 -7.103843520500958 16.567889936443322
405 20.964294446447678 -9.914460992785529 6.414110120041673
952 18.316366229371816 22.67359545956664 -8.033485721599337
1339 -12.420264477147862 -6.4348670224017885 20.143134123427462
1724 -3.545008849365474 -17.645617787548538 6.973079920750689
226 21.55314447086682 6.13609627552463 17.119254229103248
1433 -9.54939076704196 2.5095690338907652 -11.286387105141507
818 -2.6595822383911107 -16.027551599795164 2.351997739961402
917 15.438626565687812 -17.632547344781173 -4.701572324410938
415 -15.086679796107129 -13.752493092015891 -0.5691950974970191
122 -2.9691849897640474 -1.4115312532229296 -4.7436987795458805
1092 17.710589154150544 -18.893553963141493 2.9982161650616055
737 9.387691284434085 -21.4919084216112 14.717826055547565
1257 20.366076590696498 -15.50119635016234 3.1894347615700775
2076 -9.194758786253292 -9.726059734808766 9.379135835641053
194 10.53501137468499 -4.775858310483539 8.224587242877213
72 -2.107924639199282 21.327476215642477 5.608937738388797
2102 5.295204436752068 -2.7998319242996694 -7.484260810287644
559 -0.139796691011126 -4.794506697454915 21.81995241654962
2131 1.112037901088124 -13.883764381451106 -8.51866275548016
1685 0.11710456422225944 3.7272953271623117 -0.5890650761228646
413 -24.503025927885616 -14.694596597852394 -17.32454316899977
1646 -13.167124507894135 12.887360581076813 2.7696120681796343
1224 9.514097493732741 8.536713136971398 30.894034167664188
677 -1.5218614482714024 -18.772665614749084 -5.486978469593298
1957 -11.502172257495056 -5.340106912850018 -6.255102625813899
967 -10.101635206658562 13.978397938648873 -3.666778377062239
1381 -0.8680545174834422 -7.566581608689907 -3.8538618517837024
1625 21.062465862938506 10.65962367056361 1.8834041623907434
638 -8.361069886883598 5.6124909746868505 8.938070956130845
1919 8.36775152319856 -5.69939675224284 -0.19621096603233756
219 -9.914538383374497 0.18179776286314245 5.705779716050054
1445 0.5913182681778847 15.650284855980964 8.630742037892613
1193 -15.054819020473364 -8.70961854051817 -9.998516492647123
1210 -7.272266945452466 5.491814253450927 0.6606502827555611
1203 -5.727788206391022 4.416650732576141 3.6569635759279966
880 -2.543327921257212 2.9586432445678033 3.4072635708893264
1233 -14.870126658656238 2.1293687155636603 -0.5408892731647379
1084 -20.41742248022358 -24.91406554958538 4.359215761161097
2047 -15.8771773889428 0.5199926837023232 9.814703173642581
476 -15.482331607646211 -13.085770769251164 5.1562997129415535
1305 19.39745903893331 -15.578495025080692 -4.088722793021149
449 -22.507868627547687 -5.129477421553723 28.514206129892194
188 -1.5597428920801784 -11.936067826783543 9.638942920846686
1526 -12.764038994439831 7.022941748736633 -7.7076993520122645
507 -9.098155767397103 3.9525923576909983 3.896797291297923
1162 -27.3033738075904 -7.665401876889266 -29.558883146356106
1567 -3.006994692159632 23.54769973184735 32.66955305657715
414 0.51573060085548 21.96741468485835 -3.8942112061203003
1407 3.226056778043647 -12.327312183497728 -17.332962572988798
2119 -16.627820463312737 0.1224395811123836 -1.7087391566122692
382 8.29217719780359 27.12253305599122 -15.391121844613563
947 -9.147437873702762 -14.264560783416039 -3.288424012489738
1256 -25.068965108281343 3.703819179638184 -11.9528290085527
1521 -6.709665640713777 14.187110087378223 24.289002787069677
2092 -13.9959495562187 1.5048605193254105 -1.4912651428549804
1570 4.586999833255921 10.620967696138996 -9.43026519341569
1912 14.851684188827203 9.540155331107973 -7.395352820223501
41 -7.349731789234167 -4.402434548913972 -22.359904208565702
2061 -8.525182915849975 -3.579876803611699 -1.0451173743431275
985 -5.028403645313697 13.520057984817056 -2.157335404448165
524 1.5125102652597064 -2.7409013499398287 21.672167347200375
1899 1.9667092013700918 -4.219281294074949 17.150227696212937
1292 -0.4522486392074545 13.232597353254743 4.957528042978015
2048 9.75452993791795 -7.792274232872706 9.678293159699283
4 -7.0063942842408 -6.214664591615633 22.893907780489556
144 -1.8131074415333843 -0.8207039128296506 -9.937335093090846
1863 6.878910251074554 4.642042907382991 -5.038218839254069
320 14.578027165807052 20.57694994225123 -11.51256547433942
1705 19.38490858596453 7.128858586874062 1.594466946590644
1089 14.879164119098363 3.801853381388863 -16.569878987001413
663 14.751319302305856 -4.138654884210616 6.067157668850146
1114 6.779377744344317 9.133976564832897 5.6030249504632685
205 -2.6619717538126446 -19.495517876435777 17.55778656774677
1751 -6.870974915238716 5.689915060217424 5.305580421910975
700 11.51756436488238 -0.6198949593262236 -5.251254350125115
173 -22.506024778811025 8.817130732778306 -46.33388184141903
1437 -2.2770699839618382 9.002219147191493 3.6379135053820493
399 9.922358852814423 -7.289376928450995 -13.543066253379482
1236 -10.547487858562079 -0.34689679906398696 9.101874501570755
1690 5.8083096587246015 -17.529680792560583 -16.118379730136468
121 8.263291049420301 11.088482088552196 3.9472784077626804
30 17.709145432868805 -0.0019728385635670287 11.963161977662198
1773 -9.157273384755733 2.971082661177319 6.839687605640273
817 -2.478596036285861 -13.859140642370825 -21.862156794986696
1100 -4.771339747580417 20.935554821878885 -3.2398453404794623
1940 -19.974563710896692 -3.8623182247225345 -12.689038566525463
143 6.017046724172425 3.457381578589189 21.168841356731765
930 -6.452493510635092 5.335307465816483 6.721353097604801
1262 2.5166773004116654 9.324634488801653 2.074391444275247
1363 -19.199437626726837 12.154309637427355 3.8019020061302586
2002 -0.6533156353320095 3.6633424251515283 1.4375564314651121
261 2.504873225780391 20.277806430062554 17.769978248807035
148 0.3363254780434459 23.494984672227446 3.049783544471802
691 -20.05358404674654 -12.356285832033665 8.635238154526444
1952 -12.194605085066513 9.287655399544372 -2.082420241488801
352 13.72842701360282 9.937134657853663 -0.8161975825401206
984 2.279582153636671 6.803967862511602 11.722697929701864
551 9.230450256348616 4.804822711199994 -7.7909336847511845
1368 -4.137171148918687 -7.014349116702824 -3.8456695618898804
592 7.133517488976538 -12.46675611648791 -10.359624655066357
1042 -4.715149418906926 -7.069630281757213 -6.755042627953981
892 -9.856848963586996 -9.052077505397476 3.4166671794119017
1807 -25.03346615776523 -10.513079892893437 -2.932072175227614
278 -11.40190021317037 -22.984942694814848 24.297452654042083
1241 -23.46722697027431 -6.108067378582775 -16.761150436053963
90 5.698554556156869 3.992094922118284 -6.4771974769017095
1575 -7.850019420901186 -2.448516009749822 4.810944061822798
1331 -2.734816637728788 -9.292649981633563 24.06972022590742
434 -5.157905150887014 -14.181918871421752 12.868437479308923
462 -7.767133213340453 -4.7177836604264165 -21.233325926705824
639 7.101694107329152 -10.688752348363089 -4.78924052853993
319 -6.211871548215299 3.872444793960075 -1.0417508372847164
56 31.690952801442585 24.377950641074513 6.920935264334698
1362 -20.449145409255177 5.559615527300463 23.452200276335983
1279 1.198676988574435 -37.993171844991394 -10.504577435571548
1051 8.747063190503658 14.340550945649056 5.622768136295247
945 8.038307287124292 -15.34156224121052 -24.28043213474884
1514 -6.431527213693653 -2.056229453433829 -15.868866564122184
954 -2.4634692215405463 -24.70380690100256 10.194944969099168
884 16.707008597307286 18.854426691423374 -3.268767855443646
1749 -3.6459742069103855 1.1054836759158446 -4.104510960115141
986 -4.050075968765671 -8.469521214258855 13.820017576096182
564 3.313856087677169 -2.038053198217562 17.984453762307975
949 -11.736743847195836 7.915756495754674 1.811447457766606
1076 -6.143985953281133 -10.414459860612496 -15.584997742671181
1861 6.188291896123723 -6.039780715646577 5.569963154773379
1844 3.949112777338946 -1.9699780113284946 -4.395596832931758
849 5.050642521285643 14.329973888411349 10.635416209080525
457 15.495171685317628 6.727491683267747 -6.406880842180431
1964 16.385855789687547 -23.031012281871032 19.281691934662682
1489 -7.829484905026993 -12.736365347906021 -13.083286812419546
865 -2.644812242414622 -3.693911987910119 15.71984554240088
729 -13.149585224924236 -2.3817062671844096 -12.9763854115367
1638 -2.238033207486703 -6.925217831610906 -12.473788575992636
1027 -28.7130997974125 -12.929623066662671 -22.967685975995693
466 -19.830279318187145 3.325566382095274 -2.212916043760891
138 16.728220288831576 -19.49371078553805 -5.883951378583293
231 -17.883871353650886 -8.259198353821303 -2.1220407544217026
815 5.184053081349418 -5.00697896177553 10.763915540619301
282 -13.822815163212598 -19.254399266964384 12.801084368624673
210 -6.471190187292485 -22.236947635047084 20.944636142213216
1523 -7.846701959874019 5.345046408099233 -11.157635533450874
2005 -10.184258204843866 -5.018934174414361 2.0523814572093766
2036 2.0518396455717904 -12.257744626779074 0.26099233661967985
588 -14.213335792934066 -6.932687990336637 1.6967728312592734
2158 9.14494636456838 -9.205181980879969 7.399643901678825
2091 -13.051982621534979 -3.5505425489430373 -4.949038093472539
1342 1.6806150100279023 -0.6093098813167208 13.654596767546694
1172 -7.1180827695997975 42.34860998213993 1.377345910751766
1107 -16.728862567176222 -11.414629433250688 13.333186525628376
876 0.8655981557068283 -19.943479654101633 7.393975492277485
123 9.317048565314916 0.7693368060748784 -3.929455458457872
308 -0.3308995529509362 0.7027736061291379 -3.8524777134869517
1877 -9.063862894445412 4.44565063109418 -2.5716496154189232
693 5.57744509653429 6.544450221802733 -20.977895119861433
348 14.343766542244873 2.029647072225321 9.181676661421172
577 14.281529877816364 0.5608446470724872 17.904618275727582
1997 14.201613061947628 6.857443765790596 -2.7669301964913053
450 4.906630593285725 19.349634467648478 -3.66137572726228
1346 -0.8860959035523597 -23.723486960983475 0.3013235862347484
321 12.478235304653097 -5.809754538747206 -1.4129559093849433
116 8.077615663834864 10.792734713461149 12.433053111776424
253 8.956971883568 12.849884535588215 16.9766873981656
1326 -12.409441675966427 1.463806889340307 10.233612399462945
895 -3.8907566334639254 -14.686454166028309 -22.106318282114263
1678 1.7970930839977224 3.312442450499332 10.884207572372029
1289 -9.287469636332936 -3.046209986701011 -26.836768687717974
2155 12.16172244731549 37.798424534856025 -2.9052447022902625
915 -6.617505275321255 -4.087103763705236 16.476614569880713
1589 -7.292119352281818 -25.715323911905912 -8.693988730902399
1852 20.264429513009606 9.824052246990398 -4.715270929736359
69 -12.499202119912553 -1.4394483058311158 -9.465904990549667
734 6.631362239260623 17.865162257419744 -4.5069606267486
725 10.306364486860298 2.5968396874186257 11.341597982843595
539 5.004415420204145 -9.397975847122876 -9.370272377419147
88 0.9618911283744125 1.4115970972003862 3.4294599571194624
1131 3.063219190905742 -3.554787388771068 15.124162526863243
1150 -5.432423393670823 -6.4255992452802735 -12.223497549318289
1327 36.961705779557846 -9.767124245436563 11.288815475095502
518 -0.14972275260169454 17.38412117982831 -10.094148998038937
605 -15.267314250964333 -8.537401283403636 -19.32024638649916
1360 0.2192602428802778 -14.330512891127974 2.1563517784193
1658 -1.8582095071062839 -5.260198417872339 8.179710218355224
654 -29.47301944730124 3.1864898740578407 1.7297170085244689
1756 -5.987172591370228 -8.16829583711434 3.5245198741405335
859 -9.886382075634218 4.413425999472113 -2.216449242428668
724 -17.3647576535473 7.712257281845763 0.3104366752958804
1223 -3.550768588226194 -19.720871284373104 -5.541948555250701
1761 2.577577242834573 3.604540327246724 -14.279146144505203
1074 10.602454030533417 23.861434424354794 11.698558743420378
419 -4.482677762853581 1.062331489065341 -13.438641809468749
1161 -12.09351323464178 -20.12635516671322 11.226080490495708
1684 -6.465720403269722 8.240677436611033 0.5410904940507166
651 -3.662070880751824 0.4177202185140043 21.83925041370773
91 -6.4609070329373575 16.36887043472549 7.052750148305841
267 -4.917703350201729 12.275251071278435 0.5581872946311487
403 4.172983634551773 -3.7128048362191644 15.178697299391715
1663 -9.866882923772911 10.715509671646993 -4.028763766618468
1478 -4.493485487882713 11.29291047012169 -17.260091257048504
1258 8.77456131232271 -7.710922257557327 -16.152208952528888
439 4.151430884578127 -8.529343259839232 2.849830232275895
1895 0.8309989096660455 -17.033124465208093 -1.2239783293405058
1240 0.1942108219933679 10.184723916282394 1.7885094674864248
22 -0.19120111917941243 0.08435934010785709 -13.760427123407117
1987 7.225221127119225 8.080140959987054 -5.58273448081362
233 2.4795194433087064 -4.044571771229497 9.451070879930006
1370 -31.093431337519753 -3.5626817292462203 -0.11991043621705803
502 4.965506953037165 14.9804842619708 12.520521458740832
1178 4.670750280562924 -8.901289743885151 -5.473787944719285
498 3.3427486039938294 0.40090743731096484 -7.170438836103667
608 -3.6955271910245755 4.423240844481224 -3.3468915432180917
1596 9.725918102496106 16.715312300261495 -4.736579276367327
2008 13.827757112185509 5.972224255683932 -8.928068225592385
2072 -16.04612511447575 18.1031636616445 13.435147980662
2141 -4.713830433160007 2.6385184935683954 29.87510242203202
186 -2.550437458880259 19.442759275781324 -5.027789763892357
773 -0.76299026882389 -30.002141751343906 19.248705772398086
1783 5.05573678187931 7.851496038769472 -14.036622271370584
2086 -19.362649980413288 24.505596272220927 -8.39150930283364
170 23.774934908040304 4.521240252517471 4.7786912431812105
381 2.414986494769147 2.1919134270671057 15.21941493742837
368 9.41587690945135 10.942786540452314 7.586924277406156
1221 17.72154218712088 1.7448324200014884 -7.099611464172544
448 8.34877364292888 6.1220713834835445 -14.794044421481797
2084 -3.8699384203299787 6.987768622938335 2.4287646259817173
1774 13.216738942071137 2.8638009980794212 -3.1488223295613063
1455 -4.327072922308674 0.38617367091151034 1.5646128587048422
201 -6.659913936951081 2.5521715766301827 -24.680415561605116
443 20.46448965466459 -12.826039826935695 18.49064702984833
1312 -2.9648959081898285 -1.845190786121727 9.233566953721052
1486 13.649435674631203 14.041116526911011 21.61463494564797
1332 -9.123074524025332 -11.666530973712128 -8.59882494918729
1345 2.775328541280564 -4.649487242554161 -8.49569087790002
1887 13.31156253277332 16.8621441577431 16.95873163959754
585 3.2831293876528824 -13.896455105410315 -19.51897759864839
635 -29.730470386454027 10.96812467651414 -9.847242018533866
139 18.73372533458833 8.217893559384098 -20.51518057545897
1530 -2.0025748532741225 -28.058249006078753 -0.906616872209488
1792 11.961871485798033 -6.35493145989319 -7.80022015864345
599 -29.35635066189396 -17.059222594492383 20.910197218033886
1823 -5.564252113187492 -11.002968078345647 5.370708939412075
1196 0.6288912503436208 -4.225793019480188 0.4473707304651471
190 -4.747915883575238 5.592810028339627 -8.951314415088042
1 -14.852588602151757 -18.616312696764826 -2.406245956884738
767 -0.3881086088790605 8.475278893120194 -8.101512808808424
1307 -8.5670731539981 -2.48284067256995 -9.088082031376356
3 1.3711206746685975 16.868402543408823 4.151144861061322
780 3.7541896436446915 7.239733555818295 -6.763710307145462
1414 15.79444058881518 1.613398435852688 -0.6331303157184014
334 -10.942578624232414 -22.80656079459685 -1.5091608443975484
135 -7.113432285643591 5.050614379999661 -3.7757361118139356
1727 -18.1433346595279 4.3792432713400755 8.1659243723042
395 31.62607494045516 -29.300616488224048 -15.343613936102543
606 -21.39081637303384 -24.590539174541675 7.809604915923331
1276 14.717211400938933 15.282896381108783 5.163713468976672
2114 -1.4319523292149985 -2.1064796718089167 -2.1549471590953715
1821 11.5763255227068 5.044551367641809 18.63623919013065
1780 -8.411111071154458 -15.483861063267522 3.5398199755021746
2117 14.476375905452775 -1.4818132726173443 -6.095571410540524
933 -5.686421697065212 13.916006192902195 3.945945370843963
1635 -9.306713748165365 -10.487904092003706 -0.4655985381493951
1717 13.529446681005444 -7.159822135475011 -26.395175509162215
1364 1.791145936598357 4.171150945261538 -10.987988391799195
2022 31.220722499916914 17.8219813130023 1.2074148401080538
1941 -2.325771167501743 1.8090461177495107 -8.810656023572758
1014 -11.231588422223224 2.3378483984031417 18.569704698134096
723 3.0239263139343087 6.219809959383749 13.225426787851037
946 -0.07018158301618993 -11.97948172210814 2.7790402053309684
2138 -6.365062455240064 -11.591706145381307 1.1664743068069425
355 -3.7099391334298466 12.843791309418403 15.322333849597252
1624 10.35169563494477 -2.6318702285435407 -4.905332724084268
1164 0.8987200714753417 26.623071448522058 -5.479148166811557
1841 -5.355297730934289 -18.166889397908932 -21.26071064859806
1462 -5.947687612328596 12.63440432552838 -1.8910375759902054
277 8.347873304570818 2.607380827588704 7.374266562756017
579 4.246163206023068 23.570652484582013 -14.552969628840932
763 6.828291078804382 16.69075158013243 -12.940838498812585
1226 2.5610758191888525 -1.7064120429795289 -0.25673651545121484
1933 0.7701260780844535 -6.724882173898262 5.871898224295741
550 7.2606938649770765 12.961089919500015 -16.454407017793194
728 4.960772546287692 -3.8409604003703843 -19.063529120332777
675 -13.296226205822915 7.034066517737 -4.387073981580655
828 6.486606778089396 -0.2609758146198887 9.864104129784042
1830 6.551469867534927 2.557610343131817 -2.6458936153431973
33 13.864499587633816 11.129935563410749 24.32470699896326
792 19.477149326163985 -22.29629912394689 -7.832272468686041
28 16.66949262794392 -10.086938754224127 -5.376721182874262
527 -2.746738363508956 -5.301309350067821 13.682965967343456
2144 -0.7898748579113983 -9.569749828838344 6.805363764289796
1451 9.20119208198063 -13.726554772914422 -8.707751790828777
305 10.50254620160732 0.15733951251285105 10.683331127784044
699 -0.3613743370146912 8.851688668448055 0.7249613343011546
911 4.443932664594066 10.694394306578896 5.962319045794309
2015 20.09520782867206 -14.75848618377381 -0.4300874911088865
1554 -18.0561801257427 -13.762888354900968 -15.775320613037637
1293 -6.214027396339405 16.33618970621336 7.281085336348829
1167 9.863734685907238 -12.825698485984613 -5.936000813546485
851 34.24219443798167 -4.3190144754563535 -0.4061079181640335
1261 3.7221834878316393 -13.973027800284077 31.098437396491438
1412 -3.741609235452675 1.28681080442556 10.187345247955308
1301 -9.778289130965 -3.148420421201861 11.671445889584271
1127 5.79475403123922 6.617639679580032 6.977198087020383
816 12.208680689803698 -8.391318389588038 3.5560294728242985
943 -4.964866419201309 -24.113471136327036 -13.380133679758703
159 4.244797962553731 -6.60479268215629 3.2957808433192115
1393 6.40040900796891 3.0020549462989887 -5.774726781997019
408 -4.504544860320692 14.165030141431673 -1.8234013831340603
376 2.5751981215961095 2.368138198313912 -5.990619808905262
1341 -14.389591188284207 -0.7462316301550697 -11.446033772282263
1699 10.8299213123126 -3.0636606623204377 4.109493228577324
2044 -6.231635240829263 -7.394030188644771 0.9606278980430965
67 -5.488308145402089 -9.298298584178765 -3.3892089993963657
1793 -16.030230335789796 -23.320582540978943 1.5395593219563117
942 11.587017231613979 -28.809629481219634 -12.588910642432428
62 2.1958635728302567 -4.372917154415258 -10.995962052209588
1781 -4.713530080320879 12.363928954592332 8.19220832693529
1053 -2.2188202139580917 -18.298758376911078 2.8340735717507206
1442 1.8739618915842067 8.083910963713947 4.54069769966629
263 -5.177019818740081 -24.61669090398617 13.572407129392676
222 -5.976270246304625 -4.538200466066153 -1.185833191479986
578 -6.678531917066053 -6.195180422139351 10.52144276751617
500 8.87494375667719 -0.880654069823904 -10.827508524097572
2079 5.569327021762377 8.383874945321095 5.272901137443287
479 -7.377372159551436 -0.09156382815043221 -13.299073079671302
259 -4.110302507011725 -5.794683914770585 14.959039387211707
154 -1.8103814206537263 -11.352824856298273 -4.193196570169134
218 -16.151850497040556 -2.8286381731496975 -13.44287522993212
1533 17.64753065050365 25.508135313432316 1.122775948536699
2121 16.192532346857654 13.960059795090205 -3.631358205864614
565 8.435153581567606 -4.580884312972854 0.1844573025324111
306 -5.385253051824602 12.21049394095398 4.594448942971419
340 -2.776120084212149 -6.104999222296103 -1.0813686459641814
1691 34.32210171825262 3.7090868612683052 -0.6918164443548563
1995 18.304715121096333 -3.224713832105535 4.491851972959626
687 -3.0902082693729582 14.402450147575344 2.508037678831168
1209 -2.340936330475979 -14.865549847750055 4.626984728836816
1481 0.9518018820424048 -9.598378821459772 -5.779457920994658
499 -1.721694159367336 -11.788438369601224 10.407118685453991
388 -4.358266607906466 11.109659997639957 2.3361474550677204
489 22.27261210818246 -9.952031850579985 -13.585040249189026
65 -7.115145531000472 10.940157154589805 9.382502453067183
1119 -13.087256292647139 2.607682012879602 0.5215317775908744
966 30.217967873862918 -28.6002704396746 7.208683296124984
1876 12.455145528187398 -16.02430099147887 -1.0589699302152578
690 -24.031620468372868 -1.3599334351546986 -3.5419608587324025
107 5.594153145303415 -7.388148183725943 12.68445208558933
1413 -5.653318894745239 -15.25780869850046 -5.087245671742703
1271 -6.659668030110042 10.266740006237908 -11.091213580741492
103 -16.38492210821563 2.512833969163988 13.836507448965971
1645 -6.729940935291671 5.0914871264199135 2.5299001374851846
109 -16.331091151247527 13.56812665081108 16.3685318955676
548 -15.026062207468966 -2.947684029035583 10.742123722410422
829 6.664612188540405 -4.228943440315614 16.440979178807808
1461 -11.275560669782504 15.402319844025444 -6.015179679197177
379 0.8271909388933707 -2.420788775820167 13.145473606260124
733 0.5419012237182199 5.299976177783971 1.5849479781107643
883 21.018991240346505 -24.46624918333605 14.45141546607864
298 22.457783427198116 -24.365787844212036 -2.3207565158864965
386 5.684157177086543 5.707662970535286 -11.766560148879712
1664 -23.11772008998051 -6.845415915376947 1.801590714449567
1980 4.192215174209121 -3.9260807963333053 -6.26393395732708
929 -0.2199379920003654 -0.926736473404291 -26.660506017168444
1548 -0.692591509096878 21.460697314493643 -14.35896126456711
436 10.008668380494882 1.3100964544917566 -1.6106852013451998
1426 -0.7034679826774881 -5.356119155378441 -1.4698701627612063
272 -8.458546922004459 -6.054786367202491 1.7683559204943637
1035 -8.993197334866727 6.432016181751119 24.312455393386685
162 1.7487847510729024 0.350873928668868 -25.996013959595782
433 -18.846009367540766 -14.900273442981455 12.288996881197944
331 -24.57089033162331 5.054146272977518 -30.384624627006758
1037 -0.21467079617019333 -2.7136528008465537 -15.751142295088814
310 22.08338265724224 12.648495548910347 11.979350694138422
1417 -6.15085895134071 3.8329153495544244 5.51108066689353
1954 16.529126768358367 -15.777220411531557 3.1849996020984537
166 -0.9433030876019542 7.4463425863350565 19.070789946370468
111 3.7762660584550094 8.821503983463112 17.87331038300041
918 5.563257867306721 0.8577368497679851 -3.2876002879030053
1031 18.078861937602248 16.153701879665178 8.42247525318538
906 19.691575774706426 2.4880422274972287 1.6813233029726034
1483 -14.43431655084409 -12.513886566588154 -23.734651933323715
435 4.714264185343265 17.38012789351 3.7434504938655557
1689 -8.451944597289678 19.15757507939825 -23.217443965410798
904 -7.813492774780522 16.074108460580494 -6.108744157363891
1366 -1.3190872676384575 -13.100499033261894 25.007883678155608
771 -2.1640590696302127 -3.399166651376783 -2.4264879473303664
607 -7.7661057886557225 -6.034817668337794 14.807476783619268
544 6.708495704847703 15.61130412463954 0.7835455001059287
1536 -6.646929128037295 13.09796970854989 17.58385660894799
169 14.586959140908144 6.016555515189471 -3.2201824992213015
486 -17.979827413595387 -14.534939121816578 7.775816941330867
2118 -9.43972968919787 -16.14474821925441 -13.29058018890203
1927 -29.90501727000163 23.544393844669536 4.589902131014876
1893 1.185614803730679 -6.157155585626985 0.6035537438184304
363 -1.015887021618281 -6.138434997215567 12.957547735477918
234 -8.634923042538334 -13.594709126260465 8.001494927899722
1340 -4.277947838952155 -11.747348621546482 -2.5087430129742407
1695 6.351737014156212 6.612920346855029 10.578563810599885
1542 -1.7176351077747387 -31.745818898634067 -4.917565804492184
2083 -20.618195810818158 1.5827423096817699 7.846940919324679
102 -6.8389123728887515 -25.15109089752997 12.403680056714055
1097 -0.6038148254241928 2.663020360429953 -1.1972440043361274
1977 13.700349864533102 8.202200476251958 -26.591698937937213
531 -0.9886416635665617 6.524569074590145 8.352913154320772
1352 -8.11870551915305 3.6726822764158293 14.188281202949515
1881 -6.174396574310122 -16.50704706204956 0.4622903557496745
2089 6.113679962585919 -6.193092123768297 -2.395873751904195
655 5.821851783356938 -21.194181433301708 2.7589506542910014
1480 -13.928627784783663 2.1925347374546056 -2.1848434507691024
801 20.09624758468681 -18.588786131215898 -16.58013792481986
555 -5.5624893943972245 -7.109274136503361 5.619298088245154
2110 -0.0020598004523938143 5.744852762884794 -3.6506802256619895
2065 -8.211878584562387 9.674116540661284 0.8812505821580429
1675 19.218973782574373 -1.8667949277375138 28.724106672793297
841 6.168909501969241 13.30074760096397 10.386131214951025
2082 -30.472833542005112 -3.282713773011981 13.907066703944283
1159 -4.755740172756723 -20.077030042340045 -5.234332357989789
1796 0.18238790279893866 -4.031976537855455 15.861375068816647
1820 -10.6215520645934 0.18518664983784927 2.5950813501192487
84 24.402168828553105 -2.5675285325051305 15.19403473163739
784 4.743037314840544 -17.77974748699478 3.3709345723149515
769 1.6013948788954613 -1.591804083106914 -10.688997738101557
1351 11.281255253934381 3.5935415657842427 15.344609125866855
1550 -4.349123696286956 -12.331396107765903 -11.629739441632998
631 32.477116545312526 12.481019011627891 -4.112113319195131
671 6.225119647056462 -23.391929490573766 -1.2093737291945632
686 -3.738905891996109 10.764379028962491 2.9153289755931846
1499 11.423696846881144 9.835820038313186 -1.4442056305837614
1868 18.57838150763806 16.968039766694893 -23.296046074836926
1532 22.203402764961265 -10.19811203894401 -22.739856793118705
584 15.736037427979408 -11.915885959086182 -13.045335436141878
940 10.891600655282778 -10.049026284773769 -22.65527889342854
2095 -9.56443822878027 -20.258410872861383 2.870905446767489
1041 -8.919731835330113 -0.837165721783518 8.150197870262732
760 2.048695442369048 -15.36395095849584 14.301379266254312
330 -2.9082996661438316 -13.273581057584101 9.45789303175228
1290 0.9932783154864377 6.768030435867892 -11.208680643349448
469 -3.434301434863882 -5.025820398119114 -9.219294075106356
511 11.291767406796742 -9.833687783411838 -17.155752966129633
1423 2.11201612848057 -44.78462716577635 -0.12582853917946693
398 -9.583482443336973 -1.1402652630145138 -20.88720625720587
1000 16.701465292048788 15.303013418224838 7.298586519464499
2130 1.7143906284052612 1.7265825006466453 9.869339863348761
1316 3.823931942584031 -1.292755161128073 9.361703883553828
850 0.5075785160595708 -7.031470651303714 -4.177851108406122
909 -3.8775309322375238 14.085708514456817 -10.388373404109021
1875 16.998855847991525 -0.755003072984528 -1.3771435123913205
2017 9.579721539594122 2.0259959925468785 3.20935133501056
740 4.910409924020062 6.005860859958441 7.842242350839417
864 6.0596501909270515 3.5737954896973556 6.648047374136399
788 -3.5782385067070677 12.899985511197526 -10.764791978619686
488 -0.5091307936684791 -3.6958475256678076 -1.0004115261089186
167 -7.116820257333385 13.174416371098069 -14.634741099550245
709 19.687242641479536 -2.1482470160498295 -3.9560983094377713
490 2.5972337246782975 -16.190546776533704 -2.455458203749947
1582 -23.60055362933145 -29.553299240664682 -5.246440589393866
941 -17.385577234020904 9.8670506131201 17.286708047668075
591 -5.392821228119487 -3.516839982076067 9.375779030145846
1071 -5.954712490461409 2.1519863853784296 -1.9285634958343538
1640 -9.049029857562907 5.668018114389071 13.288529516932453
1099 -11.840431685572753 24.921597907586666 8.07164364361535
1508 22.66784182011469 -19.48647935843299 -3.726868830094549
447 -17.040123488677995 -1.5228625257649666 -2.9527964607530994
2108 -7.870074531835865 4.381889643630497 6.4815877787067215
961 -5.256708809534398 -12.655628666150905 -0.40458369234558317
224 -12.042643313304247 17.96454333314467 -20.282827137639856
1314 -20.618686927279892 11.419568216377504 11.144421803747079
556 8.72250596415491 10.063501220283179 -1.7481183284729462
1353 -4.029254954818267 9.312065992579683 -15.129878467365996
619 0.9161884304118291 -15.704383526835079 -4.286365564757691
1669 8.719807785095998 21.125161183785906 7.277696747031002
1498 -26.14545340197715 0.8341765692765702 7.467826804528635
467 13.603426852668639 8.13293738470655 7.854419245638928
2098 -3.5426668067195877 21.5317646718155 3.070509912039032
1441 -14.078063902663752 -22.19877377717324 -21.534547326125242
1474 -14.100604999922473 -2.292309305306061 13.740902801602733
717 -24.107923081625415 -10.466732685103025 11.50163332590673
1003 -8.20727340421115 10.522717563582962 -18.373562542468353
1285 -11.923887247104904 5.895397175834126 4.214805885149257
1716 1.9020864840207161 -6.548567215030624 -16.07628028667699
1538 7.100593903202465 10.593948427956763 -10.333088069121976
2146 12.877067404166006 12.359935420121767 -14.442928290896138
1847 0.7772624845265712 8.24157228413549 -5.694230708207736
86 8.064791579922083 6.986162638733666 7.733333195096743
808 -1.197219412883234 1.2748454336604405 -7.784039306011184
71 -9.741520151358827 -28.850856463059152 -12.92129701333532
1983 -1.2542075291379984 3.2674177448111053 5.854981335718521
1128 9.57383065282918 -30.14779658674494 2.562503692832354
19 -22.34861776147898 5.713002677586932 24.777524699611206
1835 10.575689793947328 -6.368036233555183 11.270596085749412
196 3.9345279261652535 4.9766480760246905 8.566276924647465
944 9.852533922535834 3.9605247951029496 -15.720818492052693
1722 -10.761199222658718 -10.855859685482963 -33.90877255739526
288 7.337174781137543 1.3984641506127393 16.0470068123849
1572 -16.924999953282935 -3.8422073690197336 -2.3098270031644317
5 12.575370968033704 -5.516540398115031 3.7510019571821904
483 -6.313582644206 19.911385617698862 5.4118492334560315
935 -4.157631389863087 -3.7928967170992083 -25.68764398525773
2059 9.09195553487466 -22.805913777752327 6.670445272155332
938 -2.774667510144488 -2.1586373490438127 22.500920025456693
281 2.697548447156909 -8.024981545151487 -25.68769374236565
1434 -1.437508733030297 -1.0400683125718553 7.599378739717513
648 10.972531132951797 -20.38429737680739 -5.844883614029124
2016 -2.2439843980657757 3.0475692180008678 9.341455117797679
1775 -8.130716916403934 20.433667105896184 -7.553402499738608
520 -2.5288805350331396 19.743104848091605 13.95703667815251
754 12.616778660756028 -3.359433322718827 -12.438340900206786
1731 -14.122896024540706 6.667159609462612 3.6424007767481315
1113 -5.451570256698457 -10.673193666450546 -3.6043722231076853
460 -1.3321048264122 -2.8726755385637346 -10.55807459375828
1733 11.664419817178786 4.2030828051035325 12.518780132409773
992 -13.04591262044288 5.743246731929579 -8.59257965157244
350 2.3220028372139887 19.664310619907063 -10.820685295751657
1052 -8.52715457194781 5.157990022429501 9.32387827855083
571 29.4306785043565 -2.1600047045719593 10.131932826666489
1313 5.527682264864969 -4.701042026068579 -5.264610381643699
1124 9.0386556521682 -1.3651791528929533 22.05502525229497
614 4.15128795086589 5.778869078589192 7.5159682672691615
1277 -20.556303918509066 -11.430081570739553 -0.005960795683925031
461 -4.639015372028655 -11.909200791968392 -7.37095124899494
756 9.778246071270646 -3.275985433948394 31.37938562656438
458 12.41993338066276 -4.099013122916599 0.28471083285612137
1334 3.9305165019936172 30.327205255550084 6.32267961942011
1721 -19.560502850864697 20.114930385962655 5.0017799248171295
51 -0.764757015738512 -5.97869280342379 2.472398154970256
1829 0.5756047332643401 12.267526780350229 5.4827129719948235
1176 -8.753684148817376 -16.555191436650833 1.7762716383689876
1580 0.7281794559659991 3.8390613725656073 -15.883248210077126
1286 7.197849431133696 -1.7156124374057065 -0.7535339689010594
1064 -1.8720779899334292 19.873653645246275 8.533844178049485
1080 8.847741634545022 0.22843273211369483 30.96644533286196
1529 9.782295534952087 17.211661777767958 13.461397562265757
758 -2.5328979604246085 -11.648830204021635 -2.151520822638641
1101 -10.821516576201796 -0.05376047361246245 9.689051007793369
535 -6.713010596122105 -13.917984003211227 -10.910958854237855
2066 7.7065152122695775 -2.0906809046496435 -19.4621792966539
1931 25.89400475286921 1.780365505678853 9.987068755263376
1324 -8.069377753414768 -0.4151814150220987 -7.631711203049804
1470 16.478556025246352 17.467529929906153 3.413674151819135
710 8.481544452495436 4.912293874537164 -2.751239284385871
814 -19.749189043360275 -7.5481168758298764 -5.622622750910741
1629 -0.22219126258621621 5.749673197334224 -7.486911816820185
283 -5.237189599468483 1.080270581257619 7.389250354387283
2006 4.6568322112183 5.949787835270289 14.297190451157599
2097 0.4222199460442905 -5.599043613314478 -2.9414820500591667
978 0.9583895117022938 -6.629003190412492 2.341856030119124
704 -6.099852958652723 -27.747047789704865 21.61595840122931
252 4.813905335580513 -9.499858274887876 -3.281771693715596
1093 7.483577424761672 -7.231455284535785 -9.929332076161733
969 -2.0417022523683084 0.8209825468548426 -30.87823393641288
580 -12.624894819058358 -18.932528002508214 -4.436967807064753
1242 -16.478487031606456 -2.875138156627285 -1.240011340424528
24 15.479229649118697 -10.571448719088025 -5.08378248494996
378 4.330047110626739 -1.5662760634767008 -11.639302463944237
118 -12.832898119343998 -20.579445082554994 -13.256746469049169
402 -0.7913376519440465 19.30221594734785 13.664037752850513
158 -7.872397735850337 15.604232268812028 10.313860433106042
357 4.247505523830133 -21.08514335417308 32.853347728689236
1067 4.849966886930225 6.0139169340316645 -11.593052515264056
1216 -1.7525432022104401 -22.343560416393107 -0.4082549246542754
1764 14.26875667189136 19.17728502423515 14.294826034371951
1932 13.199923171405281 -26.24344512408676 -4.196554362579693
590 -2.188927873345879 -2.719176936203024 15.039552795051241
1278 1.337842526063375 -0.7658490473191983 -11.805981854346001
1642 12.379963658691677 -5.516847061331261 9.759841644768839
1994 12.88835042969335 23.542818998602602 7.61815496713216
1375 -17.100567238139096 3.8473576753126064 -6.326099855334125
1148 -11.231365525428316 -15.474216835098584 -4.077902852358364
999 -2.4357975219483747 -16.57591287416529 -0.3771606043010258
1389 -13.00858648269048 30.75824111984265 -12.844500718487053
1130 3.4880169227843862 2.581198905772028 2.1570456350630476
1662 15.649812984716192 8.63418732633148 9.028744906574898
1090 -1.627363285841175 0.3043420438205933 -9.458225433405442
64 13.06517193813654 -6.801106026486622 -7.613601161174779
2010 7.734598053945841 -12.127251473282993 -5.344380963375529
960 1.5650808269554748 4.717109831453457 -0.666960162691599
554 2.358544162899368 -1.181513860190079 -4.7998641702379725
400 -14.015136543628937 -8.541423918813043 5.596922855572676
156 10.854346859956467 1.2161215367213414 7.268207376248181
1416 3.0230808302771366 4.027395785972339 -8.406814469013677
679 -14.475198557554924 -13.163844491414268 -11.754178182017332
1718 11.862741538931559 2.8295158527452746 6.42900622347333
2020 0.4277200472354665 7.457184587559339 6.725810025888117
491 -9.380109557782417 9.27096355823085 1.4312756160571347
477 3.823004318446598 2.037197621375766 6.224523926625077
264 -6.014776065526681 -12.844598285170258 -9.968633697857777
532 5.348984170752897 -4.855332483333803 -0.7121510993322897
300 -33.1247358462009 -4.475117603907541 -4.79921767331385
47 2.595599998490879 -6.415942341424914 21.467991999200642
1163 11.265572899521027 -30.168921003107123 -7.336325638145008
1501 6.324249760532955 -0.24920412651449025 -12.708044272065615
988 4.194151395909424 13.760253431044383 -0.5176520594316844
1109 -14.991512540851701 4.333009052575755 -9.847066858156014
1112 11.920442997349467 -4.055706753059422 -14.968403307259537
698 -6.166293107241684 -3.044421851389487 2.03725028543551
1701 -31.95349446812096 -24.687790813741586 25.27867304992144
569 -6.61060380424152 10.072893971825888 15.163115492300498
53 6.491621784498974 -24.213415039172435 0.10363978445729977
890 12.258496133655543 -8.46938669695738 2.389761916853527
1143 10.570861011048505 15.040403683388394 -14.077563896008078
1007 -3.4833148523809707 -2.95800596680947 -8.340738207945657
901 -6.5228246360126025 0.07434851895012806 10.65211326092569
1619 -17.856143194783794 -2.8145070894769724 21.608058083685243
2039 -1.1774859999943372 0.6776603547409634 -4.936157232280073
1001 33.92758266982351 -5.38110017919052 6.338602956949686
1025 -21.47039310576334 -4.034728333664919 20.676998660993902
1175 17.724806442564333 -5.193777926926717 -12.68748378588111
1347 -27.417484199398988 17.395367141852027 12.262268631176818
119 4.413571160915398 18.77188413379686 -15.607233109290332
566 -12.242267597368684 8.850500620503466 5.056233826017975
1213 5.845564277752105 -0.4308276952455407 7.5978571720197685
572 1.2194382486282644 5.906894621005079 17.706076633989085
2096 -24.928544517488344 -8.648225600120346 17.3095662862154
836 2.4403442076519957 -14.263211081184203 -9.879422282437956
1791 0.6258551095844435 6.628088383315418 -13.297503146870259
1349 18.88009162434495 0.5677254566343447 7.139331640545671
1472 2.9459914867472756 23.914316305205592 -17.11416971980508
2019 2.0402992343452673 -19.114280611573484 3.740332711590502
597 22.23401479243506 -4.824859896886891 -6.060666210210989
451 29.00119686494665 16.87625061861889 -12.656836234601398
1142 1.2318713833350772 6.379080613543093 9.762997670018667
203 -2.4793852220515205 -8.590069704751135 -6.957918231034193
2026 -15.050382274029714 7.578993758627802 -15.870691714181214
1066 -3.634194712250254 -32.75798659085493 10.895378861301566
1013 -28.381251570755712 -17.232881178613493 22.37244900860795
424 -7.426806180319442 5.674137793542706 -9.506996119756115
1603 -3.7691249368317616 -2.856643186490679 -12.61035949592697
2037 4.955585417210196 0.37515614619961857 -9.84585459738302
1974 5.705045997270724 -11.207302881567905 7.433460679171115
858 6.402328963933955 -26.84492202446243 -0.17232628641375425
268 12.193268695455357 11.956587013736765 -1.450477686326347
669 3.8335571453834225 -0.07675031488542554 -7.02828572772644
1564 -10.425542449856723 1.3647034901830601 -28.681646322535496
1004 -8.485827395382726 -9.896142629932063 -8.041000271713074
1030 3.47809817772956 21.113513185273565 1.900496022578469
1822 -17.030912438029382 10.30976865508697 2.163261893672999
1190 5.845984798665836 12.925802013432156 4.743137313228937
6 -22.776101940344105 16.491937470713427 7.013816811691864
529 13.056992050355426 -1.9095119688235827 -2.2990417372644187
2045 4.672285883367647 3.9900834016257414 -8.62200460176506
1207 -4.464034494262322 13.661093834120026 -10.160305377632486
482 -11.207890967549263 6.559276860335448 12.608611860842188
774 17.801590821213114 -11.768954938638194 -8.129194133349326
1310 -11.71819206559826 -4.6606243545994825 8.689940351639988
1522 15.142182872620541 -1.1799707325670372 -17.118177002321598
1325 -16.11777901848045 29.46211732665502 3.2397741824923134
285 -6.414647063351171 -14.905971833429442 18.67357892747722
1600 -5.386772858868776 -2.3214993617266058 -11.288512982902159
747 -4.999370439206574 3.7288859436821356 6.978160263427854
2069 5.484183598280857 7.487716358337172 25.829590200423006
1765 -4.667737796297625 -21.231073689553813 1.448648317109413
777 -20.28694821384555 3.9730793495667314 -17.4645090440823
601 1.157951482659244 12.905475337341528 -17.03112642111504
894 25.10840206084631 4.4729094118798844 4.754440922752756
322 -5.932147878799904 11.35710005765793 8.222350967416627
1966 22.481822507507783 13.561533455927421 -1.2858104495749667
1198 -11.073547011036101 27.71973653998383 0.19584499640121597
473 6.9359803690063755 -1.7144364468920454 1.9010017189760307
1106 -3.972847085963321 7.025456189722065 1.352395805869258
236 -7.459138545422876 2.268422547815227 -20.335220079812963
1398 1.7156587220033073 -10.54421898556328 28.95782023929935
130 -31.349491121754657 -5.164632289492526 14.164703436686867
2103 -10.138003183814583 4.484486058168158 2.640101296019324
1836 13.513673972102735 10.792354773733654 -2.364308500441293
1651 -12.98063161709627 -0.4564621021932181 -9.824666950822383
70 -3.944703415756148 10.129480463854364 -7.211240387224719
604 13.794986763215737 -0.22177328307689806 7.038629243450582
2064 -3.2223976994103167 16.96038626983193 6.0959561451036
916 3.79916199664102 -9.054003641896118 11.737901346078694
1493 -15.123937378452242 -10.49613804570729 9.521435795419446
385 -7.918922703716856 -5.184542784647281 -4.721569107115189
454 -6.918961107585083 17.007266660408536 12.514405650415014
1322 2.731671847631062 8.671820365502143 -3.6549673972432926
1463 -4.448914260776996 3.7101538799524434 -19.485883645564012
843 -0.7327916395433232 -19.60838682512437 2.410831919916658
371 -16.791287020609584 9.29857762539307 -5.603189352511337
770 1.81904089259125 5.038617530175108 -2.2267188818385386
1769 -4.366585195892248 -3.8816990485888963 -9.053421243077912
428 4.804372178901593 -18.299942363003687 11.214507859502573
1515 -11.578518329161614 -3.8464305468898123 -3.7406905462894153
127 11.895294076324078 -9.844384846950877 14.997546590003955
429 15.104717108303172 -2.122840396682396 24.817095853241334
1798 25.331794895608567 1.961741330095496 -4.274308491447092
1594 -2.730159008189362 3.2140585866841156 6.082549331973565
1227 -17.262789307161363 -3.9863554487582915 11.33485155798797
1734 16.393309699018175 -19.42727139381702 -1.6453729311043623
1789 -10.455327797214142 -9.138780841262715 -5.119294206659281
1245 -16.14924117940168 6.030400893722793 11.920990285470122
1951 -16.945796025441524 18.815361883963273 -2.844014015223733
937 7.116897135655275 9.55114730147266 -15.835514355758779
7 -1.4694850578014118 -10.596854859634524 -4.163958116691607
325 -3.9484787654179376 -9.19190249295213 11.893044106556513
802 -19.643679020599922 11.727599847350278 -3.7601983725048775
1882 18.796892908828184 -11.638384075717953 -2.4559230302564607
1525 0.5461293063424634 3.245206315188426 2.6654132334155616
1206 19.070660679015145 -0.08514739911277229 -8.735911706411093
1630 2.0714930347900355 -12.064893244763523 -0.6659237785345535
1012 10.664007127895088 -5.53824565343606 2.2669386567426586
1401 -13.818025394724904 10.50873066475451 -14.233281049828296
1541 -4.630885493630238 6.510882402769227 -7.45108323202331
1477 0.8315186150799736 -4.953661025086704 3.553779637209834
452 -6.081421729649682 22.240336560526224 -8.346570973701073
688 17.625011300017253 -16.903506146009807 -10.336742322793132
2 -15.99357482799768 -1.5743873523534364 -1.338257450302702
1811 -1.7790792533931572 3.630581335643745 -2.636645481355597
1188 -3.6767097008156213 -11.037217052554652 2.6629593390386583
713 -22.477261678555863 -9.63854551401115 19.56730372236347
805 11.225523620735968 -9.577621209730282 -10.394861353338468
1063 -2.605486693992847 0.9888493616201854 8.809088649206416
928 -30.71042775743952 -5.288057826016055 7.986033063374411
318 9.742012108898424 -6.222129079025686 15.049148831921416
1448 9.698404769289645 -22.19514505884635 1.2873630947489596
1601 25.565284786916692 16.780378711837002 -3.4390407659139504
2003 -15.853210776809481 15.21698601060357 -23.38530621792744
2013 15.199939056512356 -22.004759120438717 2.1756693047003073
888 8.72063449215588 -0.8915813501338614 -0.39604263604268364
824 -7.300394112903315 -6.5844374095275535 11.807701973597302
359 -8.081833207368854 -8.718125391476095 -5.162876834508529
1971 14.17942284031106 3.7286474766842765 1.0062155333009082
1126 0.5623928554800551 -10.677544373205718 1.899146407962604
1962 14.673348106807902 15.814175936590958 -5.473813008586039
1355 14.330103324742845 12.710303214391379 -1.2729879404446387
1840 -7.326837067773619 5.321434800169996 12.594954943387226
1694 6.45647736336772 1.1903518998452933 6.384151509135627
1404 8.650627172381004 -11.988749987972287 19.811366161115053
1180 -11.556328469189168 6.660307808175046 6.234430323766123
1800 -2.279841904250231 -0.7768185978355817 -11.954641044795737
401 -0.8373193350418857 -33.32551916796707 6.5806734039127885
1979 16.905485022234195 -1.360109075091194 2.7534156130108207
1077 -5.741418862436637 -5.374853126016634 17.708833319516817
1670 -2.2235973007106473 8.097168618446508 4.092436402047912
1953 5.148294561000749 4.642573906215714 1.0981392575601323
541 -2.5398870286172808 -5.627902047710557 20.264615709920346
998 -5.248720050651008 -6.5483045842959315 6.393414332549917
1467 -11.190498631998835 13.59792902613312 -5.883003184424385
329 3.509078060664995 -0.13582281698405285 18.23955320477733
646 6.685068301143257 -3.7898278376599905 -15.743727016321113
896 -18.34602367901801 1.381762450727982 -6.07076424134934
1273 -6.634301607697876 11.497088952726926 -7.130131707400484
1907 -8.134518166134294 -12.585089149891823 0.04040828161971373
1217 12.09566855381123 -7.8691099164004585 -7.954524752112595
472 -8.863080760120189 9.150473051188674 -2.696034980810947
965 -18.5873390154588 -0.6406165812589224 -2.0527476875302755
523 -16.663974714615 -9.321920733909504 0.1830028248683092
735 -3.3348129011465395 9.21056377397004 8.574642660433858
878 5.822684376285466 2.8827987001131183 0.8741778261599061
270 25.504573126554952 -10.270261136836181 3.321937597693304
521 5.9072861261111695 22.06243385005455 -7.724089863125718
576 14.48226054946972 1.6200543633364881 5.931503833066597
1246 -5.661817804781364 4.126575401938369 -4.179797429881952
389 -4.486023899778537 23.684118310923555 -14.352855722320841
846 10.832290941523896 19.429014939744462 -9.504516180670816
640 -3.5413707937553096 -1.195192295897139 6.501255065948703
1697 -6.734411031687567 -9.015240340197185 19.83512132891912
1778 -19.362557887588828 -5.577462093398448 6.532994409923578
1291 17.01022692742212 13.236495824897764 -15.39196671970244
337 4.885107159693337 -11.730966874414833 -0.0621332784537504
1296 -15.943911963233203 4.890696960226946 -10.824617825771513
1676 -3.6360270198704527 3.6188039235668175 -9.591396540023382
374 -11.519534343792479 9.607928645990786 -11.007398744259984
1473 -11.285450894296732 1.3929097778884747 16.179286330849887
776 -14.162442961747578 -7.0885936227862585 2.5598589809785537
1102 19.360493676727085 1.8209911249775934 -3.45077087528313
1616 -9.851195501363613 1.452767163817379 9.867906128992235
628 -11.941120525570932 -3.141464291500883 -8.539671487269095
54 -3.0535083392184377 5.0659417834772995 -2.5604279947068758
764 -5.085788428655966 -10.694670494772637 4.225129418606415
506 -4.811374631860401 6.019509631085318 -8.878125099323487
168 -3.0768333545840347 -2.1164304412047072 14.7743246643058
871 15.882702148543816 -10.576733082437144 -5.762184930674987
193 -1.1480002466837298 -7.6344474219702825 -3.9961758543224906
1739 -6.874751867075333 -8.335273255882655 3.406918769079029
1969 6.008842976929322 -3.7840729295176234 20.66940789640054
1784 1.0754725785781905 1.346289096391603 -2.46614811537551
665 3.4764128467878423 24.045833306968515 6.760584870684691
595 -14.22516818669986 18.857751442927093 -9.548112239530862
2115 -1.6590692914696485 3.9214235828341937 -8.500016457395066
617 3.1025633262578145 0.038567126368067715 -1.6950845686471527
1029 1.2662609646029892 -4.680432992524678 -0.5152707034641913
1239 -3.270304856709901 -11.141339755926497 -10.917385808173286
1989 -0.6506091907408446 2.480526862443491 -18.18090223456765
844 12.35366283061061 1.1223915785805032 -4.144010876293686
1459 -14.109608747359001 -9.312071251843873 -10.13421099025202
1173 6.512511829439416 -9.75985619915757 3.7237333299923767
1805 1.8249672903130856 2.912725191845513 11.118016439032708
1503 15.73246344438139 1.0071951223156193 -13.949209252070427
1371 4.789877936923833 9.108687761584859 -11.433858532663418
1410 7.741156098717372 -14.792501138581143 -10.304687412240131
1320 7.507485126121322 14.71232231038032 -3.874135711275739
1610 7.543247657139081 -2.2268617961033663 -2.257459666002142
560 -3.74194283706361 0.5203242933665596 15.508118988576976
1299 16.07490230034786 6.946924249758762 3.418676138982912
1505 15.026015298104666 -22.449640011538662 -0.7317505066681639
1019 24.73831434376633 -0.09830527422859721 -21.724044479877136
176 -9.367298293973457 1.8737406787405793 -19.143356374486107
1777 5.575080587350617 -15.670469723105105 -6.451332830299711
837 -23.92059595635005 -15.160545498659856 -3.425279195771366
2051 -22.28735343224125 -0.7131237862753085 -3.570184310844155
2154 -7.655832046310931 -12.778404595059717 -7.057111087815951
2080 12.023255065385063 9.194577552989877 0.6885222672469629
1959 17.489403230541882 13.998817001876153 -16.192293490877024
811 -5.089118763641796 -0.9805230694056316 -2.155136691400436
478 -18.794778643506287 -10.66430701539023 -26.13110993011916
1396 19.24000209381428 -7.906507131459311 2.2136402486102944
1942 5.606200071611791 25.87795136574663 17.191388669264487
1556 8.14005307043329 22.156674159477365 -12.019768734678788
925 -24.11399626213673 2.159884491974137 -25.521288206355496
185 -10.029278296952443 -10.125183210887275 8.275116732284893
1179 2.6339584571518277 8.424052582385574 -10.7657001566991
293 -10.05057419071676 -5.240173405827706 -1.2647782520011361
823 -14.442477972716116 18.754142198221224 11.39593007516322
914 -8.812811201704367 -1.2903570246591463 18.207196734300354
1365 -15.755221320874476 -0.07675840844211612 22.522660467728212
762 14.909954253462903 -9.777582789559155 -23.593905633134302
99 25.695816222154175 0.8106803368167198 4.969682124747135
23 -10.358982555693322 -16.856554158350733 4.614288974475687
2057 -5.9285939589212955 2.878314320128091 -1.181242222880852
1788 -7.458120682269518 13.546569493467112 -25.064832877127188
695 4.93813146332561 -18.048607287981294 8.456701727006772
970 -13.87078446498679 14.82449280491821 16.885482655503928
1692 5.106875247648624 0.4551384668767159 -14.195558572611846
1587 0.07027407524326973 0.4781932471233104 -13.026654950556093
962 -10.609916657212413 11.729090882433377 -10.29646077921222
1110 2.73300907785295 -30.09756639006116 -9.251241203608586
1544 2.8240172379101987 -1.0037631460329626 -11.571612819927255
1771 10.888050715308017 0.9688538659006996 10.725903720735007
1026 -2.299466313972711 18.968290824876537 1.6822325248384953
637 1.6292257827579695 10.18124467943123 6.90722183918488
657 -26.455913705897682 17.15556344958592 -11.343620250887202
361 3.139837375893092 12.19060872060479 4.5597932041933555
1121 1.6229563573275372 11.517345279696137 32.3367541914891
32 7.187243270689469 -2.213573999694511 1.6225116376152144
1923 -13.762746392857217 -12.796768598962542 -9.17896633483025
860 3.066277940540842 -9.55385836907811 1.5476361942978545
1659 -8.694791544481001 -2.221346160647981 16.207280130949062
496 -4.9809780220068 -18.97775559250751 -5.814667717610862
2073 -0.25907143948268746 5.882157153771966 3.203361874079228
1839 -20.548808402329886 22.16559377673051 16.430483771354105
653 -15.105178491989056 -6.220880904298135 -8.589749849113764
863 19.256070700182853 9.399095399885992 -12.694062213900498
1656 -17.416529548914095 0.01523096203573354 21.632129819192635
1707 13.686097516320368 6.5015348686537235 2.8442648446014096
715 5.900182860531923 -1.0128033537474257 -7.213652111366212
1083 -12.066776447715844 4.9922007150921 -7.93290660009773
623 5.153212147753146 13.86473252688705 -1.4203245925391377
778 3.710501666967341 8.81138880071639 -0.868241521661218
902 -7.964318748273555 -8.060302798454627 -3.414635412048677
620 -3.7819867314048286 -6.78045836879504 4.70731893185395
786 -4.1963148934268455 24.2209364896283 -1.7486518501769304
1960 4.782763729775496 -10.31393905675002 2.6764634146074573
29 9.889923828667294 -6.759515457960542 -8.749056581202636
1535 2.7986495973992014 -9.150030975073388 11.68161142178369
1168 -6.899330127257563 -3.1749822732385207 -3.4977025120249077
1913 -1.5668581497810685 11.429899042167797 -4.154611097848376
465 33.10879805653234 7.701337109341316 1.3654924005017788
480 -3.7514125814817496 8.119628481669874 -12.46284369588052
1406 1.9840270859808178 -12.704732839517737 1.9518205234547252
621 10.242865189191697 16.266003986083057 -15.081968496628667
1910 -17.815958132748058 -13.947765898039917 -6.034921313289571
1970 8.823089358191268 -2.5968378987298544 10.118623238501835
2058 -11.311824353466642 -15.362432134613828 -0.8084947340214845
1934 -15.28022395554799 14.040310215266368 -4.440554480092891
1597 6.5104850795681175 -3.580487960797519 11.093501001579428
1973 -8.286014762458612 4.895696726202222 6.845349433380674
2060 -1.5433211724056795 3.4881236415104047 -18.589061267883952
707 -25.694199975831705 -6.551155686644941 -9.355538280525685
926 -1.9031931743480983 -2.677341092691242 9.14902173509067
885 -5.107940338371495 -1.026133308499005 -10.54560611592854
1487 20.83992452677483 5.892543388847468 15.517587946761427
1768 -17.085739570376976 7.673229530114107 -6.454847266036967
1265 -6.595817509919133 -9.426736347313382 -2.2474213206955236
1458 10.226046909005388 8.623131854861347 -18.022558499174096
1926 -3.285274493832431 19.52661188392502 -15.69932372900083
1378 1.311250239876339 9.129087619608654 11.209179982463493
1082 1.1962677767295788 9.342965932653433 9.23657945964471
68 -0.9539958562196467 -2.1536734841458767 -2.026931030128535
1149 -2.60976976034505 -5.2321587119118025 -5.535589408550678
1929 -15.24939749153073 5.07538127004887 4.479630334537347
732 -1.330799666726791 -1.6992811946515447 1.6030993575396821
1302 2.6678044781644155 -1.4500792530233815 15.643697723589764
1623 14.63113989256346 10.505858494884663 -14.014937492136701
1986 0.1889487740531948 -2.583857668547819 19.59646305533383
1809 10.549564312108508 11.01932896441195 11.926291130402163
124 -16.04463364320315 -3.3206547812280345 17.09846668632586
641 5.3673197263081605 -18.397388800286645 -11.085719672442774
775 -13.279500177575523 4.997079817404124 4.169348231424546
202 -14.0395765140086 10.275981978503696 4.344872355104525
1369 15.292264075178643 -1.782682477442197 13.333541028085428
1602 17.762177635434693 2.3944533410996183 8.080664986148298
611 -1.171448274570632 19.840667558754426 -4.61626251165081
2156 18.07329901381478 6.8701112735175105 -2.2122007050431307
1869 -11.971089738719279 -8.055438965311188 -24.358475676662202
1917 -0.9206097404334372 31.97732589613773 -6.994745188062197
1494 -13.455739373314737 -11.818908982289374 -0.026619514896648815
1759 -16.626427863615362 -19.210894077954016 23.98403880209529
1036 3.0705005981266713 0.5446393972997112 -13.17735724412695
2133 11.256446379091752 -17.585318262079426 -9.028927350075465
508 -3.5473281210425993 7.734602735721645 4.948730047617512
1385 -6.511601019848268 4.423584629216419 6.071282596992495
49 7.67959611762129 7.348362339158349 -2.8779637636181956
74 -3.7522836084392406 0.20434072057620256 -11.788771590511535
1443 2.9717525160997944 -23.581639635489356 5.981642235111389
1617 6.695706665141748 11.797914866007744 -8.333319123101631
375 5.95104828799618 -1.786530548529011 9.178059447715096
347 -7.118272505642121 9.94903437083895 -20.91590876995647
1736 5.57508476457243 3.890230957517682 -23.113520255312835
830 9.467387930242603 -5.37758173743456 -5.740346031567725
664 -7.138913959940475 -3.655440188084883 5.413662738413224
214 8.053928050090835 4.959252814393562 1.1938929412106618
1507 -17.09374214172584 0.9885087629824345 -16.2364010084317
538 7.372158887785949 1.7494683937220532 4.359115860856001
509 20.949797734819455 7.766554996149934 -14.929601568014963
1191 -10.38522398269863 6.796231170805004 1.6624390840697223
1356 -11.493083652075875 3.584817977482649 13.564448427300295
993 14.957397822135194 21.11751880082247 4.2759113844898735
1614 -24.167135559281192 -11.590393381929383 16.615919900470086
589 -4.333855305444217 13.947562264412566 4.807516906658062
1520 -5.446047712769354 -7.3988432850896695 -19.759140062589665
1283 15.307652430796228 -1.3573989297894886 -12.919934290317054
1282 20.003418614627307 5.476004896636514 -19.54610410399035
273 4.095967411069902 23.66737868402381 12.41604459699566
1309 3.9367197712079682 -9.559092148965146 3.145653947225038
1335 12.002985983757032 4.782468597444003 -8.648014372070714
934 12.201046883406391 15.052541962373603 10.05544709153429
659 13.518861676791662 -21.43854849935094 4.133251770433393
1155 4.384170329536299 -0.1406616615538737 -11.101854144422829
1247 3.8721959136921753 8.905457223625772 14.612691129868134
1956 0.7903336902405742 4.275733811146519 -1.6457588873475686
721 5.776932695602133 5.757627390851566 21.29537990271533
1044 18.95168161398385 0.278901445558069 -5.811451097217119
1153 -7.090114174485037 13.21694726989539 0.6823996956102116
1238 -0.09539075640519554 6.72420452975334 -20.301575632211016
416 -1.4676241930519194 -13.130138025202184 26.505313806533977
101 -17.119902862266983 6.611071723144117 -25.357336379121357
1146 -12.419715176011705 4.617980142505464 -3.180700026727904
2122 -4.598070439203113 9.868850016415724 -3.5946009981953893
1562 1.8381894199974667 5.686801382866406 8.683884014591825
296 5.2028072433258465 -30.197579057315696 15.850812742113794
142 -1.861013168854884 -1.803682158738615 -13.715589910348948
2054 -9.591116969329411 -16.00373138419085 -8.05131272829184
79 7.950649516224077 25.130335513186683 -25.852572379330077
696 -13.506796375284932 -27.388573510207912 6.571686971335234
2134 -1.5408093237117864 -20.15415980174198 -1.2578733854624422
1838 -11.370749259748658 16.430102218935268 2.9915149731543633
1622 8.762699558284366 13.14749295071619 13.90251879397854
1017 -4.024198926708726 8.57598921426807 18.855732981141774
1135 15.47486662974867 -5.691656836064493 13.149091185241648
1049 21.006018699670552 19.515118579801474 -18.44897066856886
932 16.62300616233355 -6.375595119437671 6.848246471841765
160 -3.613359820542506 6.539223175492954 17.627821146347813
1958 -6.425096999346612 -1.62284773773838 -11.393372849765019
1428 16.23009113031407 17.003767243447943 -5.533271244558118
1315 -0.43265227696691416 -27.72660946686072 16.025328536858478
1528 -21.00934784041026 -22.599464025689183 -4.041541379504767
672 8.53236136893281 -1.8396882280428657 -7.718877768906928
474 -12.318003583421229 -6.833403927971365 9.128526993725968
126 6.820346983323906 -10.527649571909732 -12.660107731406734
2152 -1.0126802787267148 -6.4957950077707975 -12.15298934217731
647 -6.2840685272299375 20.07814652092195 18.777052315104868
15 3.813092770270383 14.770061045996616 -6.4548654828769205
1409 1.107187829678876 -9.400920004021247 11.054286682292242
312 13.596333232751356 1.187177986762155 4.233711173793177
1858 -5.139595468776376 20.31038358324217 0.5010656608249123
1005 -2.4443200087186963 13.899004252876312 11.144067989579373
953 -19.55398372048217 -15.691970027007923 -8.097005614156371
344 7.0532299583162725 -14.637484057125388 19.869687450912412
304 -7.528156357882518 9.219186970630531 -3.9145119927948158
1939 -3.921584571554583 4.98258604070612 -8.250571721376962
855 1.200688327047084 12.344377796427384 -0.7670273943636561
1905 -38.833390821522954 -24.830716487849255 -8.671935810483184
209 -8.551001357804836 7.511131943716261 11.181322791914004
743 -19.641917246004766 -33.75514918064734 19.717771507769733
1022 -7.549442753591682 3.876130977378097 7.151708658153666
57 9.148304986633702 -8.483484516547685 -4.148039743933798
1738 -2.9320240450232293 10.089143389158316 -3.3443191827385084
519 7.262210315965223 -11.551288454971438 8.834673418720326
1911 8.475675920608392 9.422125114185299 -1.2254002285574084
164 -6.319492454362433 -19.168828110316195 7.208396888410493
913 -1.5406569201721956 6.08345273141578 10.109298362809023
1184 2.643830836703411 24.3466176303983 -3.399305260622819
1088 -0.7486039135789131 9.544028153947837 -6.958149964273414
581 1.3021567276342985 -8.57374150294965 5.847749372666729
1888 12.315332656320198 -3.437700184277791 -2.9328991297021103
39 3.920970590557395 3.8087959860002543 -3.0811075514323196
1073 13.343098503172888 4.632106806045175 35.37595457946144
235 -3.7451201968519996 -14.895434221331502 -2.9064658750969947
1492 -10.108993363872678 -7.37546546035249 -1.6340529965701933
1547 0.22512503782796772 0.251968894290335 1.655447314735159
266 3.885193198086161 19.321977956346053 -11.940197934165292
1139 -0.49364477695995523 -8.8480604514985 -4.560675926726976
441 25.339854495601635 7.057884936706041 9.148431696405016
975 -9.588407994140454 5.709875376824413 -1.3165277110328029
510 -0.658216823399122 -1.3375237084627336 -0.5633917962071473
1079 -6.21847107150623 8.765711911196895 -12.245436214521767
2126 3.1588794233000237 4.407735739812791 -6.314806218120376
251 -29.33371097419361 -11.81284188919149 -8.636418805243792
217 -20.626629820721796 -12.895853901540978 -6.790724319146676
870 -5.82714568085155 3.675359236060648 4.604868079156798
1230 13.436498775533575 -21.357597329643465 3.543603635547027
955 23.21639485767935 -12.553811011738498 -9.996528350492685
1998 5.613779791847134 16.49372174653066 25.735412228226032
1323 -0.1803538880775682 -4.985887993390894 -0.8300962007026546
1930 2.9370125226257047 -12.294331178860208 -3.631887101284997
1655 -9.478636297531445 0.18254195713423954 13.641362030512482
387 -4.749224689571056 4.580057643194396 -4.51020551868478
2027 -13.52247915009896 -11.903810989318155 -6.521576739796875
1650 9.137225276445946 18.625191400174156 -9.804022697681738
1215 -2.478632372101242 19.35563816402874 -2.9983673260030805
1308 26.35676497569824 6.3077059316332225 0.9846204159891966
13 -5.935422339790009 5.3440396007821 9.052962644839619
1915 -29.67547546444558 31.00638370543454 -23.048783113423987
2032 2.9824579230294908 0.7606981707229977 -16.20051854356815
1709 -15.66920230442163 3.976628118686366 9.794067995309547
1403 -9.315641030539432 -13.681140824026322 -3.405020910147246
1719 -0.7379173033985812 12.46425765038132 0.5249294879704182
1450 -2.084797202975855 -5.104222434610012 0.9788614273668325
973 -11.18776862106047 -5.737416372183857 8.380936562278777
1627 -47.80691470433923 -2.092694446159019 10.447948142719817
1249 1.6441470863282572 5.736789086087256 -6.527239175667432
951 1.5329822887200226 15.691668896292922 16.956424399708638
1141 17.818054583336725 -0.2767436196219281 12.114953637643238
1745 14.853091740400005 -9.402328011775634 -13.318513878914251
827 10.698100252776415 28.794933028828968 -2.0570173785954227
61 5.597294998918238 -2.8359701063709433 13.231350533389396
1785 11.500544053109238 12.661619534224386 0.4487479765209024
1358 -3.3835892661906595 9.723846990716098 -2.9236679205186227
727 -8.201982131205545 0.7058280370612973 -8.867455744261337
146 -4.951267894765149 -2.8625834961266836 -6.244615125341002
1208 -3.3245332510097585 -10.943797382024197 -4.08537248409974
1908 -24.856513643712027 -15.517043918731064 -4.097119636189438
1068 -24.1667846085538 -16.622789912755003 -20.609082145560723
1255 25.206574682785913 14.366204480308875 26.50356602948495
1818 22.443298123668978 16.445560815844466 -11.11966761979807
1922 5.513583715590058 -19.02523135840846 6.675711685351322
1712 7.9190684954118185 -9.649453040483543 27.70110075926066
1491 -25.056112268222236 -3.985018410802845 -7.811393442175672
1665 -4.628950096842613 -33.687407905802125 -6.369226042815906
1147 1.4126043737131682 -6.037410925916841 8.192252813418252
1938 21.085772805797497 -7.433170484185474 10.484391138761001
189 -18.030478344747465 -4.254297433756548 11.668477527365605
1028 -15.025497769796926 -18.94225171064576 6.522169301040906
983 -10.671625745679028 15.315088250357329 16.55430443150409
1880 18.34929664451905 -7.389910697669611 18.179392858686125
1816 -4.109636272022468 -5.207539470972532 14.108005645966339
1103 7.1686047678182225 8.668530111010373 -1.6962137131074675
536 -7.81525800523083 -22.774345803828602 -3.290665779269177
626 3.7206861976332704 10.44698677812185 18.91475117975326
718 6.960443657649887 -4.15053430629382 -7.8049879693664455
438 4.965683433304896 -4.4022796163329385 4.482886596030845
1321 11.504218101212947 -6.055158165966494 -11.46874343294217
897 -14.598581128208737 -9.236408174599104 3.4838455120115044
1181 -1.0533606640420594 -14.097960246954672 -1.4141891512196725
1096 2.6993058945328285 -5.047021980602027 -2.8598531236596547
55 9.189846147878383 -5.233337598773053 10.255350288557501
1766 -11.28020050491867 -5.602277512027842 0.005585388168632676
1425 17.027819125380404 -0.9139083996665605 17.28347356994238
1637 24.139374010067684 33.06703603886982 -7.269327838082649
242 -0.8577851281782837 -7.300759370699514 8.51662119915388
924 -9.42911733471727 -16.22523332894596 39.156861370158275
1294 -13.499012686816101 -8.098376383310335 3.374868379977819
736 -5.821277843919229 -5.2833336223436875 -8.313337772350774
2034 5.859561929346232 9.709025472874822 3.355665307847319
1479 6.248818366205979 9.576988889139379 -21.32038442543725
643 -9.597099948764829 7.669972820023805 12.780150260466797
612 -2.0537633177978623 -8.019951879011337 -6.0456531669260505
314 5.942584328796741 -2.3355773896152967 7.643780569095181
1865 -16.321272278976597 6.830939795171323 -7.776752722502869
1648 -20.739696225189572 -6.329715935016855 -22.80962594552909
1060 10.697392567650118 8.73936378425027 14.197426703481764
1613 -17.7456302684966 29.734288958489866 16.621425274201208
367 4.1718175757462905 21.616973130712463 -9.445950161429106
360 -1.1941090348023686 0.1500084773998015 -5.580483228544575
207 -12.649000759340591 11.142115053609901 -0.9600725209288241
853 3.5431375113437076 -10.427856390529419 0.10499480059998202
1400 -0.864966648205138 -3.0972197622118145 -10.987113103173622
1854 -7.328707295438177 -13.074856514597208 14.997800959342241
674 -17.524502652728554 -3.8064507227968605 5.678836448516284
1212 6.368836644916794 -4.091858459699629 -0.5392607060277266
1485 -10.135087268717227 -23.41566420520195 22.74024743652385
1152 23.632398665240782 -0.8961195334313675 0.7426980878285027
108 8.934950530156506 -15.13256913593014 -1.6146536367353685
1886 4.204735386085855 -3.4665837032102114 -8.662532513548502
2129 6.4440394335470215 -7.867976512574727 -17.206373586365437
714 -4.761823793135946 -6.112364984181611 9.299505566398834
609 5.585515275476748 22.20691011555459 -8.740172076005036
676 12.38271205516783 1.3298332538896591 2.511587827138787
1038 -3.6255109855129706 -5.562349672012683 16.178649576692436
246 21.68108790099677 0.11925153624410664 6.910662150940081
1903 -12.349125477610148 8.843100021954896 -25.81571846040718
291 -8.739867269360023 -4.536030836551425 -14.044081572616294
178 -5.369886111767394 19.230324020878694 4.03556667520576
2157 -5.038485116149885 37.90064189013783 -8.868791833003955
1680 -12.817870062043598 -4.59730116254482 17.416858478404173
105 8.05023067671526 0.5340854615708012 -10.479680634962216
494 -17.67322672410873 -12.749886249938532 -6.496044583581756
1874 23.546069252301766 -0.4517795603699428 5.460727170948565
1747 1.2305330015490736 11.151608308948257 25.26376345321434
2128 -11.644489506761648 14.463222606225171 -7.144114212466101
833 12.882938171912214 -13.19553550807681 -13.74618679596357
1735 17.893091386131758 -3.0094788488623454 9.339709753965629
1866 -1.282384787343087 17.835140954611 12.00063823230054
738 -1.5208445292614392 11.35183189873032 -17.72195540510738
1873 -28.339452142900097 -10.90462423363259 9.562446520605304
971 -3.057658607225012 -9.262796593576207 35.931503206280226
976 16.11227504450527 -10.09843627900588 -3.138946087993295
534 21.438459855293893 -8.539008092344387 16.87793441617376
1205 -3.644823233373019 -37.535467770018016 -2.7370734911209054
1338 18.58465145394134 11.221666142055653 -3.4360236319547273
94 5.056675133459872 11.522970957509079 -3.9986493906490264
131 -3.148978078616252 6.663481060069555 1.9030731877573615
840 -14.592824765032658 1.268038015534887 -15.021251779995012
1513 -5.360257712508013 14.160076450119279 9.69136565855338
1813 -11.822769330713946 -5.277763636687951 7.537202577493193
1976 5.00270519812955 -9.443420871010686 7.474090178347746
81 -6.586543860249542 6.189287172934478 -10.797387722070054
810 15.691726812793899 -5.1243142902756365 23.664538161397903
183 -10.615199184243874 -7.205883940888229 -3.7366141656816505
78 25.01047838837216 7.755280058199803 -12.411730772651968
995 -18.21388061005712 -22.116382703140076 8.804344233494524
2150 9.152731521203535 -15.120482288465258 10.972289171443919
1999 15.215879046790894 19.305495115171947 5.381390112927094
2132 6.073148811211926 1.1645258647906231 3.910351186172621
232 -1.5210994997447405 -10.648157073410742 16.077938178438895
1737 16.525053519024695 5.284361473050006 -11.58797608934391
1850 3.831141296797547 -13.627088292120346 21.607455556900536
602 -4.218027856058483 -3.268182638421397 -4.742029239405464
835 -3.6149775651682874 -6.4549581763330375 19.664866860252708
237 -13.931582250726112 0.27702837834915284 22.987916564922017
662 12.427957517573907 -12.710656082711473 -13.128995426731269
1253 3.64283243949491 -14.861904728226968 -2.854903517562817
825 -15.70049825099668 -9.669099396199174 -1.8759013604988821
613 -14.82114867823998 3.820720164929274 -5.158920495217724
303 18.977672767125046 9.713111224868728 -10.220236837472584
2088 -30.242621452665063 13.270963190412285 -19.79684433358012
42 2.7426613625680236 3.4095028573769968 14.835577482055065
1046 15.894518549112435 8.016157734287173 21.65958269853123
175 -0.5296530203723485 9.324611686756196 -13.522293635908108
455 -3.1312457711392563 -8.122193118088967 15.59513825208343
905 -2.1624158312946986 -1.3762171277917075 9.93178238975677
575 -3.62107560492682 6.742870883966527 8.456809004364755
650 -4.71338459596519 -0.4801227562524155 14.142788710292667
14 15.93161425734654 2.2733635843101614 -5.444243255359417
2106 5.252261412806231 -13.814310870108521 2.051197787350713
1192 9.71793368509668 7.095895606510882 2.013843894832259
1319 -3.530275118652992 17.013485098037243 -10.365204044011936
1968 11.542934160238701 17.231992231812413 1.1367166993408715
616 -5.325880074956476 0.43751287674601436 2.1430399980695847
1856 -11.649856449361831 -11.868675114002205 12.778577876818932
1849 -2.8157664897408323 -6.561354580740287 -9.530746510860816
1571 12.028936904313634 -30.929229575086744 -9.480743547200161
1300 -6.477873734531105 3.98362917035953 -24.062071135610392
1832 -19.2786560713744 -12.493379753505387 -7.648164871525038
1392 7.607748706320973 12.428539116390386 -7.517766837054171
1421 9.186544994399043 1.1831147674329399 30.860864542348136
75 5.922007023461375 -4.450084014339265 -2.812613986365692
882 -3.7721392993263083 16.241273014932148 18.183256093947772
1641 12.424321963356785 3.7924163411833147 10.01037626138356
459 1.731517310100549 1.5960633030206288 4.763714300524707
2135 -8.727805206901415 -23.07636770478528 1.4120079361100872
1199 4.556080361345452 -2.0089464442708995 -4.090612318587565
179 -13.213894062625025 -1.486507010196677 15.290818223230923
1599 -11.692462060910787 -15.808169412920346 -17.28013932022157
980 29.58432504842603 16.599065211327414 -2.957331749604528
171 -7.766662450830597 -1.4936737787367111 17.98635123468377
1859 -8.95157461597201 -12.540221219474132 19.201929495364386
2120 -2.1672529625927517 20.0098320090133 13.123002977747941
2068 -1.4434107309899538 4.421746462273591 -10.623180569638162
1411 -12.034767979224092 -3.4411245895580387 -16.47748982410522
1687 3.9834645248852363 13.220193936904243 16.729852086493555
445 -12.984140845228685 17.38038361328799 13.639120314827665
922 -5.040832019070964 4.375374791093703 10.30489888913968
1268 -13.614490909858013 -13.49348313263661 -9.28650626045713
1742 6.384126560382129 -11.39334491486324 1.4349408021077883
1810 -3.2823611631040697 -8.264080163207762 -14.702269227600034
557 1.0179416648292154 16.74887834324068 1.502620245804004
1591 -25.92497305776211 -17.69193621679193 -17.251793943005712
1311 -0.2443769265234867 -4.393480595311955 13.219169841272693
213 7.1587517211803195 -32.25078710639372 -14.75752380352161
2124 12.875967327718522 3.2567725147358586 -5.661869230620335
1034 2.8847449817068167 -5.756909933754714 -9.641467599142889
730 1.2978302664185595 -0.6357868093157155 -17.952896630869223
1688 -8.040772254882052 36.08865823627358 -0.08276531801583571
328 -6.009105706928132 1.4021402304632817 -5.55937390961036
1943 0.9515775644289294 -19.128013606393193 -14.55426271061345
1266 6.9523952087422956 -2.725965823748476 17.9023027545228
889 8.605862952964523 -1.893071465993802 -7.698335851266449
151 21.96680547244248 9.168029724887628 14.686356064345134
726 -11.048099143097444 25.955070465221205 -22.93754390488565
133 -2.1883371482632357 11.089227457333092 19.766175036631868
1195 6.646270558400312 -5.055993280995654 -14.783776309862969
335 16.143572093208455 -13.082218761689134 -17.21172356966144
583 3.429079237376812 -28.08806106528771 6.6913975543278505
505 7.21151286594744 -0.7180217886139298 12.874251215980753
1834 2.546315685371933 2.1471912794453343 2.5526715012520693
668 -1.4075552029718161 4.642985038444513 5.755387897108012
1132 -3.2728882864102014 -5.696230216870772 -0.7944023580041842
2023 5.648219709997138 11.070115247621398 -5.168216314229913
1814 10.427953389307893 7.320952053396381 -3.975484939868699
753 -22.65491345792949 -2.5929593244911318 1.8626922451473078
1639 8.682184417168676 -9.42945663750948 -3.5971655595302834
1746 0.02478488819035228 -14.928345991748188 -1.953526829921765
2067 0.24717806781832963 -6.968541486596897 12.058623991911732
1763 -0.2676155268233963 21.075584619573107 -22.24804805681721
1819 1.408689146019226 6.42245597956461 -0.6367864398325503
370 18.01380249297703 -22.79085783758027 -18.360491962001937
804 3.99246529743693 -20.45196520735771 -25.60391916559264
492 28.409636109381637 2.964379300262601 1.7757598274409727
875 13.56154326076077 19.353292824212843 20.966086748937556
11 6.187615574572992 18.17351240577316 5.386113064676399
349 0.38371283583990057 -3.4177010285133744 0.5402669697323822
1517 -14.336777861512745 35.9612180959092 -5.5075864495253315
1376 0.8943964108286308 20.304015376267515 3.728421948409133
1720 -9.461880995051892 1.2303225385469054 7.183791690213106
497 -1.451774035053966 21.922204929880568 -10.934125539737453
1916 -3.8243347064204 -7.008025381306348 27.768091623200633
241 -4.776590134661803 1.0177790664158965 8.954238918593397
87 -13.837921950185846 15.293944797658005 -4.399880995206372
1918 -11.968867211852745 8.713573544570485 -11.385311283016993
1531 9.901558368542062 -9.271083007685737 -3.6266781073346435
1540 -1.7512914694206765 8.565034040582937 -5.6429252777765635
1059 -21.33726577636951 1.8785205216955279 -4.319711314133364
921 -11.579617797361205 -25.050431935399303 -7.372586559756186
1673 0.1784776833134724 16.392299353293662 -6.261916212574625
1682 1.2556827269382265 20.167082000490712 -0.7957657420217533
1961 -10.374222069620538 15.67360648759688 11.041319629038528
1982 -13.1674878812172 8.225599432376487 -14.197150157621813
1565 12.88137415194444 -1.7381193460076025 -3.249647945365426
856 2.5883398875638886 0.5885326551226857 -8.90248846965296
525 -13.74560002026036 13.67093587831651 -7.8269249408707955
820 9.500874519173443 1.4421463146793976 -12.762238346322748
1842 -6.719129635491266 -8.116151724963618 -21.313384893613193
1379 -10.393075920801248 -1.0441015373815592 -1.7591465193404427
182 2.161387169329703 3.4147137995456607 5.937631589364785
1615 -5.578341178206568 -5.476523392162985 -11.003258228025096
543 -13.20202445135086 -10.992969639306981 4.429286619481993
1824 22.987906975649828 -7.3626209965793805 8.004150850042056
1527 18.086269689649857 14.1745806153051 -16.266391283646932
1350 -13.896718624844013 9.228587041484177 -20.71025250831753
959 -13.600009125728992 -22.278153640890267 0.8468064150072125
1808 0.8652320416127156 -5.424347032858437 -0.5122608213175392
1348 -5.829619221003907 -2.615362323656015 -22.000236428078573
1955 6.53715143961687 9.191356312031605 -1.4637760335552217
1440 -0.9631374119369113 -5.942295262403467 1.5186011524578116
1723 2.642831349206469 -17.131658434235316 -26.66230763548382
1604 -6.929587099622961 -6.142833522396126 -10.046936958371704
484 9.397796558544101 6.976280379859332 2.518393936779782
848 12.774280740631658 8.819334272847462 6.2572326577512545
192 23.764030555823663 -1.384246129398972 6.709017150925618
1431 6.255674378223252 -19.916483042836678 9.287575613314058
2052 -10.8806038029795 -16.333107639821147 -14.849111284178797
537 -18.69295143308004 11.40167846894792 2.909048920524751
645 3.001638613105317 -4.39683351883025 -13.89615134560214
1137 4.449573357107413 -13.777361587773674 1.4801399884707849
1298 5.25368102738357 14.941372570602764 3.8690577978568816
920 -8.623371215460196 -12.950135965009352 24.859621583834745
1576 18.154291731797834 19.413301308453292 3.3587955130240315
1557 -4.779961833518991 3.8011812593607806 10.822910833318366
1259 -3.685632766658787 -6.966154815264728 -1.6789628259537697
697 6.602890059251992 6.705675430785146 -19.640413533285155
2050 4.492082783956087 -11.907924659779068 -24.695561244726303
1581 8.248550005435005 18.32580587671023 -10.351619320968501
1390 3.415816291969531 7.604383082537437 -16.18016198654176
1032 8.244407137128361 -24.83836509598836 7.474206932084021
1045 7.014081579571633 -14.118142463849367 -3.537149551998213
627 -1.9397983627654973 6.316813784580209 -6.91677836822903
1904 8.55546031460119 0.4569287035955001 -11.363075318855756
1476 -6.793713580543415 -3.9032177766480936 -11.328355779935167
1465 0.4881138994543861 11.148323950875614 8.081824687672912
694 1.1092289603912475 12.488199749624622 -1.8735577824112055
1174 3.211061249060241 -7.158067803124614 6.818693448032511
1633 0.7024883630081853 2.5494646558503242 5.852765470129248
1397 -6.450795176634135 7.402351784159717 -7.2661713289193015
1399 33.86023818598847 13.817624129641375 17.216607436811014
2035 8.903282875646061 4.765299582026482 -19.72052644314202
593 -8.685216236375688 8.785452529348243 -7.1869098706658665
313 -4.6659164101350035 6.803266037064238 9.185374939084193
765 2.3267889146490437 4.268023848065784 1.7801669398154578
893 -10.570016739542766 -5.535150396416308 -2.0461273901727837
1857 -1.881294550625998 -4.935536959160136 5.6475501310399565
1468 13.993566458401174 1.130423366675889 -8.895592735001621
1303 -11.098656893444584 9.151660992484913 -6.591849209855174
1008 7.226878873438757 9.56162391115971 2.6073245626455614
712 -6.663191524129676 13.782555759336574 5.9930275380315745
790 -9.754655461394176 -12.462589252680557 4.284848179204803
1776 22.38687547776414 5.408041287900328 -13.673712744070754
1058 -0.8110626857160376 3.6986172080759747 -5.653569287804921
250 -8.883894248018116 17.802160379731642 -11.644115879403742
1935 -10.66273332424764 -0.5349167135822205 -10.60441794420848
323 6.777784198078219 -0.08249899571253824 11.262629392621912
821 -9.721047001377407 -0.5884318069355572 -4.881292731917453
1418 9.150616159788044 13.158361261327206 7.099210968217164
798 7.3767636596911 -30.061390645302165 -12.800490297889425
1848 -11.410475308988925 -0.29658720265871535 -6.2076033317831225
211 -11.077052067499798 25.41816092879767 -13.25609310613892
2056 5.300484222540896 6.222910815568281 -6.331747031139035
757 -0.609021473797344 10.865401131914918 6.877880189175966
636 -4.862162958543475 16.240352262773378 10.741935997617588
573 9.26514940946994 5.034319579482439 -20.534036618658515
610 -3.859823205524311 -0.022928995625370364 -9.230373872066242
1634 -2.611042524803489 23.236221994622845 -4.001512934144797
1495 13.103458332917043 -0.03304390620764497 13.355637559899202
1609 -4.351915835192132 4.193652058863732 -13.212439067053605
1568 4.0909682709682444 -6.344570366906075 -3.9333675722500967
2153 -1.927481251003907 -19.253535806578178 20.662844901791324
1906 -3.112103465648506 2.36930471685208 -18.220066181663043
793 -3.3609387083126254 -8.707778853030593 -3.3128712405133025
1546 7.537912001173352 -1.5039342001289688 9.034083384354755
279 7.545568295458573 8.076495225792309 13.095876633841101
1211 -13.143917798361583 -24.757950746691574 -8.179949680288612
431 47.724446649764516 -22.80878561655103 11.797984918560154
113 -4.579981855930071 2.8152654553852523 0.09084388541294613
1708 8.965249138746398 3.611862138687366 -7.708422946706047
59 -12.202867015148753 4.561051506256722 4.8550657163445265
1672 -0.4557452121809326 -2.349584019453163 4.609052820064708
115 10.78292420212458 -3.7734585653653103 0.14451052421277638
1252 -2.942490435520722 -5.417089402098457 5.265447000838168
332 -10.142264244919772 25.142293740011826 -1.1599073138628324
1947 -2.4171334861531304 -9.115689136996538 -0.07139454150505026
274 -24.9662093467114 -5.881104314897355 2.136667522609296
1644 -9.736061270654165 -11.793361592822743 -21.726390488543284
311 15.475308982417097 8.661031612804754 4.767089825907626
276 -2.363414575511272 9.485741703780231 15.06715857926592
1136 -14.257626776948984 3.7566646972690556 -7.9521085691046745
2137 -4.44183802923094 8.3071969352259 -2.0526693173989443
1584 -1.1760407108142767 -0.5737628411336665 -2.503755706420538
317 7.318555063198991 20.290948490066988 -23.528627172199236
1108 -6.031562854488802 -21.64025634415548 17.90239430194674
656 12.075932503676116 -6.052773669353686 19.413950802317284
177 -7.049673666970782 -1.60875904675533 0.09286660599540672
1949 24.025024843237734 33.93199652522764 -6.879873106797335
339 12.195503441409912 -6.047224122536524 2.1415391637714984
1579 28.285725961725166 -9.926237038850557 -15.06552817497669
1693 -9.714840309612995 -2.2181055083925743 0.1479424026742964
249 26.963052726214087 20.634344127269497 -5.190933252496577
958 1.6942912950404097 8.962108661865251 -7.3039829327014605
2000 -29.46713416195801 -7.106678655203323 7.833937899599622
1357 -13.149931775443665 -3.607469123997415 -24.44908651872965
1509 -26.969066425036132 -2.4434389539893737 21.60372400571144
31 5.106471690311513 -3.029040542826507 11.530513962007982
1729 10.439542459698098 -3.117759498362697 8.240347654574796
957 -7.505974049560468 -0.14564544356013912 2.1120379337875184
93 -9.372002827374555 11.057999429606122 -1.891508526331237
95 -1.342720555833467 -7.823327375713891 -1.7764361869833083
990 -4.448149200372479 3.329338701735203 5.073641123383143
256 -15.530479227657667 -4.151565397370122 -28.80246217406355
1284 11.076053138474919 1.173608484471663 2.4138185396541076
1767 -2.213299812226608 8.314970653369404 2.604904347828119
128 -9.56440704629016 -7.042379176477411 -19.452160731705163
440 -11.030971657663398 -8.449723414946444 -20.80545777383804
1287 11.389878698256343 12.762480073227433 -3.3088251078393958
1098 -20.333039527696744 10.559292449406996 16.116398196298572
404 -25.82240818758576 -34.816150471695416 -9.13977154570263
546 1.5387100217646048 1.0524591709600561 -23.672109126945276
873 -20.697449727147852 5.6766540983826514 8.152244226505722
2053 15.79331456763118 7.6954787799993305 5.039315599768807
1704 -17.643919605397425 -11.261454703844734 21.30121013142879
1539 3.655395637441525 7.4701548838063 -25.20050348164297
46 -3.6642178258575666 -2.6333771748433747 11.011301823138506
1123 20.91992887327469 3.919932839187052 -4.068794217828887
1344 21.104341273400205 2.255951646505149 1.0237990410009579
822 16.47936347928334 12.312179989070026 -25.543093124678183
781 -9.414646886312166 -6.216448595879039 3.5816298066176935
2159 -15.862803997680713 2.2894292863635006 12.22236479583644
797 -36.06133337275393 1.4875390960747037 3.142780460119381
1047 -0.4981446362961616 1.2954954352695258 13.614538066877765
1770 -31.471943913510078 24.535601140324502 -10.273166239827228
1748 -8.489611459384289 -0.5186837824357945 -15.244939942638165
1666 2.749282548455255 2.0649808640229574 5.265162426789449
847 -28.084376928047224 1.3171443633464606 -5.9114287077842675
1466 -15.683506349663501 -14.680437822847416 13.278025330921844
191 0.5141662668971153 37.20551026682005 5.110281009086688
1618 -1.6577297390787225 2.2945311384531353 18.732670334508125
1985 -1.8409237268647662 -18.280272740011668 2.7024061152032366
289 6.91382023127572 1.677388852556792 19.586529003175162
324 -4.149197592888708 -7.429416388700107 -9.960027093113808
629 -14.481394574435242 -2.5807111499873177 -13.58868088419572
132 -1.6923031737915342 11.490757272530455 2.740546183007266
1504 -3.768404589143683 -8.960251549992034 9.798533171234496
603 -3.181436429350885 13.759977483733934 -0.8797368475693385
1125 -6.676491955138535 -0.24403408260576015 30.948622610119823
1802 1.8231937888790013 27.40673181425611 -2.408970039842624
464 -2.709557422655929 10.486541445088495 8.8060934113326
1772 -7.389847151133479 -4.201890376578827 -12.347270912919294
1743 -13.464432812293852 -5.773092268318696 -18.12484596473833
1833 -26.585784208436156 26.82635522238922 -2.2412606767409677
1779 -13.812929574678861 10.765799494828707 -6.070106940591685
1225 16.292392078291094 -6.556423804621346 -3.2879365444321182
1593 3.6462226159140965 -16.4904481948299 15.411508730171924
1795 8.110177223882063 -11.142310712520837 9.133248832289292
1628 1.1259636952041563 -6.477632923275174 -13.2486924387206
1202 -14.324577583080211 8.873099877917308 -1.4361565522659678
558 7.053286694360577 11.256205626721657 -0.8468049864636269
692 28.27296685014805 -19.323010899325833 -2.1165072347421585
362 7.655900826124301 15.532392279496463 -2.261601166615709
1377 6.991896733093722 7.383703737674045 3.778999163120532
1750 -8.416275671840724 -21.061382380944732 23.037291590862445
2148 -4.209860931229451 16.27522556891183 16.195598995739473
294 -3.512539927284588 9.466355821862809 12.437007663858608
2040 -4.113447497903582 -10.377923890340432 0.2518235285095722
40 11.307070910956758 -4.443929821652277 -0.06568570121411178
1328 -4.937662362367083 4.98149472308938 -19.008019638636807
244 8.849845837422068 -7.702104503567488 -6.750020080257049
1054 13.95573253489495 -7.745898131250835 28.448528170514507
545 21.864190799524607 -11.770756962227289 -9.023448717390188
1078 34.75823086312558 19.72801617175926 -0.023488648921261637
82 10.442655322688971 1.0543182949325194 0.4115886748988317
1157 -3.885759497448641 -8.32490577630942 -7.41454859229164
2043 -6.1285218813622695 9.136848201426963 33.12744450793612
936 -1.3514060068561684 -4.210147088378239 -22.084035447902124
390 1.766229263723233 9.533526071134048 -0.4276235623319411
501 -5.6011530970191306 -10.440327280213445 3.9941218604553836
1395 -4.85747593070471 7.073936044976775 -14.741682886782447
862 16.016340322745112 3.0881297440194553 -1.5537104197916252
430 -8.121094486976892 -16.192517877768005 -2.101149669868406
1588 -0.661437285969218 10.23629746133742 0.6884072036039794
2024 13.111519698070804 -11.266331022434848 12.041446715175542
964 -0.40984421198602394 -4.531521619761292 -1.210367866565447
1435 28.367228578483815 17.010278570773625 6.835750309606546
1011 2.6743719697437007 -9.36473824499631 -10.1310229955092
1160 10.73226287966031 15.802691652882478 3.3823743542798868
1177 10.054926770982302 -21.169039597951432 -10.641542217961096
1138 19.399221980636813 2.4495339052124656 -13.173764311929226
475 -2.4798371166781688 -15.579664137358392 5.441250584595887
2011 -18.621488005622055 -5.470472751044036 -6.744823751776205
1909 -0.5771505414917664 -6.899195296720236 -5.1716261625401385
742 7.2292201955988045 3.5389102656072104 1.05762042470497
748 4.765425098755561 9.939554811645605 -3.908590477611424
1559 -19.39950223028321 1.2195115204917828 25.046460627696273
1831 1.8077366002650836 -11.38109559449094 -26.454662526901075
968 5.668804260240309 25.290850105012673 12.504720915274138
373 12.512867663510931 2.113029718656673 18.24105433828541
1232 2.5290828333462 -1.6152562298779867 18.52157423853845
1117 -1.239151388475255 14.79755274871161 2.448327583266295
809 24.984638891509725 11.178871652640586 -20.656593200762618
181 18.48427658724171 -3.4328418649151464 -7.9070005739962586
204 -4.9777892424335715 -8.70875860774352 15.837482189678694
1812 8.652560697093154 13.548633717206673 5.004099813334613
369 13.758483869098196 -6.391489453598652 -11.222008696480481
1116 -1.53017407857149 7.981203393709639 9.280512661805586
1075 -18.709254982252197 -35.11737496613337 -12.510202343048018
377 22.884881299069967 -2.729297687930761 12.787585726602249
1454 5.290835441735052 -4.248886909405589 7.326724516336937
406 1.4014325792133646 14.900717563131565 -17.77313556810964
258 5.8782062563625175 -0.9480640298067383 12.753089322361506
1946 25.735969474839024 0.4219214049511913 -2.0971953343505376
1496 18.827304111929084 11.10465909262532 12.381631185666896
97 -0.9995940746439862 -9.189041400858887 4.5210179073267724
1595 -11.917914911469216 16.228895976357695 -14.270552820011831
1741 3.5412470893917454 7.030259621698391 -9.1589563840712
1280 4.5269366145065035 -7.225271980128345 -5.531114828799962
872 28.737474808962617 -5.982295543195314 10.618926867623797
456 -1.69525300814722 -7.283365741589159 -1.8477545874551367
2042 -5.015231830086896 5.439104358235573 -21.34474650791421
165 -11.500700773442235 -2.4984848766414447 5.292485744106232
25 14.82439994491078 -3.7730538794377346 -0.3380476607519788
1419 8.239518933253752 13.439045092131101 -0.49765727142375915
1891 3.7645523718655687 1.1462542431623182 0.1384455048287379
716 -4.8231888302079655 -8.070892707797906 9.162650175354967
861 -6.505312783544057 0.3613638159567867 10.275953691498204
1679 4.383085922048931 19.795570950160815 10.016015446213421
685 8.324236989147838 -2.548007309570421 1.769431940916989
755 8.467794845168353 1.311484496908989 2.473900058270154
172 -8.053798240905007 -1.8248287075635283 2.9944677410496228
1367 -8.764893345719623 -0.2555599591845395 12.08071680059342
269 5.171264416597378 23.645720382748898 -12.39243025312026
1786 -2.9987278060180023 -10.006750033884439 -21.4111685972631
1359 10.27741376849775 5.583756779257291 -3.2014003745697925
570 -2.0563729647149964 -10.06762789264256 -5.516722781592919
2004 -4.926919216031522 -2.535930218331386 -3.376709023692014
1439 7.602439190183104 0.5190067915200086 16.517954282135374
356 5.218011677509256 -15.36480225272344 30.57355116894464
974 13.756286860934166 7.25308074538685 29.335954742094632
1661 -0.7192005082429545 -17.20699062393635 4.78281618055124
17 22.90479425318129 -17.93921574788162 -11.894857069072858
1510 -2.1323375730511294 -16.583834643758987 -5.663114237257763
547 10.285919219866752 -5.660084484966299 -25.452590780648656
2078 -4.923223310973293 -5.212651425319825 -4.618465998235532
358 7.869880790810503 1.9753415386698499 -5.166562633064135
422 7.83002704381152 -13.400393222060767 13.905795794243566
563 -6.017404876383581 -9.410821468231685 13.417749697796031
994 -5.103997067502935 -16.535995424481136 -14.605658190457433
1827 22.877807319157885 3.7907898030679252 -0.7714435179167141
813 -2.828132574549668 -14.141676344040789 10.3421783534596
43 6.297076380882669 -22.229227061171873 -0.6897680488710485
221 3.6667649079632976 -7.659102534745946 13.812932665238462
854 8.327856895092498 5.258288906712164 -4.77863050734227
1447 5.313346139363531 10.195046472956474 0.9429889110769162
1950 -15.422046864982569 -10.00840366579531 -3.5139966005324736
397 -12.02485790432318 -0.48848198808888876 3.172279838190392
1862 -7.966729652707457 -6.879557056568532 2.222727281851377
766 -5.107005908101742 -11.744469925352126 5.831897858648507
1402 9.470369212470338 9.185463218839837 21.237893471514106
351 3.648822343672762 2.9053556099074074 -2.190611820616482
1744 14.393971314908285 -8.014037915291722 -3.639319881690636
689 -12.276657738365898 0.49832694584064113 10.374304843391002
2107 -2.8108318571737443 -20.179272781533555 -6.305972843601731
287 16.67774005919474 -0.7872184360955828 -1.6845706555688025
442 -14.170039207504622 -12.87513881557242 -8.105907179888113
412 3.946875682927559 -4.401111576830875 6.429425791461944
1574 12.953505885391587 -5.422200833023552 -9.804751011799292
900 -8.716988067601331 -8.294710609457598 -2.510989561641801
26 -0.24844846749466995 5.5781016150880145 1.056389698821578
36 10.142639138578625 21.968677049404345 -17.263584343887647
705 2.6660522199358105 9.147892560597557 -3.849376223869557
1871 -4.555220816243202 -9.571630697033221 -13.504973183924507
1631 6.752874253573674 14.627511804332805 -8.984280635081966
1204 -17.445606173258227 -1.5632225838995264 5.009758022998222
1086 8.597002700513322 2.2181218434209358 -20.810053638453155
85 10.3020872830563 -2.4581903118913098 11.649988276695103
2071 5.288996580827663 6.963000262884095 -4.052551118391494
2099 -12.085720903446147 -22.90696989600067 -32.52564702954552
526 -1.7805336617471061 -8.150718450362348 6.266099318654223
446 -17.26158829482324 23.397912262072868 14.230239932908392
1937 -18.420806087375286 9.814657515745552 0.37290967312247775
582 -22.53174737691907 5.99729731410034 6.987427518447616
92 1.0390421180581704 4.4257283823803855 15.060375004498749
110 -0.9892161624166453 1.5425015082953846 3.7243325540195458
923 14.321061384233536 -11.398022596511456 -15.120363882746778
683 -7.558318121033133 -0.10352098515508766 -19.744288594969117
783 16.901568219160332 -10.297771656676366 -6.690038480468044
427 -10.288947543654581 12.011355667195618 20.756480807560333
2018 0.8841195185907221 0.5741942638740578 0.09523269791508784
1605 -25.342412357477055 -17.942257574301514 -23.469508183691612
796 6.76724802821371 12.911694856528804 -4.48350623149702
1387 5.502361713627467 -9.972796418269613 -5.268914388325436
977 -21.06004979535168 8.251269759624162 -19.914657395008124
426 -10.130853081410264 -3.735115743328382 0.5226663872437997
1543 0.22206363826549463 5.40232232164523 -1.4213797414850327
1972 13.877645175977866 -7.645950005879359 -4.9608560239312505
380 16.03527198956185 -6.297819109564153 -23.763450076459108
1713 8.677028531674368 -4.631655328790218 2.4556992886400986
744 10.493454630200722 -3.9173746587998513 -2.184013098834983
1469 8.021804072937677 -6.801397732416416 30.397979391884682
996 3.322230343523828 -18.54067104553212 1.174815761895209
1552 -2.340581146662028 -4.047196032929815 8.044858132579826
513 6.814416508379955 0.7621950282414545 12.850997758642647
831 -1.923622151406038 -4.216077234562065 -17.44746119913479
1889 -23.08504901371554 22.019156695339756 19.68349803461427
1330 7.997341292860594 12.979186639201712 -0.58070836738415
1288 -3.608575663964448 -4.444436548453489 -5.792809671280673
1235 11.115612652443446 -13.420728193839608 12.53579029083274
987 -7.502806673100049 2.101673678882332 -9.128384922379281
739 -15.405979404050358 11.419037186471297 18.015906418348568
58 -4.935181836318985 5.234343754461401 -17.80198842631368
528 -14.215213393573423 -11.419239294006475 13.65443944439251
680 -0.6018422583730106 0.46318389438287655 6.813722418775316
1200 11.31477268139178 -9.929634007337889 -11.372399821182121
819 5.296996339755741 11.33490072560581 18.4977195241207
931 5.375194336736232 10.688675535252857 7.771934215834752
1281 -10.688874117483046 -17.779445278348177 0.556489809825129
333 10.088077065094398 9.4946071318879 -1.8796327468899023
206 -8.568536077804158 5.372547652212856 -20.531783474128325
2074 16.308999203592336 17.598735362129908 -13.56596667997853
44 21.00514984681658 4.831453395238299 15.629185067834369
1992 4.343516836024995 -15.011335734087048 -5.574936423229003
100 -17.239293560446285 -0.016535850529869042 11.578374853452658
1260 37.57951934490828 -15.928502563119345 27.6053353044111
1057 11.644330059829532 9.593029630248829 -2.3218894919665387
140 4.473176762606757 -12.548792474707897 1.2697333301578488
1879 28.594801172631467 -3.810201978010964 -12.955318117250625
1872 -7.234094787172868 -9.491794126548765 2.6765924396177017
495 -16.394813070135267 -3.507640745320758 -4.315708181012315
1512 10.604295674656761 -2.7562076247086025 -31.14302605604643
1438 1.766220004602451 -4.571878780139405 31.030299713554495
1671 2.0702037888344087 19.353285093010225 0.6619477349639413
2139 8.987564445507584 -3.3130674400847755 -6.488020325724977
336 -3.353951655481636 14.476353642211672 -2.9055757640613367
114 -13.357335793482845 11.621486062869302 20.152478072286712
98 3.5325496490793094 7.43312950913753 5.8006854365589415
120 24.651916788822895 -6.082670466674345 5.534931319015715
383 1.6612698138178845 -12.797559610092824 6.7123016889870994
1660 -7.560159038622326 6.966786518316571 -12.422949488395936
681 2.554916951821261 -16.959774013494926 -25.063899706066977
1062 -1.863701766004206 -9.853016387244224 -10.075398929538496
1551 0.3074260341053489 2.476989679741379 -5.591011349660708
1091 -8.120709394321873 -13.158249763733888 -28.561745100530676
1936 9.78148505900835 -1.364370728201385 0.7140197396099535
839 2.965645018168865 -4.0638907797595 -13.655200628322499
622 22.440450113005816 -8.937576451412895 -5.863567512791167
1573 10.112629567449558 -0.2067772160937787 -8.726182049619975
1843 2.8555848637835273 -20.46878717026112 -1.9993018684725696
1050 11.368982323539376 -8.549310153014481 -22.305699544660058
1901 -19.747399740943614 9.979278595294383 -12.79868417391534
842 11.710413516541033 -9.754412879500842 -11.911980230222605
1081 14.098237663089321 11.599442651289745 -4.353301551794192
881 -4.488292445094787 -5.577969355153084 -9.26944170459358
1643 4.900361950427733 -22.648283263107942 -12.862239042207099
463 -26.08756325040509 -5.02569780598667 8.68628015872738
1297 -9.255440802809803 0.45061383492836665 -15.039836408576456
18 -14.443708953813205 -9.262143062838646 14.34917543376022
2143 -10.168780407936234 0.29358642423104747 11.577497135760273
1154 9.51654255425005 -0.005292359026532108 -23.467843695081562
624 -6.763112927516043 8.350183163303273 1.2416319529852515
1264 -10.123574436940403 1.9435169107870418 -0.7724540979336565
215 3.030579873452754 5.350164919126139 4.420962404224926
1018 16.971715063343556 5.463685307892628 -7.320319077869797
12 2.7630932643261676 5.067528294045777 -11.74248411207657
2031 4.490011166914064 13.775097806551374 10.199262399062748
787 21.884052431000775 7.624463145054966 -26.84382054440776
799 39.79532993453225 1.0331365475756586 10.710970383424945
2038 -3.7811492336902597 8.4498207793762 17.43297883733689
393 3.7219696563372144 9.261105467507623 -26.78957088705715
874 16.752792933374256 22.52896808747994 -2.1787965321828238
540 -31.045170292336426 0.0899656243223024 -19.459825527506478
1945 4.770723958427943 -21.811989845767336 -0.6213437562031742
772 9.220097686675398 -3.2212165207017605 15.902818608814732
199 -10.421659986311274 -28.319836794307843 -8.398434507710185
1586 -6.390746141032732 11.149714681825982 1.9833518704960011
749 -3.2443865940417256 6.688439445964172 5.268925221590928
1021 -5.976331260332732 3.08596249531573 -7.174430015587304
420 -13.54206290739741 -0.2037100048278084 -8.063880341540282
1484 16.6811106983128 -7.954028630535973 -15.791834825216931
1902 -15.77759727434429 -13.998342343242154 14.449144911193038
37 -8.033758841701676 8.161081462771909 -16.637416321286157
701 6.849901345921925 -4.316146975210795 10.233142681238034
1754 -5.2446381311581645 2.0914752422093663 13.552643351276288
137 -4.324884775830422 -23.083416443454922 -28.981289242707103
514 21.249488011652222 6.050297709793273 -4.769219858483329
530 -6.3513851488578075 13.81487380974084 -17.018762432091492
1436 -5.340511666101708 22.46867154937605 9.898132793895353
1797 -1.602187543626621 9.880420983418944 0.7794261882154467
832 -6.231965338108297 23.87708468990891 -0.3718788391839392
1085 -16.01192878879928 0.19881684917470127 -21.51489761966716
48 2.243314958427405 -27.312809916343408 10.74686777724394
239 -4.426069768123539 10.325929449952378 1.6837747975095194
230 3.148858643684125 7.4164469137161735 -6.18101831561189
1016 8.797649564940695 9.87941265826282 8.83840117653881
396 -20.31665413198066 9.430803777670718 -0.5503056596807849
1698 6.998347023048217 -3.8135338824941396 2.9037201374646555
2090 -4.46499924116036 -2.4687009385542087 -2.1929525656556232
1424 15.947736379101372 -12.190851870213937 -0.149878495100026
1237 -3.056878134341105 5.281068844693165 3.6625748492734598
345 16.291320255917764 21.57547982628649 -4.744536536009599
1652 20.762741343577677 9.481150906587919 -1.2517434167062162
411 -3.1154743325000678 -6.159134749725888 -12.489227527887762
1583 13.913224696722441 4.074360799491766 7.676383478542926
1993 -3.229999035776344 8.411605586270008 4.7724842685887205
1817 -2.894299067068904 16.388284151203475 3.3123289126713025
338 -5.267114810798883 17.959657117811613 -12.334697340471001
1449 -21.660394062545965 -7.594110995527102 12.832979886382164
2136 12.971999549483272 1.7579532262565059 13.2711977756165
2112 -24.402534369765018 6.103890545240823 -9.811760667268853
1020 -6.562389343978382 13.454274710994394 -26.987722024422208
1885 -1.9163655921005722 -2.9853097942582507 -8.40784005979781
1306 6.460280810243299 -7.47444174219773 16.74270705110637
1890 -0.7196527684453063 -32.51231209845598 8.441218093347779
2149 4.227035620491781 -7.021908434145144 1.8499671423222892
2030 11.190666635692617 -14.423146668573331 8.567933182474846
1382 -1.0158503048760419 -8.409722534825214 2.884235017462272
682 -3.9868459373677916 -20.639246696525852 19.46415128005433
1151 -8.641384839833353 -13.821328576935489 -9.288871814962128
1674 -6.580159828030291 -12.686227442836497 23.236494065686795
1549 -0.3358010648421899 17.23527745204119 -6.790245492322383
1122 -7.184554478021996 -19.084431765376472 -23.805584700189655
1845 5.028295496804475 -21.31241889678282 -19.97296897025626
504 -10.870726392359062 -12.845596488497574 0.9316021321845861
366 29.148201182254873 -12.297403552110639 13.308979336005494
1585 6.94469922507114 4.462776057834131 4.258533666117745
212 14.00752121582005 2.202664555210877 24.08987534236912
220 -12.245004934469954 13.944730873865684 -18.63410272414503
652 4.248215320028776 -13.676922454999097 -11.154341637776525
391 2.632649135222142 -11.285396815113119 17.745267060116895
1500 -10.007034445603534 -10.504163952536254 26.472108398670194
265 10.840046178902629 -12.467626439928534 5.527847255690541
1194 -6.057606160313135 -11.805013833712797 -15.215138860610807
1621 -0.3449564446835866 -4.153926216585806 -11.566410929144828
125 -9.985556000178208 19.197391032685942 23.60245565905572
1654 -8.142854764218015 2.7779083602163084 3.510120955922987
826 15.410809397372995 -15.319059698183544 -8.251437021290327
198 10.018984248655697 3.873068075778928 1.6718941651748105
782 0.2729230570558537 10.3774315471322 -4.876054858209742
919 10.602816272494406 -12.71767403214863 -29.458711924959758
1170 -18.907152758645978 15.290848750810119 -6.141142225616599
1275 -12.141475513346487 -0.6917978615778645 2.239856082677295
2049 -3.515049014545441 -14.060386807026983 19.499407427205732
1991 3.092288428149878 -4.1199148477766725 -8.780087301814012
719 22.317991836766215 4.88647310380686 -10.62574374853244
1267 -15.224415719338726 -5.270885132663229 18.98651231623927
1725 -11.55709674446552 -15.02028287814288 -0.05045230153355131
227 4.287614994348663 -16.600092520799386 -5.16715597901669
1251 18.840017232439376 -2.007927835010344 -10.751495594066265
1914 48.744340261000225 -6.933558000434767 -1.9678257076587324
633 -10.694278779238132 14.99888613564265 -3.166643732947038
2077 12.90011504977486 2.5894060198004953 5.829837692302444
35 8.833735763150608 -0.8351881130708767 10.650188171468185
2029 -2.795180469230823 -8.675393648819734 11.856256645964228
104 9.407015500227432 12.91679186877991 28.54164178575616
1801 -2.0272714835975583 -6.192829934664298 6.229868624130559
997 -0.7027554825375301 -2.89211132645662 1.51747323032817
307 7.5237036467933835 17.519093256301787 -5.0107586712856635
117 -3.1344190394624776 -10.82066797710771 5.798629808108176
