LAMMPS (2 Aug 2023 - Update 3)
  using 6 OpenMP thread(s) per MPI task
# S4-EV  0 K E-V 스캔 @ **S4 자체 melt-quench 로 만든 망 위상**
#
# ─ 왜 NPT 가 아니라 E-V 인가 (2026-08-24 설계 변경) ───────────────────────────
#  원래 계획은 "300 K NPT tail 검증"이었다. 7net 의 P300 = +0.80 GPa (팽창 경향)이
#  BKS 세 런의 -2.8~-3.2 GPa 와 부호가 반대인데, 300 K 통계가 5 ps + 5 ps 로 짧아
#  미평형 아티팩트일 가능성을 배제하지 못했기 때문이다.
#
#  그런데 로그를 다시 읽어보니 **그 가능성은 이미 배제된다**:
#    7net 300 K 구간 10 ps(평형 5 + 생산 5) 전체에서
#      평형 전반 +0.781 / 후반 +0.774 / 생산 전반 +0.797 / 후반 +0.795 GPa
#    → 드리프트가 0.02 GPa 미만이고 요동 sd 는 0.11 GPa. **완전히 정상상태다.**
#    같은 구간 MSD 도 150.9 Å² 에서 3자리까지 고정 — 300 K 에서 확산이 없다.
#  즉 이 압력은 '아직 안 풀린 응력'이 아니라 **얼어붙은 망 위상 자체의 성질**이다.
#  300 K NVT 를 더 길게 끌어도 나올 것이 없다 (움직일 자유도가 없다).
#
#  남은 진짜 질문은 "그래서 이 망이 원하는 밀도가 얼마냐"이고, 그건 부피 자유도를
#  풀어야만 답이 나온다. 두 경로가 있다:
#    (i)  300 K NPT   — 7net 으로 100 ps NPT = 100,000 step x 1.96 s = **54 시간**. 불가.
#                       20 ps 로 줄여도 11 시간이고, 그마저 barostat 이 자리잡기에 짧다.
#    (ii) 0 K E-V 스캔 — 7점 x 최대 150 eval x 1.99 s ≈ **35 분**. 게다가
#                       RESULTS 2절의 rho0 = 2.2185 / K0 = 43.2 가 **정확히 이 방법**으로
#                       나온 값이라, 같은 자로 잰 직접 비교가 된다.
#  → (ii) 를 택한다. NPT 는 하지 않는다.
#
# ─ 이 스캔이 답하는 것 ────────────────────────────────────────────────────────
#  RESULTS 2절의 rho0 = 2.2185 (+0.84 %) 는 **BKS 가 만든 망 위에서** 7net 이 부피만
#  고른 값이다. 이번 스캔은 **7net 이 자기 힘으로 만든 망**에서 같은 값을 뽑는다.
#  두 값의 차이 = 밀도에서의 **위상 형성 효과**. ring 통계(fig_rings_s4.png)와 같은 축이다.
#  P300 = +0.80 GPa 와 K ~ 43 GPa 로 어림하면 rho0 ~ 2.16 (실험 대비 -1.8 %) 이 예상되는데,
#  그러면 "7net 이 밀도를 7.8배 개선했다"는 이 프로젝트의 헤드라인이 **위상까지 스스로
#  만들면 일부 되돌아간다**는 뜻이 된다. 확인해야 할 값이다. (예상은 예상일 뿐, 재본다.)
#
# ─ 인자 ──────────────────────────────────────────────────────────────────────
#   -var s     <선형 스케일>          f^(1/3), f = 부피비
#   -var dfile <출발 구조>            prod_7net_mq.data 등
#   -var tag   <출력 태그>
#
# 설계는 in.ev220 을 그대로 따른다 (같은 자로 재야 비교가 된다):
#   - velocity all set 0 0 0  : data 파일이 들고 온 300 K 속도를 죽여 Press 를 순수 virial 로
#                               (RESULTS 8절 교훈 3 — 이걸 안 하면 virial 이 3배 어긋나 보인다)
#   - etol = 0.0              : 에너지 수렴이 box 자유도에서 조기 종료를 일으킨다 (교훈 4)
#   - 원자만 이완, 셀은 고정   : E-V 스캔이므로 box/relax 를 쓰지 않는다
#
# 실행: run_ev_s4.sh 참조

variable        dfile index prod_7net_mq.data
variable        tag   index 7net
variable        s     index 1.0

units           metal
boundary        p p p
atom_style      charge

read_data       ${dfile}
read_data       relaxed_7net.data
Reading data file ...
  orthogonal box = (-0.13095199 -0.13140962 -0.15165528) to (30.269865 30.375648 35.055481)
  1 by 1 by 1 MPI processor grid
  reading atoms ...
  2160 atoms
  reading velocities ...
  2160 velocities
  read_data CPU = 0.007 seconds
mass            1 15.9994
mass            2 28.0855

pair_style      e3gnn
PairE3GNN using device : CPU
pair_coeff      * * ../../01_input/pot/deployed_nano_4.5.pt O Si
Chemical specie 'O' is assigned to type 1
Chemical specie 'Si' is assigned to type 2
from sevenn version '0.13.0' single precision model, deployed: 2026-08-10
FlashTP: no
OEQ: no

neighbor        1.0 bin
neigh_modify    every 1 delay 0 check yes

change_box      all x scale ${s} y scale ${s} z scale ${s} remap
change_box      all x scale 0.99328839 y scale ${s} z scale ${s} remap
change_box      all x scale 0.99328839 y scale 0.99328839 z scale ${s} remap
change_box      all x scale 0.99328839 y scale 0.99328839 z scale 0.99328839 remap
Changing box ...
  orthogonal box = (-0.028932771 -0.13140962 -0.15165528) to (30.167846 30.375648 35.055481)
  orthogonal box = (-0.028932771 -0.029033881 -0.15165528) to (30.167846 30.273272 35.055481)
  orthogonal box = (-0.028932771 -0.029033881 -0.033506994) to (30.167846 30.273272 34.937332)

velocity        all set 0.0 0.0 0.0

variable        epa  equal pe/atoms
variable        dens equal density
variable        fmag atom sqrt(fx*fx+fy*fy+fz*fz)
compute         maxf all reduce max v_fmag

thermo          20
thermo_style    custom step pe v_epa press vol v_dens c_maxf

min_style       cg
min_modify      dmax 0.05
minimize        0.0 1.0e-3 400 400          # 2026-08-25: 150 -> 400.
Generated 0 of 1 mixed pair_coeff terms from geometric mixing rule
Neighbor list info ...
  update: every = 1 steps, delay = 0 steps, check = yes
  max neighbors/atom: 2000, page size: 100000
  master list distance cutoff = 5.5
  ghost atom cutoff = 5.5
  binsize = 2.75, bins = 11 12 13
  1 neighbor lists, perpetual/occasional/extra = 1 0 0
  (1) pair e3gnn, perpetual
      attributes: full, newton on
      pair build: full/bin/atomonly
      stencil: full/bin/3d
      bin: standard
Per MPI rank memory allocation (min/avg/max) = 9.238 | 9.238 | 9.238 Mbytes
   Step         PotEng         v_epa          Press          Volume         v_dens         c_maxf    
         0  -16921.591     -7.8340698      39528.847      31999.439      2.2449165      0.47048236   
        20  -16926.402     -7.8362971      15215.053      31999.439      2.2449165      0.14020074   
        40  -16926.501     -7.8363431      14735.608      31999.439      2.2449165      0.052473626  
        60  -16926.525     -7.8363543      14590.088      31999.439      2.2449165      0.040358057  
        80  -16926.534     -7.8363581      14553.044      31999.439      2.2449165      0.020497517  
       100  -16926.536     -7.8363593      14534.489      31999.439      2.2449165      0.012412659  
       117  -16926.537     -7.8363596      14538.842      31999.439      2.2449165      0.0073778344 
Loop time of 616.167 on 6 procs for 117 steps with 2160 atoms

463.5% CPU use with 1 MPI tasks x 6 OpenMP threads

Minimization stats:
  Stopping criterion = linesearch alpha is zero
  Energy initial, next-to-last, final = 
     -16921.5907811313  -16926.5367668015  -16926.5367668015
  Force two-norm initial, final = 9.4479553 0.032577864
  Force max component initial, final = 0.43476263 0.0063528949
  Final line search alpha, max atom move = 7.6293945e-06 4.8468742e-08
  Iterations, force evaluations = 117 299

MPI task timing breakdown:
Section |  min time  |  avg time  |  max time  |%varavg| %total
---------------------------------------------------------------
Pair    | 616.15     | 616.15     | 616.15     |   0.0 |100.00
Neigh   | 0          | 0          | 0          |   0.0 |  0.00
Comm    | 0.0057978  | 0.0057978  | 0.0057978  |   0.0 |  0.00
Output  | 0.00060159 | 0.00060159 | 0.00060159 |   0.0 |  0.00
Modify  | 0          | 0          | 0          |   0.0 |  0.00
Other   |            | 0.01213    |            |       |  0.00

Nlocal:           2160 ave        2160 max        2160 min
Histogram: 1 0 0 0 0 0 0 0 0 0
Nghost:           3087 ave        3087 max        3087 min
Histogram: 1 0 0 0 0 0 0 0 0 0
Neighs:              0 ave           0 max           0 min
Histogram: 1 0 0 0 0 0 0 0 0 0
FullNghs:       101188 ave      101188 max      101188 min
Histogram: 1 0 0 0 0 0 0 0 0 0

Total # of neighbors = 101188
Ave neighs/atom = 46.846296
Neighbor list builds = 0
Dangerous builds = 0
#   ev220 도 150 으로 창 끝(f=0.94)에서 cap 에 걸렸다(2-norm 0.395). 이완된 구조에서
#   출발해도 큰 변형 점은 150 이 모자란다. 보통은 그 전에 "linesearch alpha is zero"
#   로 조기 종료하므로 실제 추가 비용은 창 끝 몇 점뿐이다.

variable        Vf equal vol
variable        Df equal density
variable        Ef equal pe
variable        ef equal pe/atoms
variable        Pf equal press
variable        Ff equal c_maxf
print           "EVPOINT ${s} ${Vf} ${Df} ${Ef} ${ef} ${Pf} ${Ff}"
EVPOINT 0.99328839 31999.438676874 2.2449165494537 -16926.5367668015 -7.83635961425994 14538.8421614057 0.00737783441484293
Total wall time: 0:10:18
