LAMMPS (2 Aug 2023 - Update 3)
  using 1 OpenMP thread(s) per MPI task
Reading data file ...
  orthogonal box = (-0.13095199 -0.13140962 -0.15165528) to (30.269865 30.375648 35.055481)
  1 by 2 by 3 MPI processor grid
  reading atoms ...
  2160 atoms
  reading velocities ...
  2160 velocities
  read_data CPU = 0.017 seconds
=========== BKS MELT EQUIL 4000 K (NVT, 20 ps) ===========
PPPM initialization ...
  using 12-bit tables for long-range coulomb (src/kspace.cpp:342)
  G vector (1/distance) = 0.29696104
  grid = 24 24 27
  stencil order = 5
  estimated absolute RMS force accuracy = 0.0014110636
  estimated relative force accuracy = 9.7992942e-05
  using double precision FFTW3
  3d grid and FFT values/proc = 9424 2880
Generated 0 of 1 mixed pair_coeff terms from geometric mixing rule
WARNING: Compute rdf cutoff less than neighbor cutoff - forcing a needless neighbor list build (src/compute_rdf.cpp:179)
Neighbor list info ...
  update: every = 1 steps, delay = 0 steps, check = yes
  max neighbors/atom: 2000, page size: 100000
  master list distance cutoff = 12
  ghost atom cutoff = 12
  binsize = 6, bins = 6 6 6
  3 neighbor lists, perpetual/occasional/extra = 2 1 0
  (1) pair buck/coul/long, perpetual
      attributes: half, newton on
      pair build: half/bin/atomonly/newton
      stencil: half/bin/3d
      bin: standard
  (2) pair lj/cut, perpetual, trim from (1)
      attributes: half, newton on, cut 3.5
      pair build: trim
      stencil: none
      bin: none
  (3) compute rdf, occasional, trim from (1)
      attributes: half, newton on, cut 10
      pair build: trim
      stencil: none
      bin: none
Setting up Verlet run ...
  Unit style    : metal
  Current step  : 0
  Time step     : 0.001
Per MPI rank memory allocation (min/avg/max) = 6.133 | 6.148 | 6.163 Mbytes
   Step          Temp          Press          Volume        Density         PotEng         v_epa        c_msd0[4]   
         0   4000          -26847.887      32652.488      2.2000182     -40315.191     -18.66444       0            
       500   4064.0977     -24408.057      32652.488      2.2000182     -40312.249     -18.663078      1.0274886    
      1000   4064.2731     -21712.176      32652.488      2.2000182     -40289.007     -18.652318      1.2909471    
      1500   4033.562      -30448.017      32652.488      2.2000182     -40309.116     -18.661628      1.4031359    
      2000   3936.429      -12838.005      32652.488      2.2000182     -40358.263     -18.684381      1.6847529    
      2500   4032.8005     -21352.738      32652.488      2.2000182     -40298.445     -18.656688      1.7671019    
      3000   4051.6194     -20380.965      32652.488      2.2000182     -40314.388     -18.664068      1.9921783    
      3500   3974.6636     -26638.326      32652.488      2.2000182     -40324.412     -18.668709      2.0446718    
      4000   4066.0688     -33768.527      32652.488      2.2000182     -40329.426     -18.671031      2.3113029    
      4500   4050.935      -27526.038      32652.488      2.2000182     -40311.455     -18.662711      2.4470056    
      5000   3959.6336     -27355.484      32652.488      2.2000182     -40318.325     -18.665891      2.7699165    
      5500   4030.8258     -27348.187      32652.488      2.2000182     -40331.145     -18.671827      3.0089688    
      6000   4124.7151     -13999.937      32652.488      2.2000182     -40362.887     -18.686522      3.0759356    
      6500   4020.5603     -22100.411      32652.488      2.2000182     -40375.269     -18.692254      3.1768431    
      7000   4042.9068     -22947.755      32652.488      2.2000182     -40283.851     -18.649931      3.2073973    
      7500   3966.2368     -23186.732      32652.488      2.2000182     -40312.537     -18.663212      3.2686431    
      8000   3906.5618     -18853.557      32652.488      2.2000182     -40274.709     -18.645699      3.5215273    
      8500   3983.9893     -21379.888      32652.488      2.2000182     -40291.742     -18.653584      3.6304454    
      9000   4013.5707     -25075.499      32652.488      2.2000182     -40295.704     -18.655418      3.8869265    
      9500   3982.4715     -28285.281      32652.488      2.2000182     -40322.474     -18.667812      4.2193042    
     10000   3944.0958     -23448.43       32652.488      2.2000182     -40309.427     -18.661772      4.2485145    
     10500   3899.4029     -24444.425      32652.488      2.2000182     -40286.322     -18.651075      4.5786259    
     11000   3841.1669     -25323.228      32652.488      2.2000182     -40299.25      -18.65706       4.9510014    
     11500   4156.7202     -23968.794      32652.488      2.2000182     -40268.612     -18.642876      4.9721048    
     12000   4013.0049     -24011.16       32652.488      2.2000182     -40359.262     -18.684843      5.114178     
     12500   3990.1081     -27375.036      32652.488      2.2000182     -40334.292     -18.673283      5.3056215    
     13000   4014.0231     -24079.926      32652.488      2.2000182     -40329.197     -18.670925      5.4086937    
     13500   3906.1571     -26213.998      32652.488      2.2000182     -40356.277     -18.683462      5.5753864    
     14000   3982.2696     -14883.99       32652.488      2.2000182     -40312.069     -18.662995      5.8119576    
     14500   4127.8575     -19422.909      32652.488      2.2000182     -40336.613     -18.674358      6.0023497    
     15000   4037.2566     -20620.306      32652.488      2.2000182     -40275.165     -18.64591       6.1475592    
     15500   4108.233      -31634.233      32652.488      2.2000182     -40330.584     -18.671567      6.5476808    
     16000   4077.1151     -18275.403      32652.488      2.2000182     -40326.868     -18.669846      6.6266896    
     16500   4018.3976     -26048.206      32652.488      2.2000182     -40325.761     -18.669334      7.1210244    
     17000   4003.8055     -16596.994      32652.488      2.2000182     -40291.519     -18.653481      7.1419485    
     17500   3894.0396     -20788.418      32652.488      2.2000182     -40365.107     -18.687549      7.318757     
     18000   4058.4903     -20639.952      32652.488      2.2000182     -40285.734     -18.650803      7.4047431    
     18500   4007.8266     -28687.806      32652.488      2.2000182     -40369.348     -18.689513      7.6102093    
     19000   3937.9048     -30226.86       32652.488      2.2000182     -40336.22      -18.674176      7.8498922    
     19500   3998.9966     -22829.33       32652.488      2.2000182     -40329.333     -18.670988      8.0255823    
     20000   4069.0662     -31772.69       32652.488      2.2000182     -40361.283     -18.685779      8.263109     
Loop time of 34.1675 on 6 procs for 20000 steps with 2160 atoms

Performance: 50.574 ns/day, 0.475 hours/ns, 585.351 timesteps/s, 1.264 Matom-step/s
96.9% CPU use with 6 MPI tasks x 1 OpenMP threads

MPI task timing breakdown:
Section |  min time  |  avg time  |  max time  |%varavg| %total
---------------------------------------------------------------
Pair    | 20.595     | 22.178     | 24.244     |  24.8 | 64.91
Kspace  | 7.1366     | 9.2456     | 10.822     |  39.2 | 27.06
Neigh   | 1.323      | 1.3772     | 1.4433     |   3.6 |  4.03
Comm    | 1.0423     | 1.0714     | 1.1272     |   3.4 |  3.14
Output  | 0.001549   | 0.0016321  | 0.0020262  |   0.4 |  0.00
Modify  | 0.17934    | 0.18688    | 0.1944     |   1.3 |  0.55
Other   |            | 0.1071     |            |       |  0.31

Nlocal:            360 ave         382 max         336 min
Histogram: 2 0 0 0 0 0 1 2 0 1
Nghost:        4717.67 ave        4759 max        4693 min
Histogram: 3 0 0 1 0 0 0 1 0 1
Neighs:          86127 ave       95322 max       76631 min
Histogram: 1 0 0 0 2 1 1 0 0 1

Total # of neighbors = 516762
Ave neighs/atom = 239.24167
Neighbor list builds = 1011
Dangerous builds = 0
=========== BKS QUENCH -> 300 K (NVT, 100 K x 20000 step) ===========
PPPM initialization ...
  using 12-bit tables for long-range coulomb (src/kspace.cpp:342)
  G vector (1/distance) = 0.29696104
  grid = 24 24 27
  stencil order = 5
  estimated absolute RMS force accuracy = 0.0014110636
  estimated relative force accuracy = 9.7992942e-05
  using double precision FFTW3
  3d grid and FFT values/proc = 9424 2880
Generated 0 of 1 mixed pair_coeff terms from geometric mixing rule
WARNING: Compute rdf cutoff less than neighbor cutoff - forcing a needless neighbor list build (src/compute_rdf.cpp:179)
Setting up Verlet run ...
  Unit style    : metal
  Current step  : 0
  Time step     : 0.001
Per MPI rank memory allocation (min/avg/max) = 6.134 | 6.212 | 6.545 Mbytes
   Step          Temp          Press          Volume        Density         PotEng         v_epa        c_msd0[4]   
         0   4069.0662     -31772.69       32652.488      2.2000182     -40361.283     -18.685779      8.263109     
       500   3864.0236     -27572.712      32652.488      2.2000182     -40351.033     -18.681034      7.9890652    
      1000   3930.5153     -26469.228      32652.488      2.2000182     -40350.561     -18.680815      8.3259006    
      1500   3968.227      -20177.116      32652.488      2.2000182     -40343.378     -18.67749       8.4322376    
      2000   3995.9946     -18559.219      32652.488      2.2000182     -40318.199     -18.665833      8.5659465    
      2500   4060.806      -26107.768      32652.488      2.2000182     -40359.038     -18.68474       8.7672133    
      3000   3977.8169     -25159.09       32652.488      2.2000182     -40373.802     -18.691575      8.8612119    
      3500   3866.9927     -21072.652      32652.488      2.2000182     -40341.803     -18.676761      8.9309484    
      4000   3985.4275     -32761.617      32652.488      2.2000182     -40339.947     -18.675901      9.1421212    
      4500   4081.4248     -29460.682      32652.488      2.2000182     -40350.487     -18.680781      9.1705067    
      5000   4124.2105     -26188.693      32652.488      2.2000182     -40356.846     -18.683725      9.3996713    
      5500   3883.9304     -20390.943      32652.488      2.2000182     -40370.381     -18.689991      9.4635599    
      6000   3936.2419     -26890.877      32652.488      2.2000182     -40365.992     -18.687959      9.5730112    
      6500   3930.4786     -22850.348      32652.488      2.2000182     -40322.164     -18.667668      9.6563267    
      7000   3903.5041     -21912.028      32652.488      2.2000182     -40395.683     -18.701705      9.4576042    
      7500   4051.0651     -27725.528      32652.488      2.2000182     -40381.244     -18.69502       9.7668602    
      8000   4018.9885     -24940.464      32652.488      2.2000182     -40326.37      -18.669616      9.8436803    
      8500   4072.7789     -24955.817      32652.488      2.2000182     -40368.628     -18.689179      9.9732055    
      9000   3890.8604     -21146.257      32652.488      2.2000182     -40352.491     -18.681709      10.342583    
      9500   4019.1644     -23432.193      32652.488      2.2000182     -40343.088     -18.677355      10.222055    
     10000   4094.7342     -16143.025      32652.488      2.2000182     -40352.887     -18.681892      10.481316    
     10500   4014.9712     -26487.66       32652.488      2.2000182     -40378.029     -18.693532      10.696502    
     11000   3939.5739     -23274.704      32652.488      2.2000182     -40369.838     -18.68974       10.964541    
     11500   3914.3913     -26638.403      32652.488      2.2000182     -40346.558     -18.678962      11.219093    
     12000   4091.2283     -21442.908      32652.488      2.2000182     -40355.274     -18.682997      11.318274    
     12500   4039.1149     -29565.148      32652.488      2.2000182     -40367.646     -18.688725      11.464148    
     13000   3976.1864     -24856          32652.488      2.2000182     -40329.676     -18.671146      11.507415    
     13500   3932.3088     -26538.457      32652.488      2.2000182     -40357.643     -18.684094      11.696568    
     14000   3808.8581     -29930.038      32652.488      2.2000182     -40349.053     -18.680117      11.813959    
     14500   3976.7428     -26322.647      32652.488      2.2000182     -40375.606     -18.69241       11.952934    
     15000   4015.6101     -27448.942      32652.488      2.2000182     -40342.097     -18.676897      12.056538    
     15500   4088.9682     -20537.905      32652.488      2.2000182     -40362.22      -18.686213      12.299764    
     16000   3917.5798     -23738.216      32652.488      2.2000182     -40373.148     -18.691272      12.298343    
     16500   3926.2572     -26886.546      32652.488      2.2000182     -40342.722     -18.677186      12.592786    
     17000   3996.2544     -25317.413      32652.488      2.2000182     -40336.061     -18.674102      12.263849    
     17500   4049.0016     -19524.738      32652.488      2.2000182     -40357.178     -18.683879      12.679752    
     18000   3961.1604     -29205.955      32652.488      2.2000182     -40395.795     -18.701757      12.785329    
     18500   3925.9489     -18522.609      32652.488      2.2000182     -40379.969     -18.69443       12.754852    
     19000   4036.3018     -24613.17       32652.488      2.2000182     -40373.678     -18.691517      12.869895    
     19500   4030.9106     -26915.724      32652.488      2.2000182     -40397.503     -18.702548      12.810826    
     20000   4026.11       -15852.014      32652.488      2.2000182     -40351.122     -18.681075      13.481266    
Loop time of 34.6457 on 6 procs for 20000 steps with 2160 atoms

Performance: 49.876 ns/day, 0.481 hours/ns, 577.273 timesteps/s, 1.247 Matom-step/s
96.4% CPU use with 6 MPI tasks x 1 OpenMP threads

MPI task timing breakdown:
Section |  min time  |  avg time  |  max time  |%varavg| %total
---------------------------------------------------------------
Pair    | 21.226     | 22.198     | 24.74      |  25.6 | 64.07
Kspace  | 7.1129     | 9.704      | 10.692     |  39.5 | 28.01
Neigh   | 1.3188     | 1.372      | 1.4671     |   4.0 |  3.96
Comm    | 1.0125     | 1.0673     | 1.141      |   4.1 |  3.08
Output  | 0.00078062 | 0.00085626 | 0.0012228  |   0.0 |  0.00
Modify  | 0.187      | 0.19837    | 0.20664    |   1.7 |  0.57
Other   |            | 0.1049     |            |       |  0.30

Nlocal:            360 ave         374 max         346 min
Histogram: 1 1 0 0 0 2 0 1 0 1
Nghost:        4716.17 ave        4728 max        4701 min
Histogram: 2 0 0 0 0 0 0 2 0 2
Neighs:        86013.5 ave       96645 max       77696 min
Histogram: 1 0 0 2 1 1 0 0 0 1

Total # of neighbors = 516081
Ave neighs/atom = 238.92639
Neighbor list builds = 1008
Dangerous builds = 0
PPPM initialization ...
  using 12-bit tables for long-range coulomb (src/kspace.cpp:342)
  G vector (1/distance) = 0.29696104
  grid = 24 24 27
  stencil order = 5
  estimated absolute RMS force accuracy = 0.0014110636
  estimated relative force accuracy = 9.7992942e-05
  using double precision FFTW3
  3d grid and FFT values/proc = 9424 2880
Generated 0 of 1 mixed pair_coeff terms from geometric mixing rule
WARNING: Compute rdf cutoff less than neighbor cutoff - forcing a needless neighbor list build (src/compute_rdf.cpp:179)
Setting up Verlet run ...
  Unit style    : metal
  Current step  : 0
  Time step     : 0.001
Per MPI rank memory allocation (min/avg/max) = 6.134 | 6.212 | 6.545 Mbytes
   Step          Temp          Press          Volume        Density         PotEng         v_epa        c_msd0[4]   
         0   4026.11       -15852.014      32652.488      2.2000182     -40351.122     -18.681075      13.481266    
       500   3861.569      -27825.506      32652.488      2.2000182     -40426.118     -18.715795      13.473708    
      1000   3845.5194     -16313.394      32652.488      2.2000182     -40407.995     -18.707405      13.547302    
      1500   3971.1598     -23424.725      32652.488      2.2000182     -40413.123     -18.709779      13.731791    
      2000   4011.9451     -23540.882      32652.488      2.2000182     -40402.337     -18.704785      13.840414    
      2500   3881.8022     -19671.676      32652.488      2.2000182     -40411.125     -18.708854      13.934926    
      3000   3916.2044     -28340.763      32652.488      2.2000182     -40378.153     -18.693589      14.293527    
      3500   3909.3645     -19719.698      32652.488      2.2000182     -40419.123     -18.712557      14.39172     
      4000   3884.4744     -21356.575      32652.488      2.2000182     -40391.5       -18.699769      14.485456    
      4500   3952.3992     -26494.05       32652.488      2.2000182     -40382.643     -18.695668      14.482114    
      5000   3946.0691     -25317.095      32652.488      2.2000182     -40395.756     -18.701739      14.719637    
      5500   3878.258      -17991.085      32652.488      2.2000182     -40375.801     -18.6925        14.835518    
      6000   3886.3122     -29580.615      32652.488      2.2000182     -40410.905     -18.708752      14.884467    
      6500   3890.4753     -21768.32       32652.488      2.2000182     -40417.201     -18.711667      15.147546    
      7000   3872.4273     -29933.35       32652.488      2.2000182     -40398.486     -18.703003      15.291913    
      7500   3914.7834     -26202.211      32652.488      2.2000182     -40372.037     -18.690758      15.328941    
      8000   3867.6062     -23623.398      32652.488      2.2000182     -40368.428     -18.689087      15.682598    
      8500   3752.7598     -18214.209      32652.488      2.2000182     -40428.728     -18.717004      15.700103    
      9000   3890.8203     -27117.107      32652.488      2.2000182     -40398.662     -18.703084      15.584617    
      9500   3930.1963     -32578.208      32652.488      2.2000182     -40395.199     -18.701481      15.621473    
     10000   4100.6142     -11786.036      32652.488      2.2000182     -40415.16      -18.710722      15.612472    
     10500   3966.0197     -29323.687      32652.488      2.2000182     -40406.289     -18.706615      15.769499    
     11000   3885.8934     -16457.405      32652.488      2.2000182     -40411.579     -18.709064      16.173535    
     11500   3861.6832     -29652.316      32652.488      2.2000182     -40380.567     -18.694707      16.050878    
     12000   3857.6554     -26244.686      32652.488      2.2000182     -40361.875     -18.686053      16.514906    
     12500   3951.6708     -26180.537      32652.488      2.2000182     -40415.029     -18.710661      16.641574    
     13000   3944.8979     -30671.702      32652.488      2.2000182     -40386.418     -18.697416      16.638992    
     13500   4023.2963     -26041.875      32652.488      2.2000182     -40385.104     -18.696807      16.522681    
     14000   3732.0563     -16027.748      32652.488      2.2000182     -40398.272     -18.702904      16.660315    
     14500   3820.4749     -25399.229      32652.488      2.2000182     -40367.725     -18.688762      16.891154    
     15000   3884.9484     -20338.07       32652.488      2.2000182     -40377.671     -18.693366      16.793791    
     15500   3880.7256     -24325.084      32652.488      2.2000182     -40395.303     -18.701529      17.034838    
     16000   3763.8068     -22303.22       32652.488      2.2000182     -40421.655     -18.713729      17.243061    
     16500   3904.892      -8482.7971      32652.488      2.2000182     -40349.658     -18.680397      17.320236    
     17000   3872.2229     -24767.541      32652.488      2.2000182     -40354.63      -18.682699      17.516685    
     17500   3946.9087     -30042.5        32652.488      2.2000182     -40364.3       -18.687176      17.810593    
     18000   3947.3871     -24068.442      32652.488      2.2000182     -40402.929     -18.70506       17.706606    
     18500   3887.7511     -30024.26       32652.488      2.2000182     -40372.242     -18.690853      17.941112    
     19000   3961.8374     -23439.664      32652.488      2.2000182     -40355.698     -18.683194      17.923623    
     19500   3865.402      -26630.416      32652.488      2.2000182     -40377.216     -18.693156      17.801804    
     20000   3918.8155     -17438.975      32652.488      2.2000182     -40360.259     -18.685305      18.407584    
Loop time of 34.6221 on 6 procs for 20000 steps with 2160 atoms

Performance: 49.910 ns/day, 0.481 hours/ns, 577.666 timesteps/s, 1.248 Matom-step/s
96.4% CPU use with 6 MPI tasks x 1 OpenMP threads

MPI task timing breakdown:
Section |  min time  |  avg time  |  max time  |%varavg| %total
---------------------------------------------------------------
Pair    | 20.773     | 22.193     | 24.694     |  28.5 | 64.10
Kspace  | 7.156      | 9.7066     | 11.207     |  44.4 | 28.04
Neigh   | 1.2736     | 1.3497     | 1.4371     |   4.9 |  3.90
Comm    | 1.0415     | 1.0847     | 1.1495     |   3.3 |  3.13
Output  | 0.00079344 | 0.00087346 | 0.0012557  |   0.0 |  0.00
Modify  | 0.17725    | 0.18373    | 0.18907    |   1.0 |  0.53
Other   |            | 0.1039     |            |       |  0.30

Nlocal:            360 ave         366 max         349 min
Histogram: 1 0 0 0 1 0 1 0 1 2
Nghost:        4702.17 ave        4756 max        4660 min
Histogram: 3 0 0 0 0 0 0 2 0 1
Neighs:        86150.2 ave       93858 max       79397 min
Histogram: 1 1 1 0 0 1 0 1 0 1

Total # of neighbors = 516901
Ave neighs/atom = 239.30602
Neighbor list builds = 991
Dangerous builds = 0
PPPM initialization ...
  using 12-bit tables for long-range coulomb (src/kspace.cpp:342)
  G vector (1/distance) = 0.29696104
  grid = 24 24 27
  stencil order = 5
  estimated absolute RMS force accuracy = 0.0014110636
  estimated relative force accuracy = 9.7992942e-05
  using double precision FFTW3
  3d grid and FFT values/proc = 9424 2880
Generated 0 of 1 mixed pair_coeff terms from geometric mixing rule
WARNING: Compute rdf cutoff less than neighbor cutoff - forcing a needless neighbor list build (src/compute_rdf.cpp:179)
Setting up Verlet run ...
  Unit style    : metal
  Current step  : 0
  Time step     : 0.001
Per MPI rank memory allocation (min/avg/max) = 6.134 | 6.212 | 6.545 Mbytes
   Step          Temp          Press          Volume        Density         PotEng         v_epa        c_msd0[4]   
         0   3918.8155     -17438.975      32652.488      2.2000182     -40360.259     -18.685305      18.407584    
       500   3842.1049     -24487.074      32652.488      2.2000182     -40431.837     -18.718443      18.292847    
      1000   3661.6982     -27973.102      32652.488      2.2000182     -40386.208     -18.697318      18.374487    
      1500   3874.6415     -21325.472      32652.488      2.2000182     -40403.13      -18.705153      18.812333    
      2000   3912.4168     -24608.99       32652.488      2.2000182     -40383.161     -18.695908      18.421994    
      2500   3814.6307     -25499.59       32652.488      2.2000182     -40374.36      -18.691833      18.612325    
      3000   3765.183      -21552.088      32652.488      2.2000182     -40422.775     -18.714248      18.581734    
      3500   3750.5945     -26441.606      32652.488      2.2000182     -40394.726     -18.701262      18.745628    
      4000   3960.0732     -20083.663      32652.488      2.2000182     -40394.733     -18.701265      19.198325    
      4500   3827.2358     -23141.313      32652.488      2.2000182     -40412.094     -18.709303      19.15944     
      5000   3704.1001     -23626.598      32652.488      2.2000182     -40404.96      -18.706         19.258574    
      5500   3773.3774     -25673.372      32652.488      2.2000182     -40406.323     -18.706631      19.274866    
      6000   3977.3381     -25396.021      32652.488      2.2000182     -40427.799     -18.716574      19.144199    
      6500   3604.9764     -29409.919      32652.488      2.2000182     -40384.928     -18.696726      19.484902    
      7000   3836.4322     -29176.771      32652.488      2.2000182     -40412.391     -18.70944       19.455438    
      7500   3816.373      -34144.05       32652.488      2.2000182     -40412.109     -18.70931       19.774355    
      8000   3812.3503     -26307.638      32652.488      2.2000182     -40402.906     -18.705049      19.66155     
      8500   3781.9447     -30733.451      32652.488      2.2000182     -40407.114     -18.706997      19.940698    
      9000   3842.3279     -26866.543      32652.488      2.2000182     -40437.15      -18.720903      20.076611    
      9500   3726.3547     -28174.902      32652.488      2.2000182     -40394.003     -18.700927      20.110373    
     10000   3878.7656     -14111.632      32652.488      2.2000182     -40410.974     -18.708784      20.206714    
     10500   3850.9768     -19632.701      32652.488      2.2000182     -40439.494     -18.721988      20.634485    
     11000   3748.7675     -21690.316      32652.488      2.2000182     -40420.9       -18.71338       20.68695     
     11500   3746.0844     -23164.399      32652.488      2.2000182     -40428.325     -18.716817      20.266011    
     12000   3712.4919     -24320.321      32652.488      2.2000182     -40417.553     -18.71183       20.815759    
     12500   3723.7145     -23538.526      32652.488      2.2000182     -40386.908     -18.697642      20.817962    
     13000   3899.9441     -29751.442      32652.488      2.2000182     -40400.791     -18.70407       21.049043    
     13500   3815.544      -19820.043      32652.488      2.2000182     -40405.894     -18.706433      21.112283    
     14000   3838.5182     -17479.591      32652.488      2.2000182     -40421.105     -18.713475      21.322714    
     14500   3843.8324     -31888.287      32652.488      2.2000182     -40383.399     -18.696018      21.450458    
     15000   3794.5458     -31345.194      32652.488      2.2000182     -40400.969     -18.704152      21.266798    
     15500   3741.972      -28958.175      32652.488      2.2000182     -40413.432     -18.709922      21.902499    
     16000   3872.2205     -20157.785      32652.488      2.2000182     -40425.286     -18.71541       21.89727     
     16500   3788.6034     -22891.008      32652.488      2.2000182     -40444.236     -18.724183      22.003569    
     17000   3943.8493     -21518.259      32652.488      2.2000182     -40378.935     -18.693952      21.947048    
     17500   3815.7525     -21174.611      32652.488      2.2000182     -40439.736     -18.7221        21.952254    
     18000   3806.6619     -30121.792      32652.488      2.2000182     -40428.5       -18.716898      22.056857    
     18500   3822.6326     -18309.454      32652.488      2.2000182     -40415.731     -18.710987      21.997044    
     19000   3799.5374     -25524.808      32652.488      2.2000182     -40400.713     -18.704034      22.163122    
     19500   3839.9656     -30510.98       32652.488      2.2000182     -40387.672     -18.697996      22.176213    
     20000   3815.0483     -26035.154      32652.488      2.2000182     -40427.818     -18.716582      22.259145    
Loop time of 34.797 on 6 procs for 20000 steps with 2160 atoms

Performance: 49.659 ns/day, 0.483 hours/ns, 574.762 timesteps/s, 1.241 Matom-step/s
97.0% CPU use with 6 MPI tasks x 1 OpenMP threads

MPI task timing breakdown:
Section |  min time  |  avg time  |  max time  |%varavg| %total
---------------------------------------------------------------
Pair    | 20.672     | 22.736     | 24.725     |  28.4 | 65.34
Kspace  | 7.3234     | 9.3565     | 11.501     |  45.7 | 26.89
Neigh   | 1.2867     | 1.3616     | 1.4267     |   4.3 |  3.91
Comm    | 1.0157     | 1.0467     | 1.0671     |   1.7 |  3.01
Output  | 0.00079146 | 0.00087422 | 0.0012652  |   0.0 |  0.00
Modify  | 0.18005    | 0.18912    | 0.19803    |   1.5 |  0.54
Other   |            | 0.1058     |            |       |  0.30

Nlocal:            360 ave         369 max         352 min
Histogram: 1 0 1 0 2 0 0 1 0 1
Nghost:        4697.83 ave        4718 max        4678 min
Histogram: 1 0 1 0 0 1 2 0 0 1
Neighs:        86035.8 ave       93784 max       79077 min
Histogram: 2 0 0 0 2 0 0 0 1 1

Total # of neighbors = 516215
Ave neighs/atom = 238.98843
Neighbor list builds = 974
Dangerous builds = 0
PPPM initialization ...
  using 12-bit tables for long-range coulomb (src/kspace.cpp:342)
  G vector (1/distance) = 0.29696104
  grid = 24 24 27
  stencil order = 5
  estimated absolute RMS force accuracy = 0.0014110636
  estimated relative force accuracy = 9.7992942e-05
  using double precision FFTW3
  3d grid and FFT values/proc = 9424 2880
Generated 0 of 1 mixed pair_coeff terms from geometric mixing rule
WARNING: Compute rdf cutoff less than neighbor cutoff - forcing a needless neighbor list build (src/compute_rdf.cpp:179)
Setting up Verlet run ...
  Unit style    : metal
  Current step  : 0
  Time step     : 0.001
Per MPI rank memory allocation (min/avg/max) = 6.134 | 6.212 | 6.545 Mbytes
   Step          Temp          Press          Volume        Density         PotEng         v_epa        c_msd0[4]   
         0   3815.0483     -26035.154      32652.488      2.2000182     -40427.818     -18.716582      22.259145    
       500   3780.69       -27845.95       32652.488      2.2000182     -40469.136     -18.735711      22.282337    
      1000   3647.0821     -19685.579      32652.488      2.2000182     -40465.535     -18.734044      22.322742    
      1500   3611.9733     -24212.138      32652.488      2.2000182     -40478.925     -18.740243      22.591136    
      2000   3688.6393     -29645.685      32652.488      2.2000182     -40475.506     -18.73866       22.434804    
      2500   3661.4892     -34010.811      32652.488      2.2000182     -40438.115     -18.721349      22.184311    
      3000   3592.2973     -27144.84       32652.488      2.2000182     -40506.175     -18.752859      22.651704    
      3500   3743.9805     -24429.59       32652.488      2.2000182     -40477.216     -18.739452      22.654141    
      4000   3632.5243     -19792.509      32652.488      2.2000182     -40437.527     -18.721077      22.897134    
      4500   3639.8395     -21414.657      32652.488      2.2000182     -40458.625     -18.730845      22.769759    
      5000   3731.0202     -21159.828      32652.488      2.2000182     -40440.871     -18.722626      22.686659    
      5500   3864.9903     -25087.829      32652.488      2.2000182     -40483.13      -18.74219       23.035866    
      6000   3673.7499     -19895.936      32652.488      2.2000182     -40492.934     -18.746729      22.892907    
      6500   3657.9162     -33300.62       32652.488      2.2000182     -40488.63      -18.744736      23.032071    
      7000   3679.6132     -31439.474      32652.488      2.2000182     -40471.444     -18.736779      23.313177    
      7500   3759.4027     -23426.736      32652.488      2.2000182     -40501.019     -18.750472      23.36009     
      8000   3587.7119     -21803.013      32652.488      2.2000182     -40494.79      -18.747588      23.523009    
      8500   3703.9602     -27312.163      32652.488      2.2000182     -40499.11      -18.749588      23.487912    
      9000   3755.2713     -26254.211      32652.488      2.2000182     -40483.419     -18.742323      23.671667    
      9500   3580.8839     -25316.323      32652.488      2.2000182     -40475.14      -18.738491      23.743543    
     10000   3717.6064     -32947.723      32652.488      2.2000182     -40479.28      -18.740407      23.868304    
     10500   3624.6997     -38277.367      32652.488      2.2000182     -40475.593     -18.7387        23.873584    
     11000   3640.8587     -31866.614      32652.488      2.2000182     -40446.681     -18.725315      24.037358    
     11500   3767.2291     -30670.48       32652.488      2.2000182     -40490.513     -18.745608      24.045572    
     12000   3675.4803     -27931.84       32652.488      2.2000182     -40504.603     -18.752131      24.370964    
     12500   3741.0845     -18323.517      32652.488      2.2000182     -40514.657     -18.756786      24.3471      
     13000   3719.5343     -24936.407      32652.488      2.2000182     -40483.507     -18.742364      24.213393    
     13500   3723.7282     -34698.076      32652.488      2.2000182     -40470.114     -18.736164      24.480101    
     14000   3651.5299     -18517.541      32652.488      2.2000182     -40500.642     -18.750297      24.651906    
     14500   3662.2789     -24148.244      32652.488      2.2000182     -40529.248     -18.763541      24.491821    
     15000   3613.4962     -29703.884      32652.488      2.2000182     -40486.692     -18.743839      24.933571    
     15500   3723.1601     -24567.948      32652.488      2.2000182     -40477.282     -18.739483      24.609748    
     16000   3756.1978     -25938.737      32652.488      2.2000182     -40493.013     -18.746765      24.799403    
     16500   3694.985      -26438.612      32652.488      2.2000182     -40513.187     -18.756105      24.669072    
     17000   3686.3719     -30744.56       32652.488      2.2000182     -40506.826     -18.75316       25.101101    
     17500   3671.2019     -28016.792      32652.488      2.2000182     -40485.237     -18.743165      24.828404    
     18000   3715.1766     -25313.968      32652.488      2.2000182     -40485.169     -18.743134      24.905934    
     18500   3690.9065     -32150.391      32652.488      2.2000182     -40462.81      -18.732782      25.136646    
     19000   3631.7589     -28225.166      32652.488      2.2000182     -40445.935     -18.72497       25.123673    
     19500   3662.6542     -25756.86       32652.488      2.2000182     -40505.299     -18.752453      25.559993    
     20000   3670.0757     -27378.489      32652.488      2.2000182     -40489.357     -18.745073      25.57548     
Loop time of 34.9025 on 6 procs for 20000 steps with 2160 atoms

Performance: 49.509 ns/day, 0.485 hours/ns, 573.024 timesteps/s, 1.238 Matom-step/s
96.8% CPU use with 6 MPI tasks x 1 OpenMP threads

MPI task timing breakdown:
Section |  min time  |  avg time  |  max time  |%varavg| %total
---------------------------------------------------------------
Pair    | 20.72      | 22.716     | 24.772     |  31.2 | 65.08
Kspace  | 7.4093     | 9.4978     | 11.556     |  49.6 | 27.21
Neigh   | 1.2604     | 1.3392     | 1.3994     |   4.3 |  3.84
Comm    | 1.0289     | 1.0599     | 1.0893     |   2.0 |  3.04
Output  | 0.00079084 | 0.00086775 | 0.0012411  |   0.0 |  0.00
Modify  | 0.17664    | 0.1855     | 0.19093    |   1.4 |  0.53
Other   |            | 0.1037     |            |       |  0.30

Nlocal:            360 ave         371 max         347 min
Histogram: 1 0 1 0 0 0 2 1 0 1
Nghost:        4715.67 ave        4735 max        4698 min
Histogram: 2 0 0 0 1 0 1 1 0 1
Neighs:        86032.2 ave       95056 max       77810 min
Histogram: 1 0 1 1 0 1 0 1 0 1

Total # of neighbors = 516193
Ave neighs/atom = 238.97824
Neighbor list builds = 958
Dangerous builds = 0
PPPM initialization ...
  using 12-bit tables for long-range coulomb (src/kspace.cpp:342)
  G vector (1/distance) = 0.29696104
  grid = 24 24 27
  stencil order = 5
  estimated absolute RMS force accuracy = 0.0014110636
  estimated relative force accuracy = 9.7992942e-05
  using double precision FFTW3
  3d grid and FFT values/proc = 9424 2880
Generated 0 of 1 mixed pair_coeff terms from geometric mixing rule
WARNING: Compute rdf cutoff less than neighbor cutoff - forcing a needless neighbor list build (src/compute_rdf.cpp:179)
Setting up Verlet run ...
  Unit style    : metal
  Current step  : 0
  Time step     : 0.001
Per MPI rank memory allocation (min/avg/max) = 6.134 | 6.276 | 6.545 Mbytes
   Step          Temp          Press          Volume        Density         PotEng         v_epa        c_msd0[4]   
         0   3670.0757     -27378.489      32652.488      2.2000182     -40489.357     -18.745073      25.57548     
       500   3602.1005     -25678.722      32652.488      2.2000182     -40512.498     -18.755786      25.875296    
      1000   3555.6216     -37938.648      32652.488      2.2000182     -40539.157     -18.768128      25.860321    
      1500   3646.3599     -29362.75       32652.488      2.2000182     -40524.081     -18.761149      25.676178    
      2000   3608.7108     -22583.228      32652.488      2.2000182     -40477.738     -18.739694      25.992088    
      2500   3609.9357     -30450.613      32652.488      2.2000182     -40544.017     -18.770378      25.745245    
      3000   3587.8669     -33999.149      32652.488      2.2000182     -40505.169     -18.752393      26.073459    
      3500   3581.067      -27601.944      32652.488      2.2000182     -40554.61      -18.775282      25.834667    
      4000   3514.7378     -32865.162      32652.488      2.2000182     -40540.079     -18.768555      26.12706     
      4500   3730.7895     -31308.503      32652.488      2.2000182     -40501.846     -18.750855      26.167171    
      5000   3671.9575     -29978.771      32652.488      2.2000182     -40539.108     -18.768105      26.300948    
      5500   3618.4624     -21722.473      32652.488      2.2000182     -40560.445     -18.777984      26.011609    
      6000   3720.5965     -27586.407      32652.488      2.2000182     -40505.29      -18.752449      26.169004    
      6500   3621.6764     -19644.731      32652.488      2.2000182     -40520.858     -18.759657      26.283391    
      7000   3527.4863     -23546.085      32652.488      2.2000182     -40557.833     -18.776775      26.200442    
      7500   3656.4925     -22199.773      32652.488      2.2000182     -40530.936     -18.764322      26.179629    
      8000   3651.9015     -31667.004      32652.488      2.2000182     -40520.086     -18.759299      26.601985    
      8500   3579.5338     -20778.855      32652.488      2.2000182     -40548.151     -18.772292      26.250881    
      9000   3616.8789     -27382.504      32652.488      2.2000182     -40559.372     -18.777487      26.499483    
      9500   3625.4717     -25946.281      32652.488      2.2000182     -40507.975     -18.753692      26.352552    
     10000   3560.2624     -29144.944      32652.488      2.2000182     -40525.571     -18.761839      26.479538    
     10500   3461.3434     -36904.34       32652.488      2.2000182     -40519.958     -18.75924       26.48058     
     11000   3619.858      -26581.088      32652.488      2.2000182     -40500.706     -18.750327      26.219006    
     11500   3582.4029     -24692.177      32652.488      2.2000182     -40518.941     -18.758769      26.513487    
     12000   3714.814      -25797.928      32652.488      2.2000182     -40548.299     -18.772361      26.52066     
     12500   3593.3588     -33465.007      32652.488      2.2000182     -40486.347     -18.743679      26.316541    
     13000   3630.0179     -30784.374      32652.488      2.2000182     -40534.582     -18.76601       26.304349    
     13500   3609.8264     -21388.076      32652.488      2.2000182     -40511.948     -18.755531      26.403004    
     14000   3660.7232     -22664.662      32652.488      2.2000182     -40503.649     -18.751689      26.852447    
     14500   3591.9807     -24270.038      32652.488      2.2000182     -40531.124     -18.764409      26.719026    
     15000   3611.0067     -24015.905      32652.488      2.2000182     -40553.961     -18.774982      27.051056    
     15500   3555.0638     -17005.106      32652.488      2.2000182     -40548.886     -18.772632      26.829597    
     16000   3586.9236     -21397.884      32652.488      2.2000182     -40513.437     -18.756221      27.336366    
     16500   3515.033      -31045.135      32652.488      2.2000182     -40511.994     -18.755553      27.272384    
     17000   3560.645      -22459.731      32652.488      2.2000182     -40561.828     -18.778624      27.028335    
     17500   3688.9642     -24041.34       32652.488      2.2000182     -40567.904     -18.781437      27.212347    
     18000   3570.0548     -17851.261      32652.488      2.2000182     -40512.123     -18.755612      26.908436    
     18500   3649.4544     -29113.093      32652.488      2.2000182     -40518.77      -18.75869       27.29164     
     19000   3633.3672     -26389.562      32652.488      2.2000182     -40539.136     -18.768119      27.395344    
     19500   3658.8108     -28617.342      32652.488      2.2000182     -40552.396     -18.774257      27.373952    
     20000   3604.9907     -24468.295      32652.488      2.2000182     -40516.581     -18.757676      27.425096    
Loop time of 35.2147 on 6 procs for 20000 steps with 2160 atoms

Performance: 49.070 ns/day, 0.489 hours/ns, 567.944 timesteps/s, 1.227 Matom-step/s
96.5% CPU use with 6 MPI tasks x 1 OpenMP threads

MPI task timing breakdown:
Section |  min time  |  avg time  |  max time  |%varavg| %total
---------------------------------------------------------------
Pair    | 20.502     | 22.733     | 25.164     |  32.3 | 64.56
Kspace  | 7.3253     | 9.8057     | 12.117     |  50.5 | 27.85
Neigh   | 1.2206     | 1.3145     | 1.3818     |   4.7 |  3.73
Comm    | 1.0301     | 1.0593     | 1.1008     |   2.3 |  3.01
Output  | 0.00080266 | 0.00088249 | 0.0012576  |   0.0 |  0.00
Modify  | 0.18674    | 0.19418    | 0.20565    |   1.8 |  0.55
Other   |            | 0.1068     |            |       |  0.30

Nlocal:            360 ave         372 max         352 min
Histogram: 1 1 1 0 1 0 1 0 0 1
Nghost:           4696 ave        4735 max        4655 min
Histogram: 1 0 0 2 0 0 1 1 0 1
Neighs:        85996.2 ave       94163 max       77996 min
Histogram: 1 0 1 1 1 0 0 0 0 2

Total # of neighbors = 515977
Ave neighs/atom = 238.87824
Neighbor list builds = 942
Dangerous builds = 0
PPPM initialization ...
  using 12-bit tables for long-range coulomb (src/kspace.cpp:342)
  G vector (1/distance) = 0.29696104
  grid = 24 24 27
  stencil order = 5
  estimated absolute RMS force accuracy = 0.0014110636
  estimated relative force accuracy = 9.7992942e-05
  using double precision FFTW3
  3d grid and FFT values/proc = 9424 2880
Generated 0 of 1 mixed pair_coeff terms from geometric mixing rule
WARNING: Compute rdf cutoff less than neighbor cutoff - forcing a needless neighbor list build (src/compute_rdf.cpp:179)
Setting up Verlet run ...
  Unit style    : metal
  Current step  : 0
  Time step     : 0.001
Per MPI rank memory allocation (min/avg/max) = 6.134 | 6.276 | 6.545 Mbytes
   Step          Temp          Press          Volume        Density         PotEng         v_epa        c_msd0[4]   
         0   3604.9907     -24468.295      32652.488      2.2000182     -40516.581     -18.757676      27.425096    
       500   3444.0995     -25564.839      32652.488      2.2000182     -40543.205     -18.770002      27.425868    
      1000   3461.351      -20120.82       32652.488      2.2000182     -40576.03      -18.785199      27.426215    
      1500   3458.0023     -21792.605      32652.488      2.2000182     -40575.285     -18.784854      27.492273    
      2000   3492.043      -21820.439      32652.488      2.2000182     -40552.794     -18.774442      27.539318    
      2500   3573.1003     -19167.266      32652.488      2.2000182     -40580         -18.787037      27.844722    
      3000   3361.9373     -26096.754      32652.488      2.2000182     -40574.195     -18.78435       27.541966    
      3500   3484.078      -24889.915      32652.488      2.2000182     -40585.289     -18.789486      27.717145    
      4000   3472.1444     -28650.984      32652.488      2.2000182     -40554.683     -18.775316      27.778056    
      4500   3509.7033     -24578.328      32652.488      2.2000182     -40572.55      -18.783588      27.513378    
      5000   3472.8675     -28602.477      32652.488      2.2000182     -40543.835     -18.770294      27.609716    
      5500   3598.825      -19755.342      32652.488      2.2000182     -40546.686     -18.771614      27.59898     
      6000   3490.5396     -29459.954      32652.488      2.2000182     -40581.051     -18.787524      27.524633    
      6500   3478.282      -18913.923      32652.488      2.2000182     -40596.296     -18.794582      27.603635    
      7000   3477.0994     -22139.942      32652.488      2.2000182     -40584.543     -18.78914       27.862764    
      7500   3482.2622     -27545.699      32652.488      2.2000182     -40541.012     -18.768987      27.851995    
      8000   3502.3973     -29078.916      32652.488      2.2000182     -40557.168     -18.776467      27.774969    
      8500   3357.3158     -32442.088      32652.488      2.2000182     -40588.92      -18.791167      27.743097    
      9000   3445.1741     -26981.756      32652.488      2.2000182     -40569.724     -18.78228       27.719022    
      9500   3469.881      -20659.385      32652.488      2.2000182     -40566.484     -18.780779      27.856103    
     10000   3495.6809     -23047.091      32652.488      2.2000182     -40565.479     -18.780315      27.716763    
     10500   3474.0661     -21328.434      32652.488      2.2000182     -40568.068     -18.781513      27.716782    
     11000   3472.7958     -21470.014      32652.488      2.2000182     -40578.587     -18.786383      27.806516    
     11500   3497.931      -24897.304      32652.488      2.2000182     -40599.051     -18.795857      28.188047    
     12000   3439.3157     -24871.83       32652.488      2.2000182     -40568.314     -18.781627      28.082374    
     12500   3504.2221     -27023.292      32652.488      2.2000182     -40576.327     -18.785337      28.252622    
     13000   3450.9955     -28258.631      32652.488      2.2000182     -40515.038     -18.756962      28.355578    
     13500   3564.7591     -29967.902      32652.488      2.2000182     -40592.252     -18.792709      27.993562    
     14000   3577.8041     -24746.712      32652.488      2.2000182     -40605.539     -18.79886       28.265734    
     14500   3558.819      -32292.572      32652.488      2.2000182     -40594.996     -18.79398       27.91032     
     15000   3565.6514     -27657.573      32652.488      2.2000182     -40579.788     -18.786939      28.447218    
     15500   3606.969      -30535.496      32652.488      2.2000182     -40568.347     -18.781642      28.294188    
     16000   3489.6848     -25967.026      32652.488      2.2000182     -40593.935     -18.793488      28.533344    
     16500   3514.7834     -17255.741      32652.488      2.2000182     -40610.941     -18.801362      28.213916    
     17000   3366.8825     -32504.135      32652.488      2.2000182     -40522.73      -18.760523      28.479455    
     17500   3620.2746     -17000.772      32652.488      2.2000182     -40583.965     -18.788873      28.286793    
     18000   3482.2728     -32764.68       32652.488      2.2000182     -40540.502     -18.768751      28.507788    
     18500   3546.2312     -26566.439      32652.488      2.2000182     -40599.323     -18.795983      28.365957    
     19000   3496.5501     -19750.138      32652.488      2.2000182     -40584.283     -18.78902       28.267448    
     19500   3527.8684     -29398.178      32652.488      2.2000182     -40555.984     -18.775919      28.355416    
     20000   3426.4159     -28173.496      32652.488      2.2000182     -40548.06      -18.77225       28.353618    
Loop time of 35.7463 on 6 procs for 20000 steps with 2160 atoms

Performance: 48.341 ns/day, 0.496 hours/ns, 559.498 timesteps/s, 1.209 Matom-step/s
95.9% CPU use with 6 MPI tasks x 1 OpenMP threads

MPI task timing breakdown:
Section |  min time  |  avg time  |  max time  |%varavg| %total
---------------------------------------------------------------
Pair    | 20.682     | 22.732     | 25.751     |  37.3 | 63.59
Kspace  | 7.3051     | 10.371     | 12.496     |  56.3 | 29.01
Neigh   | 1.2006     | 1.2855     | 1.3834     |   5.4 |  3.60
Comm    | 1.0001     | 1.0591     | 1.114      |   3.3 |  2.96
Output  | 0.00078483 | 0.00086324 | 0.0012418  |   0.0 |  0.00
Modify  | 0.17845    | 0.18685    | 0.19531    |   1.4 |  0.52
Other   |            | 0.1104     |            |       |  0.31

Nlocal:            360 ave         373 max         338 min
Histogram: 1 0 0 0 0 0 2 1 1 1
Nghost:           4677 ave        4698 max        4639 min
Histogram: 1 0 0 0 1 0 0 1 1 2
Neighs:        86075.5 ave       95312 max       78851 min
Histogram: 2 0 0 2 0 0 0 0 0 2

Total # of neighbors = 516453
Ave neighs/atom = 239.09861
Neighbor list builds = 922
Dangerous builds = 0
PPPM initialization ...
  using 12-bit tables for long-range coulomb (src/kspace.cpp:342)
  G vector (1/distance) = 0.29696104
  grid = 24 24 27
  stencil order = 5
  estimated absolute RMS force accuracy = 0.0014110636
  estimated relative force accuracy = 9.7992942e-05
  using double precision FFTW3
  3d grid and FFT values/proc = 9424 2880
Generated 0 of 1 mixed pair_coeff terms from geometric mixing rule
WARNING: Compute rdf cutoff less than neighbor cutoff - forcing a needless neighbor list build (src/compute_rdf.cpp:179)
Setting up Verlet run ...
  Unit style    : metal
  Current step  : 0
  Time step     : 0.001
Per MPI rank memory allocation (min/avg/max) = 6.134 | 6.276 | 6.545 Mbytes
   Step          Temp          Press          Volume        Density         PotEng         v_epa        c_msd0[4]   
         0   3426.4159     -28173.496      32652.488      2.2000182     -40548.06      -18.77225       28.353618    
       500   3404.0545     -18343.071      32652.488      2.2000182     -40635.914     -18.812923      28.547984    
      1000   3276.9705     -24333.778      32652.488      2.2000182     -40610.366     -18.801095      28.420276    
      1500   3386.5637     -29432.481      32652.488      2.2000182     -40594.671     -18.793829      28.378423    
      2000   3392.5271     -30922.01       32652.488      2.2000182     -40584.749     -18.789235      28.653986    
      2500   3422.7933     -25230.973      32652.488      2.2000182     -40602.014     -18.797229      28.369211    
      3000   3380.7133     -21675.511      32652.488      2.2000182     -40619.489     -18.805319      28.236482    
      3500   3393.6736     -15761.717      32652.488      2.2000182     -40620.466     -18.805771      28.631861    
      4000   3394.7854     -24674.672      32652.488      2.2000182     -40592.781     -18.792954      28.56696     
      4500   3503.8358     -19612.204      32652.488      2.2000182     -40597.578     -18.795175      28.452981    
      5000   3428.9565     -31596.2        32652.488      2.2000182     -40602.36      -18.797389      28.601624    
      5500   3378.5033     -26336.365      32652.488      2.2000182     -40614.87      -18.80318       28.544541    
      6000   3366.1605     -15431.06       32652.488      2.2000182     -40625.21      -18.807968      28.734734    
      6500   3402.7281     -31072.208      32652.488      2.2000182     -40608.848     -18.800392      28.610396    
      7000   3428.4431     -24555.962      32652.488      2.2000182     -40626.23      -18.80844       28.864663    
      7500   3416.3845     -28131.643      32652.488      2.2000182     -40654.536     -18.821544      28.848148    
      8000   3373.703      -25835.441      32652.488      2.2000182     -40621.795     -18.806387      28.726539    
      8500   3420.6479     -14692.209      32652.488      2.2000182     -40621.525     -18.806262      28.488462    
      9000   3446.6947     -28226.046      32652.488      2.2000182     -40614.771     -18.803135      28.758694    
      9500   3392.8972     -22274.468      32652.488      2.2000182     -40634.061     -18.812065      28.709522    
     10000   3353.0358     -23066.087      32652.488      2.2000182     -40635.408     -18.812689      28.766149    
     10500   3392.3551     -22621.068      32652.488      2.2000182     -40619.178     -18.805175      28.808792    
     11000   3473.1532     -27884.551      32652.488      2.2000182     -40609.245     -18.800576      28.773567    
     11500   3427.6501     -32230.513      32652.488      2.2000182     -40618.43      -18.804829      28.842719    
     12000   3393.8774     -24110.991      32652.488      2.2000182     -40638.926     -18.814318      28.928471    
     12500   3414.6189     -28358.145      32652.488      2.2000182     -40656.177     -18.822304      28.953204    
     13000   3431.7856     -27356.918      32652.488      2.2000182     -40585.811     -18.789727      28.869685    
     13500   3397.9579     -26096.306      32652.488      2.2000182     -40617.68      -18.804482      28.887748    
     14000   3329.9588     -26994.21       32652.488      2.2000182     -40633.114     -18.811627      28.799873    
     14500   3358.209      -27686.192      32652.488      2.2000182     -40639.316     -18.814498      28.845537    
     15000   3437.8497     -19026.798      32652.488      2.2000182     -40604.911     -18.79857       29.24927     
     15500   3445.71       -30719.029      32652.488      2.2000182     -40623.869     -18.807347      28.702444    
     16000   3432.4759     -18308.275      32652.488      2.2000182     -40619.427     -18.80529       28.950596    
     16500   3308.0566     -18323.619      32652.488      2.2000182     -40684.773     -18.835543      29.02878     
     17000   3427.0635     -17662.503      32652.488      2.2000182     -40642.988     -18.816198      29.140066    
     17500   3401.8868     -18948.905      32652.488      2.2000182     -40616.625     -18.803993      29.13951     
     18000   3427.2548     -22157.938      32652.488      2.2000182     -40630.151     -18.810255      28.883529    
     18500   3328.7457     -21215.03       32652.488      2.2000182     -40639.861     -18.814751      29.108318    
     19000   3439.5271     -20705.186      32652.488      2.2000182     -40639.563     -18.814613      29.036664    
     19500   3466.3139     -17490.372      32652.488      2.2000182     -40619.111     -18.805144      28.882805    
     20000   3455.2379     -26254.45       32652.488      2.2000182     -40630.887     -18.810596      29.040369    
Loop time of 35.7481 on 6 procs for 20000 steps with 2160 atoms

Performance: 48.338 ns/day, 0.497 hours/ns, 559.470 timesteps/s, 1.208 Matom-step/s
96.0% CPU use with 6 MPI tasks x 1 OpenMP threads

MPI task timing breakdown:
Section |  min time  |  avg time  |  max time  |%varavg| %total
---------------------------------------------------------------
Pair    | 20.136     | 22.708     | 25.774     |  38.8 | 63.52
Kspace  | 7.2979     | 10.427     | 13.092     |  58.8 | 29.17
Neigh   | 1.1588     | 1.2601     | 1.341      |   5.5 |  3.52
Comm    | 1.0287     | 1.0544     | 1.115      |   2.9 |  2.95
Output  | 0.00078145 | 0.00086067 | 0.0012403  |   0.0 |  0.00
Modify  | 0.1808     | 0.19191    | 0.20231    |   1.7 |  0.54
Other   |            | 0.106      |            |       |  0.30

Nlocal:            360 ave         376 max         346 min
Histogram: 1 0 0 1 2 1 0 0 0 1
Nghost:           4690 ave        4706 max        4668 min
Histogram: 1 0 1 0 0 1 0 1 0 2
Neighs:          86096 ave       97836 max       79473 min
Histogram: 2 1 0 1 0 0 1 0 0 1

Total # of neighbors = 516576
Ave neighs/atom = 239.15556
Neighbor list builds = 903
Dangerous builds = 0
PPPM initialization ...
  using 12-bit tables for long-range coulomb (src/kspace.cpp:342)
  G vector (1/distance) = 0.29696104
  grid = 24 24 27
  stencil order = 5
  estimated absolute RMS force accuracy = 0.0014110636
  estimated relative force accuracy = 9.7992942e-05
  using double precision FFTW3
  3d grid and FFT values/proc = 9424 2880
Generated 0 of 1 mixed pair_coeff terms from geometric mixing rule
WARNING: Compute rdf cutoff less than neighbor cutoff - forcing a needless neighbor list build (src/compute_rdf.cpp:179)
Setting up Verlet run ...
  Unit style    : metal
  Current step  : 0
  Time step     : 0.001
Per MPI rank memory allocation (min/avg/max) = 6.134 | 6.276 | 6.545 Mbytes
   Step          Temp          Press          Volume        Density         PotEng         v_epa        c_msd0[4]   
         0   3455.2379     -26254.45       32652.488      2.2000182     -40630.887     -18.810596      29.040369    
       500   3229.0251     -25562.416      32652.488      2.2000182     -40682.386     -18.834438      29.135776    
      1000   3327.0466     -18254.147      32652.488      2.2000182     -40689.673     -18.837811      28.954548    
      1500   3267.5232     -26069.837      32652.488      2.2000182     -40664.82      -18.826306      29.015758    
      2000   3388.1333     -21973.33       32652.488      2.2000182     -40630.668     -18.810495      29.129541    
      2500   3302.4502     -24929.739      32652.488      2.2000182     -40661.634     -18.824831      28.972587    
      3000   3304.4704     -26423.16       32652.488      2.2000182     -40670.558     -18.828962      29.025147    
      3500   3338.5624     -27008.815      32652.488      2.2000182     -40641.206     -18.815373      29.245626    
      4000   3270.7531     -22912.632      32652.488      2.2000182     -40645.673     -18.817441      29.252307    
      4500   3264.5649     -19939.899      32652.488      2.2000182     -40674.272     -18.830682      29.19527     
      5000   3343.1567     -27714.468      32652.488      2.2000182     -40665.721     -18.826723      29.159017    
      5500   3380.9111     -19724.846      32652.488      2.2000182     -40628.696     -18.809581      29.235081    
      6000   3309.884      -25497.738      32652.488      2.2000182     -40687.832     -18.836959      29.08419     
      6500   3355.6555     -21910.612      32652.488      2.2000182     -40682.111     -18.834311      29.325239    
      7000   3312.3769     -27599.785      32652.488      2.2000182     -40708.089     -18.846338      29.109807    
      7500   3184.6959     -13439.574      32652.488      2.2000182     -40679.275     -18.832998      29.422264    
      8000   3319.3034     -26576.048      32652.488      2.2000182     -40660.873     -18.824478      29.407629    
      8500   3292.929      -24776.107      32652.488      2.2000182     -40687.512     -18.836811      29.350835    
      9000   3247.0792     -22629.841      32652.488      2.2000182     -40676.724     -18.831817      29.291726    
      9500   3332.6171     -17552.111      32652.488      2.2000182     -40653.423     -18.821029      29.558534    
     10000   3354.1417     -25921.83       32652.488      2.2000182     -40658.94      -18.823583      29.529922    
     10500   3327.5664     -20346.867      32652.488      2.2000182     -40679.557     -18.833128      29.507459    
     11000   3267.161      -22702.096      32652.488      2.2000182     -40685.209     -18.835745      29.348032    
     11500   3192.3503     -20936.826      32652.488      2.2000182     -40688.517     -18.837276      29.634606    
     12000   3175.7508     -23471.447      32652.488      2.2000182     -40684.729     -18.835523      29.668422    
     12500   3322.9645     -25758.452      32652.488      2.2000182     -40699.374     -18.842303      29.719936    
     13000   3397.4875     -28671.15       32652.488      2.2000182     -40685.551     -18.835903      29.758941    
     13500   3250.6995     -18857.873      32652.488      2.2000182     -40673.031     -18.830107      29.721059    
     14000   3287.7218     -23020.465      32652.488      2.2000182     -40704.09      -18.844486      29.796547    
     14500   3284.4907     -29369.047      32652.488      2.2000182     -40692.689     -18.839208      29.783332    
     15000   3322.5098     -19464.181      32652.488      2.2000182     -40681.332     -18.83395       29.489633    
     15500   3335.8298     -29293.045      32652.488      2.2000182     -40673.433     -18.830293      29.643912    
     16000   3262.6265     -16817.389      32652.488      2.2000182     -40693.066     -18.839383      29.522351    
     16500   3351.5006     -31479.053      32652.488      2.2000182     -40683.159     -18.834796      29.658547    
     17000   3251.8025     -21374.102      32652.488      2.2000182     -40651.478     -18.820129      29.757031    
     17500   3301.5625     -15763.521      32652.488      2.2000182     -40699.532     -18.842376      29.605621    
     18000   3448.2126     -18132.179      32652.488      2.2000182     -40712.649     -18.848449      29.640446    
     18500   3386.4853     -24478.114      32652.488      2.2000182     -40673.602     -18.830371      29.509513    
     19000   3359.3584     -17844.755      32652.488      2.2000182     -40682.862     -18.834658      29.538894    
     19500   3364.8521     -21558.213      32652.488      2.2000182     -40715.726     -18.849873      29.746337    
     20000   3370.8826     -14418.449      32652.488      2.2000182     -40693.307     -18.839494      29.808782    
Loop time of 35.3598 on 6 procs for 20000 steps with 2160 atoms

Performance: 48.869 ns/day, 0.491 hours/ns, 565.614 timesteps/s, 1.222 Matom-step/s
96.3% CPU use with 6 MPI tasks x 1 OpenMP threads

MPI task timing breakdown:
Section |  min time  |  avg time  |  max time  |%varavg| %total
---------------------------------------------------------------
Pair    | 20.227     | 22.646     | 25.484     |  33.8 | 64.04
Kspace  | 7.2413     | 10.129     | 12.615     |  51.8 | 28.65
Neigh   | 1.1451     | 1.2405     | 1.3245     |   4.9 |  3.51
Comm    | 1.0011     | 1.0416     | 1.0835     |   2.9 |  2.95
Output  | 0.0007896  | 0.00086621 | 0.0012409  |   0.0 |  0.00
Modify  | 0.18387    | 0.19165    | 0.19962    |   1.3 |  0.54
Other   |            | 0.1098     |            |       |  0.31

Nlocal:            360 ave         371 max         346 min
Histogram: 1 1 0 0 1 0 0 0 1 2
Nghost:        4683.67 ave        4726 max        4651 min
Histogram: 1 1 1 0 1 0 0 1 0 1
Neighs:        86097.8 ave       95287 max       75043 min
Histogram: 1 0 0 1 0 2 0 0 1 1

Total # of neighbors = 516587
Ave neighs/atom = 239.16065
Neighbor list builds = 888
Dangerous builds = 0
PPPM initialization ...
  using 12-bit tables for long-range coulomb (src/kspace.cpp:342)
  G vector (1/distance) = 0.29696104
  grid = 24 24 27
  stencil order = 5
  estimated absolute RMS force accuracy = 0.0014110636
  estimated relative force accuracy = 9.7992942e-05
  using double precision FFTW3
  3d grid and FFT values/proc = 9424 2880
Generated 0 of 1 mixed pair_coeff terms from geometric mixing rule
WARNING: Compute rdf cutoff less than neighbor cutoff - forcing a needless neighbor list build (src/compute_rdf.cpp:179)
Setting up Verlet run ...
  Unit style    : metal
  Current step  : 0
  Time step     : 0.001
Per MPI rank memory allocation (min/avg/max) = 6.134 | 6.276 | 6.545 Mbytes
   Step          Temp          Press          Volume        Density         PotEng         v_epa        c_msd0[4]   
         0   3370.8826     -14418.449      32652.488      2.2000182     -40693.307     -18.839494      29.808782    
       500   3227.4317     -18664.893      32652.488      2.2000182     -40742.503     -18.86227       29.564671    
      1000   3161.4385     -20392.077      32652.488      2.2000182     -40738.853     -18.86058       29.874072    
      1500   3214.7364     -25785.17       32652.488      2.2000182     -40723.964     -18.853687      29.700498    
      2000   3179.9488     -21686.558      32652.488      2.2000182     -40728.041     -18.855575      29.755112    
      2500   3176.5735     -24114.587      32652.488      2.2000182     -40730.695     -18.856803      29.920654    
      3000   3201.4378     -21711.216      32652.488      2.2000182     -40749.352     -18.865441      29.677491    
      3500   3144.4581     -29385.48       32652.488      2.2000182     -40703.122     -18.844038      29.800944    
      4000   3180.9558     -22749.543      32652.488      2.2000182     -40687.563     -18.836835      29.953951    
      4500   3133.2593     -26367.63       32652.488      2.2000182     -40694.572     -18.84008       29.798087    
      5000   3212.8282     -31323.896      32652.488      2.2000182     -40745.409     -18.863615      29.889733    
      5500   3206.3303     -25528.909      32652.488      2.2000182     -40718.684     -18.851243      29.791583    
      6000   3244.4973     -27611.218      32652.488      2.2000182     -40702.439     -18.843722      29.965921    
      6500   3120.2657     -22725.751      32652.488      2.2000182     -40722.765     -18.853132      30.106037    
      7000   3283.0184     -26290.877      32652.488      2.2000182     -40766.676     -18.873461      29.91432     
      7500   3204.8533     -24645.405      32652.488      2.2000182     -40700.403     -18.842779      29.937157    
      8000   3242.7302     -28750.078      32652.488      2.2000182     -40705.779     -18.845268      29.672892    
      8500   3226.8196     -27481.505      32652.488      2.2000182     -40710.286     -18.847355      29.83122     
      9000   3039.1414     -22063.1        32652.488      2.2000182     -40749.335     -18.865433      30.072696    
      9500   3148.6493     -28402.759      32652.488      2.2000182     -40713.664     -18.848918      30.026691    
     10000   3203.3778     -26298.699      32652.488      2.2000182     -40717.749     -18.85081       30.328368    
     10500   3283.4845     -24151.257      32652.488      2.2000182     -40747.578     -18.864619      29.89179     
     11000   3176.0759     -19026.514      32652.488      2.2000182     -40741.774     -18.861933      29.965764    
     11500   3268.3609     -21678.427      32652.488      2.2000182     -40761.678     -18.871147      30.009481    
     12000   3229.5082     -15247.556      32652.488      2.2000182     -40716.096     -18.850045      30.159532    
     12500   3273.9258     -19667.732      32652.488      2.2000182     -40718.816     -18.851304      29.806095    
     13000   3202.3143     -26196.911      32652.488      2.2000182     -40687.99      -18.837032      30.241945    
     13500   3199.3482     -30899.504      32652.488      2.2000182     -40717.519     -18.850703      29.939713    
     14000   3229.551      -21441.457      32652.488      2.2000182     -40736.74      -18.859602      30.166931    
     14500   3197.1972     -22979.79       32652.488      2.2000182     -40713.443     -18.848816      29.900679    
     15000   3185.671      -21772.657      32652.488      2.2000182     -40691.608     -18.838707      30.007367    
     15500   3158.4381     -24868.238      32652.488      2.2000182     -40725.513     -18.854404      30.109908    
     16000   3153.2135     -26647.82       32652.488      2.2000182     -40712.639     -18.848444      30.276588    
     16500   3268.6062     -18001.203      32652.488      2.2000182     -40700.763     -18.842946      30.042587    
     17000   3255.7993     -17344.608      32652.488      2.2000182     -40712.843     -18.848539      30.239534    
     17500   3174.9001     -34561.833      32652.488      2.2000182     -40710.878     -18.847629      30.006547    
     18000   3138.7689     -30627.354      32652.488      2.2000182     -40709.834     -18.847146      29.985574    
     18500   3172.3848     -21670.38       32652.488      2.2000182     -40752.57      -18.86693       30.105341    
     19000   3136.071      -26523.962      32652.488      2.2000182     -40717.578     -18.85073       30.105277    
     19500   3237.5064     -21401.975      32652.488      2.2000182     -40721.928     -18.852744      29.856074    
     20000   3162.7033     -29793.28       32652.488      2.2000182     -40694.586     -18.840086      29.924151    
Loop time of 35.3188 on 6 procs for 20000 steps with 2160 atoms

Performance: 48.926 ns/day, 0.491 hours/ns, 566.270 timesteps/s, 1.223 Matom-step/s
96.3% CPU use with 6 MPI tasks x 1 OpenMP threads

MPI task timing breakdown:
Section |  min time  |  avg time  |  max time  |%varavg| %total
---------------------------------------------------------------
Pair    | 20.453     | 22.717     | 25.494     |  32.8 | 64.32
Kspace  | 7.2016     | 10.045     | 12.382     |  50.5 | 28.44
Neigh   | 1.1178     | 1.2039     | 1.2798     |   4.3 |  3.41
Comm    | 1.0037     | 1.058      | 1.0925     |   3.0 |  3.00
Output  | 0.00078967 | 0.00086806 | 0.0012495  |   0.0 |  0.00
Modify  | 0.17724    | 0.18739    | 0.1975     |   1.6 |  0.53
Other   |            | 0.1075     |            |       |  0.30

Nlocal:            360 ave         372 max         355 min
Histogram: 2 2 0 0 1 0 0 0 0 1
Nghost:        4686.83 ave        4716 max        4652 min
Histogram: 1 0 1 0 1 0 0 2 0 1
Neighs:          86087 ave       96821 max       76712 min
Histogram: 1 0 0 2 1 0 1 0 0 1

Total # of neighbors = 516522
Ave neighs/atom = 239.13056
Neighbor list builds = 861
Dangerous builds = 0
PPPM initialization ...
  using 12-bit tables for long-range coulomb (src/kspace.cpp:342)
  G vector (1/distance) = 0.29696104
  grid = 24 24 27
  stencil order = 5
  estimated absolute RMS force accuracy = 0.0014110636
  estimated relative force accuracy = 9.7992942e-05
  using double precision FFTW3
  3d grid and FFT values/proc = 9424 2880
Generated 0 of 1 mixed pair_coeff terms from geometric mixing rule
WARNING: Compute rdf cutoff less than neighbor cutoff - forcing a needless neighbor list build (src/compute_rdf.cpp:179)
Setting up Verlet run ...
  Unit style    : metal
  Current step  : 0
  Time step     : 0.001
Per MPI rank memory allocation (min/avg/max) = 6.134 | 6.276 | 6.545 Mbytes
   Step          Temp          Press          Volume        Density         PotEng         v_epa        c_msd0[4]   
         0   3162.7033     -29793.28       32652.488      2.2000182     -40694.586     -18.840086      29.924151    
       500   3083.2222     -17488.273      32652.488      2.2000182     -40770.947     -18.875438      29.991134    
      1000   3038.6603     -23422.218      32652.488      2.2000182     -40748.433     -18.865015      30.05854     
      1500   3163.5226     -21617.816      32652.488      2.2000182     -40709.556     -18.847016      29.797825    
      2000   3070.606      -23544.109      32652.488      2.2000182     -40762.625     -18.871586      30.043665    
      2500   3178.9201     -19694.103      32652.488      2.2000182     -40765.527     -18.872929      29.948377    
      3000   3203.8291     -27528.823      32652.488      2.2000182     -40763.984     -18.872215      29.88824     
      3500   3008.9518     -21532.819      32652.488      2.2000182     -40765.085     -18.872725      30.269736    
      4000   3078.2109     -22480.105      32652.488      2.2000182     -40773.478     -18.87661       30.089445    
      4500   3110.1668     -27618.197      32652.488      2.2000182     -40748.85      -18.865209      29.928501    
      5000   3084.7908     -27633.089      32652.488      2.2000182     -40774.785     -18.877215      30.033505    
      5500   3155.8027     -29042.797      32652.488      2.2000182     -40769.2       -18.874629      29.782518    
      6000   3098.4863     -20664.946      32652.488      2.2000182     -40734.453     -18.858543      30.028418    
      6500   3215.4357     -21992.934      32652.488      2.2000182     -40738.339     -18.860342      30.098597    
      7000   3035.2515     -23067.539      32652.488      2.2000182     -40753.284     -18.867261      29.773523    
      7500   3027.4605     -24675.306      32652.488      2.2000182     -40740.506     -18.861345      30.026221    
      8000   3103.5993     -36355.211      32652.488      2.2000182     -40736.928     -18.859689      29.887059    
      8500   3132.1397     -21764.451      32652.488      2.2000182     -40736.363     -18.859427      29.881924    
      9000   3163.5442     -25487.597      32652.488      2.2000182     -40732.829     -18.857791      29.940755    
      9500   3103.6521     -23906.631      32652.488      2.2000182     -40767.993     -18.874071      30.041066    
     10000   3107.3657     -29902.586      32652.488      2.2000182     -40775.993     -18.877774      29.988254    
     10500   3095.268      -23772.287      32652.488      2.2000182     -40755.51      -18.868291      29.840074    
     11000   3138.0668     -22175.609      32652.488      2.2000182     -40738.987     -18.860642      30.011028    
     11500   3167.3449     -28341.403      32652.488      2.2000182     -40781.41      -18.880282      29.996369    
     12000   3095.9967     -23335.107      32652.488      2.2000182     -40715.88      -18.849944      29.846738    
     12500   3160.7904     -31571.416      32652.488      2.2000182     -40749.206     -18.865373      30.146004    
     13000   3077.4619     -22676.977      32652.488      2.2000182     -40769.153     -18.874608      29.897008    
     13500   3110.9964     -26498.763      32652.488      2.2000182     -40763.06      -18.871787      29.848558    
     14000   3172.0505     -35478.268      32652.488      2.2000182     -40724.061     -18.853732      29.832679    
     14500   3114.6137     -27127.578      32652.488      2.2000182     -40756.068     -18.86855       30.144339    
     15000   3126.6244     -22556.001      32652.488      2.2000182     -40776.759     -18.878129      29.85242     
     15500   3049.6803     -27712.847      32652.488      2.2000182     -40770.03      -18.875014      30.282636    
     16000   3087.5622     -29154.091      32652.488      2.2000182     -40777.123     -18.878298      29.996889    
     16500   3148.6734     -30718.521      32652.488      2.2000182     -40756.747     -18.868864      30.353726    
     17000   3157.571      -22508.424      32652.488      2.2000182     -40766.018     -18.873156      30.01021     
     17500   3000.2039     -28777.9        32652.488      2.2000182     -40774.34      -18.877009      30.321492    
     18000   3037.3167     -27886.857      32652.488      2.2000182     -40731.19      -18.857033      30.011619    
     18500   3170.496      -28951.329      32652.488      2.2000182     -40758.176     -18.869526      30.245531    
     19000   3028.8326     -26358.05       32652.488      2.2000182     -40796.036     -18.887054      30.095908    
     19500   3124.4647     -28729.019      32652.488      2.2000182     -40740.954     -18.861553      30.004903    
     20000   3220.5352     -21772.808      32652.488      2.2000182     -40743.55      -18.862755      30.154353    
Loop time of 35.439 on 6 procs for 20000 steps with 2160 atoms

Performance: 48.760 ns/day, 0.492 hours/ns, 564.350 timesteps/s, 1.219 Matom-step/s
96.2% CPU use with 6 MPI tasks x 1 OpenMP threads

MPI task timing breakdown:
Section |  min time  |  avg time  |  max time  |%varavg| %total
---------------------------------------------------------------
Pair    | 20.354     | 22.78      | 25.672     |  34.6 | 64.28
Kspace  | 7.2158     | 10.157     | 12.652     |  52.8 | 28.66
Neigh   | 1.0834     | 1.1693     | 1.2422     |   4.4 |  3.30
Comm    | 1.0124     | 1.0445     | 1.0833     |   2.7 |  2.95
Output  | 0.00078305 | 0.00086198 | 0.0012422  |   0.0 |  0.00
Modify  | 0.17294    | 0.18328    | 0.19007    |   1.4 |  0.52
Other   |            | 0.1048     |            |       |  0.30

Nlocal:            360 ave         370 max         351 min
Histogram: 1 0 0 1 1 2 0 0 0 1
Nghost:        4653.83 ave        4669 max        4635 min
Histogram: 2 0 0 0 0 1 0 0 2 1
Neighs:        86057.5 ave       95979 max       77022 min
Histogram: 1 0 1 0 1 1 1 0 0 1

Total # of neighbors = 516345
Ave neighs/atom = 239.04861
Neighbor list builds = 836
Dangerous builds = 0
PPPM initialization ...
  using 12-bit tables for long-range coulomb (src/kspace.cpp:342)
  G vector (1/distance) = 0.29696104
  grid = 24 24 27
  stencil order = 5
  estimated absolute RMS force accuracy = 0.0014110636
  estimated relative force accuracy = 9.7992942e-05
  using double precision FFTW3
  3d grid and FFT values/proc = 9424 2880
Generated 0 of 1 mixed pair_coeff terms from geometric mixing rule
WARNING: Compute rdf cutoff less than neighbor cutoff - forcing a needless neighbor list build (src/compute_rdf.cpp:179)
Setting up Verlet run ...
  Unit style    : metal
  Current step  : 0
  Time step     : 0.001
Per MPI rank memory allocation (min/avg/max) = 6.134 | 6.276 | 6.545 Mbytes
   Step          Temp          Press          Volume        Density         PotEng         v_epa        c_msd0[4]   
         0   3220.5352     -21772.808      32652.488      2.2000182     -40743.55      -18.862755      30.154353    
       500   2952.8392     -26729.905      32652.488      2.2000182     -40790.174     -18.88434       30.111531    
      1000   2935.6683     -33019.048      32652.488      2.2000182     -40803.134     -18.89034       29.958583    
      1500   2988.2978     -20285.961      32652.488      2.2000182     -40791.784     -18.885085      30.081735    
      2000   2979.99       -28439.986      32652.488      2.2000182     -40786.87      -18.88281       29.97768     
      2500   2969.2313     -32002.179      32652.488      2.2000182     -40808.51      -18.892829      30.141808    
      3000   2844.6629     -35535.44       32652.488      2.2000182     -40789.744     -18.884141      30.012085    
      3500   3023.1939     -20429.347      32652.488      2.2000182     -40809.372     -18.893228      30.254813    
      4000   2945.2344     -30626.599      32652.488      2.2000182     -40775.542     -18.877566      30.229535    
      4500   3051.0277     -28697.573      32652.488      2.2000182     -40785.964     -18.882391      30.08265     
      5000   3025.8382     -24325.82       32652.488      2.2000182     -40754.015     -18.867599      30.015742    
      5500   3002.5116     -35639.544      32652.488      2.2000182     -40810.642     -18.893816      30.054157    
      6000   2948.0222     -28441.085      32652.488      2.2000182     -40809.073     -18.893089      29.915756    
      6500   2975.4996     -30078.374      32652.488      2.2000182     -40782.95      -18.880996      30.353717    
      7000   3072.5        -26388.595      32652.488      2.2000182     -40822.491     -18.899301      30.175399    
      7500   3051.2487     -31465.377      32652.488      2.2000182     -40817.199     -18.896851      30.246065    
      8000   2969.8423     -30543.071      32652.488      2.2000182     -40776.332     -18.877931      30.296969    
      8500   2934.3136     -23436.957      32652.488      2.2000182     -40793.464     -18.885863      30.234514    
      9000   2967.0157     -18178.55       32652.488      2.2000182     -40813.877     -18.895314      30.201237    
      9500   2972.8545     -25619.446      32652.488      2.2000182     -40787         -18.88287       30.018454    
     10000   2975.3852     -34247.517      32652.488      2.2000182     -40781.083     -18.880131      30.127296    
     10500   2944.8007     -21616.535      32652.488      2.2000182     -40799.083     -18.888464      30.267387    
     11000   3006.4071     -25953.789      32652.488      2.2000182     -40819.979     -18.898138      30.108286    
     11500   3016.3553     -27140.847      32652.488      2.2000182     -40794.978     -18.886564      30.205436    
     12000   3006.211      -18606.97       32652.488      2.2000182     -40785.472     -18.882163      29.990243    
     12500   2904.3995     -26049.283      32652.488      2.2000182     -40799.531     -18.888672      30.070536    
     13000   3016.26       -24521.67       32652.488      2.2000182     -40825.922     -18.90089       30.130766    
     13500   3041.6404     -29445.672      32652.488      2.2000182     -40837.597     -18.906295      30.180337    
     14000   3082.5331     -22554.382      32652.488      2.2000182     -40795.821     -18.886954      30.225373    
     14500   2979.8062     -27797.732      32652.488      2.2000182     -40798.634     -18.888257      30.115811    
     15000   3028.5628     -29400.003      32652.488      2.2000182     -40815.38      -18.896009      30.133686    
     15500   3082.7546     -24108.21       32652.488      2.2000182     -40803.251     -18.890394      30.028075    
     16000   3008.9194     -33064.641      32652.488      2.2000182     -40757.423     -18.869177      30.131779    
     16500   2891.2082     -23784.557      32652.488      2.2000182     -40769.31      -18.874681      30.102475    
     17000   2970.154      -21598.407      32652.488      2.2000182     -40800.746     -18.889234      30.049441    
     17500   2986.3957     -25532.433      32652.488      2.2000182     -40779.252     -18.879283      30.268738    
     18000   3053.6294     -23258.376      32652.488      2.2000182     -40784.307     -18.881624      29.939453    
     18500   3065.3708     -20340.342      32652.488      2.2000182     -40790.326     -18.88441       30.133294    
     19000   2900.9899     -20116.136      32652.488      2.2000182     -40816.471     -18.896514      30.006017    
     19500   2998.3        -23967.901      32652.488      2.2000182     -40779.936     -18.8796        29.870569    
     20000   3051.102      -19090.476      32652.488      2.2000182     -40788.967     -18.883781      30.196214    
Loop time of 34.8486 on 6 procs for 20000 steps with 2160 atoms

Performance: 49.586 ns/day, 0.484 hours/ns, 573.912 timesteps/s, 1.240 Matom-step/s
96.7% CPU use with 6 MPI tasks x 1 OpenMP threads

MPI task timing breakdown:
Section |  min time  |  avg time  |  max time  |%varavg| %total
---------------------------------------------------------------
Pair    | 20.862     | 22.717     | 25.139     |  28.0 | 65.19
Kspace  | 7.2194     | 9.6717     | 11.584     |  43.7 | 27.75
Neigh   | 1.067      | 1.1362     | 1.195      |   3.5 |  3.26
Comm    | 0.99818    | 1.0335     | 1.0629     |   2.6 |  2.97
Output  | 0.0007813  | 0.00086163 | 0.0012458  |   0.0 |  0.00
Modify  | 0.17689    | 0.18583    | 0.19296    |   1.4 |  0.53
Other   |            | 0.1032     |            |       |  0.30

Nlocal:            360 ave         367 max         354 min
Histogram: 1 2 0 0 0 0 1 0 1 1
Nghost:         4654.5 ave        4678 max        4633 min
Histogram: 2 0 0 0 1 0 1 1 0 1
Neighs:          86062 ave       92913 max       79556 min
Histogram: 1 0 2 1 0 0 0 0 0 2

Total # of neighbors = 516372
Ave neighs/atom = 239.06111
Neighbor list builds = 814
Dangerous builds = 0
PPPM initialization ...
  using 12-bit tables for long-range coulomb (src/kspace.cpp:342)
  G vector (1/distance) = 0.29696104
  grid = 24 24 27
  stencil order = 5
  estimated absolute RMS force accuracy = 0.0014110636
  estimated relative force accuracy = 9.7992942e-05
  using double precision FFTW3
  3d grid and FFT values/proc = 9424 2880
Generated 0 of 1 mixed pair_coeff terms from geometric mixing rule
WARNING: Compute rdf cutoff less than neighbor cutoff - forcing a needless neighbor list build (src/compute_rdf.cpp:179)
Setting up Verlet run ...
  Unit style    : metal
  Current step  : 0
  Time step     : 0.001
Per MPI rank memory allocation (min/avg/max) = 6.134 | 6.276 | 6.545 Mbytes
   Step          Temp          Press          Volume        Density         PotEng         v_epa        c_msd0[4]   
         0   3051.102      -19090.476      32652.488      2.2000182     -40788.967     -18.883781      30.196214    
       500   2957.4005     -14433.875      32652.488      2.2000182     -40854.476     -18.914109      30.208721    
      1000   2882.6271     -32993.015      32652.488      2.2000182     -40823.4       -18.899722      30.00076     
      1500   2889.9318     -23504.872      32652.488      2.2000182     -40802.353     -18.889978      30.116046    
      2000   2905.0043     -20074.644      32652.488      2.2000182     -40823.04      -18.899556      30.091604    
      2500   2899.1946     -22323.774      32652.488      2.2000182     -40828.523     -18.902094      30.162747    
      3000   2870.9708     -22832.095      32652.488      2.2000182     -40809.247     -18.89317       30.310266    
      3500   2891.1938     -26302.701      32652.488      2.2000182     -40826.69      -18.901245      30.125489    
      4000   2853.0393     -20715.519      32652.488      2.2000182     -40824.158     -18.900073      30.039345    
      4500   2882.3111     -24091.949      32652.488      2.2000182     -40822.502     -18.899307      30.178119    
      5000   2909.8061     -21254.028      32652.488      2.2000182     -40811.074     -18.894016      30.072344    
      5500   2847.9339     -26893.653      32652.488      2.2000182     -40852.011     -18.912968      30.18415     
      6000   2922.3632     -23799.298      32652.488      2.2000182     -40836.524     -18.905798      30.500112    
      6500   2921.895      -29527.127      32652.488      2.2000182     -40815.968     -18.896282      30.047418    
      7000   2933.1339     -21103.614      32652.488      2.2000182     -40825.946     -18.900901      30.156955    
      7500   2870.3052     -23121.589      32652.488      2.2000182     -40825.959     -18.900907      30.060747    
      8000   2856.4658     -23545.587      32652.488      2.2000182     -40830.072     -18.902811      30.104377    
      8500   2906.3138     -27425.96       32652.488      2.2000182     -40832.049     -18.903726      30.021309    
      9000   2993.7648     -24385.958      32652.488      2.2000182     -40794.448     -18.886319      30.118824    
      9500   2875.6187     -27102.056      32652.488      2.2000182     -40829.128     -18.902374      30.237618    
     10000   2914.9998     -28006.98       32652.488      2.2000182     -40843.645     -18.909095      30.161246    
     10500   2918.415      -23169.097      32652.488      2.2000182     -40812.714     -18.894775      30.074141    
     11000   2940.635      -22464.446      32652.488      2.2000182     -40794.51      -18.886347      30.005111    
     11500   2928.2406     -18638.898      32652.488      2.2000182     -40816.89      -18.896708      30.370646    
     12000   2855.7573     -22310.242      32652.488      2.2000182     -40809.592     -18.89333       30.235275    
     12500   2800.0291     -32792.301      32652.488      2.2000182     -40847.782     -18.91101       30.307603    
     13000   2944.5239     -18574.16       32652.488      2.2000182     -40822.472     -18.899293      30.419794    
     13500   2849.6967     -20166.118      32652.488      2.2000182     -40820.312     -18.898292      30.37812     
     14000   2868.5931     -24819.888      32652.488      2.2000182     -40842.386     -18.908512      30.152475    
     14500   2904.0826     -26664.509      32652.488      2.2000182     -40847.056     -18.910674      30.288844    
     15000   2906.6053     -24204.492      32652.488      2.2000182     -40829.428     -18.902513      30.258192    
     15500   2851.1981     -24646.939      32652.488      2.2000182     -40793.828     -18.886031      30.214324    
     16000   2867.486      -20552.682      32652.488      2.2000182     -40823.126     -18.899595      30.172109    
     16500   2910.9331     -20944.273      32652.488      2.2000182     -40862.369     -18.917763      30.400879    
     17000   2838.0238     -25767.116      32652.488      2.2000182     -40857.02      -18.915287      30.273417    
     17500   2970.1311     -25448.207      32652.488      2.2000182     -40844.661     -18.909565      30.27374     
     18000   2964.2199     -24835.178      32652.488      2.2000182     -40838.829     -18.906865      30.202816    
     18500   2826.9341     -25176.692      32652.488      2.2000182     -40860.9       -18.917083      30.424831    
     19000   2842.5032     -21668.693      32652.488      2.2000182     -40844.276     -18.909387      30.206125    
     19500   2881.3228     -21485.01       32652.488      2.2000182     -40832.597     -18.90398       30.444021    
     20000   2901.9517     -28123.058      32652.488      2.2000182     -40815.229     -18.895939      30.32        
Loop time of 34.4867 on 6 procs for 20000 steps with 2160 atoms

Performance: 50.106 ns/day, 0.479 hours/ns, 579.933 timesteps/s, 1.253 Matom-step/s
96.9% CPU use with 6 MPI tasks x 1 OpenMP threads

MPI task timing breakdown:
Section |  min time  |  avg time  |  max time  |%varavg| %total
---------------------------------------------------------------
Pair    | 20.522     | 22.673     | 24.856     |  27.3 | 65.74
Kspace  | 7.1884     | 9.3913     | 11.6       |  43.1 | 27.23
Neigh   | 1.0313     | 1.1032     | 1.1481     |   3.4 |  3.20
Comm    | 0.98533    | 1.0289     | 1.0705     |   3.1 |  2.98
Output  | 0.00079601 | 0.00087593 | 0.0012555  |   0.0 |  0.00
Modify  | 0.16424    | 0.18222    | 0.19193    |   2.4 |  0.53
Other   |            | 0.1069     |            |       |  0.31

Nlocal:            360 ave         368 max         350 min
Histogram: 1 0 0 0 0 2 2 0 0 1
Nghost:        4668.83 ave        4689 max        4650 min
Histogram: 2 1 0 0 0 0 0 0 2 1
Neighs:        86003.5 ave       93290 max       76860 min
Histogram: 1 0 0 0 1 2 0 0 1 1

Total # of neighbors = 516021
Ave neighs/atom = 238.89861
Neighbor list builds = 794
Dangerous builds = 0
PPPM initialization ...
  using 12-bit tables for long-range coulomb (src/kspace.cpp:342)
  G vector (1/distance) = 0.29696104
  grid = 24 24 27
  stencil order = 5
  estimated absolute RMS force accuracy = 0.0014110636
  estimated relative force accuracy = 9.7992942e-05
  using double precision FFTW3
  3d grid and FFT values/proc = 9424 2880
Generated 0 of 1 mixed pair_coeff terms from geometric mixing rule
WARNING: Compute rdf cutoff less than neighbor cutoff - forcing a needless neighbor list build (src/compute_rdf.cpp:179)
Setting up Verlet run ...
  Unit style    : metal
  Current step  : 0
  Time step     : 0.001
Per MPI rank memory allocation (min/avg/max) = 6.134 | 6.276 | 6.545 Mbytes
   Step          Temp          Press          Volume        Density         PotEng         v_epa        c_msd0[4]   
         0   2901.9517     -28123.058      32652.488      2.2000182     -40815.229     -18.895939      30.32        
       500   2847.1532     -22178.58       32652.488      2.2000182     -40896.484     -18.933558      30.259845    
      1000   2721.4665     -25739.41       32652.488      2.2000182     -40851.164     -18.912576      30.239059    
      1500   2797.6421     -39168.784      32652.488      2.2000182     -40850.78      -18.912398      30.376256    
      2000   2877.151      -35218.442      32652.488      2.2000182     -40859.13      -18.916264      30.451355    
      2500   2771.2027     -26706.275      32652.488      2.2000182     -40886.596     -18.92898       30.419383    
      3000   2746.9034     -27743.255      32652.488      2.2000182     -40873.424     -18.922882      30.421433    
      3500   2896.3511     -20909.089      32652.488      2.2000182     -40882.403     -18.927038      30.478705    
      4000   2826.2118     -28003.231      32652.488      2.2000182     -40861.222     -18.917233      30.139081    
      4500   2838.6378     -23056.006      32652.488      2.2000182     -40874.337     -18.923304      30.305789    
      5000   2827.4368     -27196.866      32652.488      2.2000182     -40875.546     -18.923864      30.010338    
      5500   2709.8847     -17528.691      32652.488      2.2000182     -40888.1       -18.929676      30.229869    
      6000   2838.4294     -25944.865      32652.488      2.2000182     -40873.133     -18.922747      30.2062      
      6500   2830.0709     -18692.795      32652.488      2.2000182     -40866.705     -18.919771      30.412837    
      7000   2815.4454     -23949.951      32652.488      2.2000182     -40898.961     -18.934704      30.193184    
      7500   2786.4468     -30394.353      32652.488      2.2000182     -40856.766     -18.915169      30.331106    
      8000   2850.0165     -29384.713      32652.488      2.2000182     -40861.201     -18.917223      30.494069    
      8500   2785.799      -24325.037      32652.488      2.2000182     -40874.144     -18.923215      30.242565    
      9000   2724.431      -21255.977      32652.488      2.2000182     -40850.966     -18.912484      30.167771    
      9500   2796.301      -31287.439      32652.488      2.2000182     -40863.633     -18.918349      30.420531    
     10000   2718.5685     -28579.559      32652.488      2.2000182     -40862.806     -18.917966      30.298647    
     10500   2732.5709     -20779.41       32652.488      2.2000182     -40875.058     -18.923638      30.263744    
     11000   2853.286      -28527.132      32652.488      2.2000182     -40837.631     -18.906311      30.201513    
     11500   2817.3642     -25912.593      32652.488      2.2000182     -40871.592     -18.922033      30.236422    
     12000   2753.4351     -27045.765      32652.488      2.2000182     -40860.179     -18.91675       30.279409    
     12500   2822.6538     -25900.71       32652.488      2.2000182     -40875.769     -18.923967      30.234521    
     13000   2931.6147     -18352.246      32652.488      2.2000182     -40871.816     -18.922137      30.129734    
     13500   2823.8472     -28031.202      32652.488      2.2000182     -40848.093     -18.911154      30.419377    
     14000   2838.798      -22720.649      32652.488      2.2000182     -40863.188     -18.918143      30.09885     
     14500   2744.619      -20287.673      32652.488      2.2000182     -40860.903     -18.917085      30.2129      
     15000   2901.7673     -26748.278      32652.488      2.2000182     -40876.602     -18.924353      30.241352    
     15500   2864.4933     -28174.022      32652.488      2.2000182     -40888.207     -18.929725      30.261197    
     16000   2807.3683     -28017.464      32652.488      2.2000182     -40882.848     -18.927245      30.3366      
     16500   2770.5399     -23075.136      32652.488      2.2000182     -40861.569     -18.917393      30.318931    
     17000   2837.1941     -25139.861      32652.488      2.2000182     -40841.532     -18.908117      30.508306    
     17500   2856.3454     -26263.532      32652.488      2.2000182     -40876.623     -18.924362      30.274293    
     18000   2786.7753     -23781.965      32652.488      2.2000182     -40870.22      -18.921398      30.53701     
     18500   2759.5507     -27545.541      32652.488      2.2000182     -40865.493     -18.91921       30.491943    
     19000   2818.6614     -26985.729      32652.488      2.2000182     -40871.589     -18.922032      30.289146    
     19500   2855.0139     -27360.487      32652.488      2.2000182     -40869.057     -18.92086       30.372095    
     20000   2867.1217     -29190.912      32652.488      2.2000182     -40880.619     -18.926213      30.23883     
Loop time of 34.6527 on 6 procs for 20000 steps with 2160 atoms

Performance: 49.866 ns/day, 0.481 hours/ns, 577.156 timesteps/s, 1.247 Matom-step/s
97.0% CPU use with 6 MPI tasks x 1 OpenMP threads

MPI task timing breakdown:
Section |  min time  |  avg time  |  max time  |%varavg| %total
---------------------------------------------------------------
Pair    | 20.277     | 22.825     | 24.997     |  29.2 | 65.87
Kspace  | 7.2106     | 9.3978     | 12.007     |  46.4 | 27.12
Neigh   | 0.99724    | 1.0869     | 1.1299     |   4.1 |  3.14
Comm    | 1.0024     | 1.0414     | 1.0684     |   2.5 |  3.01
Output  | 0.00079492 | 0.00087829 | 0.0012646  |   0.0 |  0.00
Modify  | 0.17845    | 0.19112    | 0.20265    |   2.1 |  0.55
Other   |            | 0.1094     |            |       |  0.32

Nlocal:            360 ave         367 max         352 min
Histogram: 2 0 0 0 1 0 0 0 2 1
Nghost:         4653.5 ave        4666 max        4641 min
Histogram: 1 0 1 0 1 1 0 1 0 1
Neighs:        86048.3 ave       95369 max       76361 min
Histogram: 1 0 0 1 2 0 0 1 0 1

Total # of neighbors = 516290
Ave neighs/atom = 239.02315
Neighbor list builds = 783
Dangerous builds = 0
PPPM initialization ...
  using 12-bit tables for long-range coulomb (src/kspace.cpp:342)
  G vector (1/distance) = 0.29696104
  grid = 24 24 27
  stencil order = 5
  estimated absolute RMS force accuracy = 0.0014110636
  estimated relative force accuracy = 9.7992942e-05
  using double precision FFTW3
  3d grid and FFT values/proc = 9424 2880
Generated 0 of 1 mixed pair_coeff terms from geometric mixing rule
WARNING: Compute rdf cutoff less than neighbor cutoff - forcing a needless neighbor list build (src/compute_rdf.cpp:179)
Setting up Verlet run ...
  Unit style    : metal
  Current step  : 0
  Time step     : 0.001
Per MPI rank memory allocation (min/avg/max) = 6.134 | 6.276 | 6.545 Mbytes
   Step          Temp          Press          Volume        Density         PotEng         v_epa        c_msd0[4]   
         0   2867.1217     -29190.912      32652.488      2.2000182     -40880.619     -18.926213      30.23883     
       500   2649.7662     -21212.207      32652.488      2.2000182     -40893.441     -18.932148      30.568212    
      1000   2667.876      -25092.345      32652.488      2.2000182     -40896.11      -18.933384      30.364125    
      1500   2741.8084     -20926.625      32652.488      2.2000182     -40897.613     -18.93408       30.506326    
      2000   2777.6707     -26376.617      32652.488      2.2000182     -40902.639     -18.936407      30.286266    
      2500   2739.3618     -21315.433      32652.488      2.2000182     -40883.931     -18.927746      30.302194    
      3000   2729.7208     -29786.937      32652.488      2.2000182     -40911.744     -18.940622      30.427124    
      3500   2654.6791     -26933.471      32652.488      2.2000182     -40896.943     -18.93377       30.249241    
      4000   2747.1631     -26100.738      32652.488      2.2000182     -40901.728     -18.935985      30.455967    
      4500   2729.5292     -22962.945      32652.488      2.2000182     -40864.713     -18.918849      30.293496    
      5000   2659.8288     -15292.394      32652.488      2.2000182     -40904.675     -18.93735       30.671192    
      5500   2684.3915     -22239.49       32652.488      2.2000182     -40898.751     -18.934607      30.395725    
      6000   2700.2183     -24337.561      32652.488      2.2000182     -40872.489     -18.922448      30.2286      
      6500   2719.603      -26040.229      32652.488      2.2000182     -40904.131     -18.937098      30.541703    
      7000   2644.2072     -25679.3        32652.488      2.2000182     -40926.517     -18.947462      30.433224    
      7500   2625.5307     -19112.799      32652.488      2.2000182     -40890         -18.930556      30.329841    
      8000   2631.1687     -24674.482      32652.488      2.2000182     -40874.394     -18.923331      30.36186     
      8500   2741.8419     -26371.026      32652.488      2.2000182     -40893.484     -18.932169      30.469652    
      9000   2740.7087     -26362.057      32652.488      2.2000182     -40883.025     -18.927327      30.21678     
      9500   2725.8206     -21347.695      32652.488      2.2000182     -40911.452     -18.940487      30.531897    
     10000   2722.6767     -28253.57       32652.488      2.2000182     -40912.435     -18.940942      30.312819    
     10500   2733.7213     -22260.048      32652.488      2.2000182     -40895.603     -18.93315       30.587571    
     11000   2721.8285     -28287.455      32652.488      2.2000182     -40873.564     -18.922946      30.331348    
     11500   2707.6074     -24197.571      32652.488      2.2000182     -40892.607     -18.931762      30.419104    
     12000   2651.6161     -22572.722      32652.488      2.2000182     -40888.548     -18.929884      30.450033    
     12500   2668.0567     -25755.605      32652.488      2.2000182     -40913.443     -18.941409      30.277312    
     13000   2661.2121     -17283.805      32652.488      2.2000182     -40919.503     -18.944214      30.504148    
     13500   2685.7343     -18720.28       32652.488      2.2000182     -40905.183     -18.937585      30.251947    
     14000   2709.1388     -22601.122      32652.488      2.2000182     -40896.666     -18.933642      30.529825    
     14500   2622.141      -24647.755      32652.488      2.2000182     -40888.771     -18.929987      30.266783    
     15000   2599.5048     -18402.194      32652.488      2.2000182     -40883.69      -18.927634      30.239478    
     15500   2711.0454     -24304.235      32652.488      2.2000182     -40914.844     -18.942057      30.250682    
     16000   2701.3595     -21380.785      32652.488      2.2000182     -40882.229     -18.926958      30.542959    
     16500   2768.6952     -23463.05       32652.488      2.2000182     -40894.425     -18.932604      30.267821    
     17000   2756.1471     -18519.225      32652.488      2.2000182     -40911.424     -18.940474      30.317607    
     17500   2642.2645     -22196.428      32652.488      2.2000182     -40902.469     -18.936328      30.262164    
     18000   2717.3496     -24831.127      32652.488      2.2000182     -40894.004     -18.932409      30.438452    
     18500   2815.6622     -17545.265      32652.488      2.2000182     -40897.887     -18.934207      30.332963    
     19000   2746.3278     -23573.69       32652.488      2.2000182     -40898.252     -18.934376      30.577025    
     19500   2681.6895     -24898.875      32652.488      2.2000182     -40891.137     -18.931082      30.463484    
     20000   2668.5266     -27218.103      32652.488      2.2000182     -40897.981     -18.934251      30.3714      
Loop time of 34.6446 on 6 procs for 20000 steps with 2160 atoms

Performance: 49.878 ns/day, 0.481 hours/ns, 577.291 timesteps/s, 1.247 Matom-step/s
96.8% CPU use with 6 MPI tasks x 1 OpenMP threads

MPI task timing breakdown:
Section |  min time  |  avg time  |  max time  |%varavg| %total
---------------------------------------------------------------
Pair    | 19.955     | 22.674     | 25.004     |  31.9 | 65.45
Kspace  | 7.2493     | 9.5904     | 12.361     |  49.8 | 27.68
Neigh   | 0.96485    | 1.0562     | 1.1035     |   4.3 |  3.05
Comm    | 0.98693    | 1.034      | 1.0706     |   3.4 |  2.98
Output  | 0.00078519 | 0.00086337 | 0.0012357  |   0.0 |  0.00
Modify  | 0.16986    | 0.1807     | 0.18958    |   1.7 |  0.52
Other   |            | 0.1084     |            |       |  0.31

Nlocal:            360 ave         371 max         350 min
Histogram: 1 1 0 1 0 0 1 1 0 1
Nghost:        4655.33 ave        4674 max        4636 min
Histogram: 3 0 0 0 0 0 0 0 0 3
Neighs:        86075.7 ave       94392 max       77612 min
Histogram: 1 0 0 0 3 0 1 0 0 1

Total # of neighbors = 516454
Ave neighs/atom = 239.09907
Neighbor list builds = 761
Dangerous builds = 0
PPPM initialization ...
  using 12-bit tables for long-range coulomb (src/kspace.cpp:342)
  G vector (1/distance) = 0.29696104
  grid = 24 24 27
  stencil order = 5
  estimated absolute RMS force accuracy = 0.0014110636
  estimated relative force accuracy = 9.7992942e-05
  using double precision FFTW3
  3d grid and FFT values/proc = 9424 2880
Generated 0 of 1 mixed pair_coeff terms from geometric mixing rule
WARNING: Compute rdf cutoff less than neighbor cutoff - forcing a needless neighbor list build (src/compute_rdf.cpp:179)
Setting up Verlet run ...
  Unit style    : metal
  Current step  : 0
  Time step     : 0.001
Per MPI rank memory allocation (min/avg/max) = 6.134 | 6.276 | 6.545 Mbytes
   Step          Temp          Press          Volume        Density         PotEng         v_epa        c_msd0[4]   
         0   2668.5266     -27218.103      32652.488      2.2000182     -40897.981     -18.934251      30.3714      
       500   2580.4997     -22192.897      32652.488      2.2000182     -40930.954     -18.949516      30.241608    
      1000   2655.9024     -20959.301      32652.488      2.2000182     -40954.903     -18.960603      30.288821    
      1500   2571.8334     -17496.212      32652.488      2.2000182     -40935.481     -18.951612      30.065682    
      2000   2587.4865     -14896.214      32652.488      2.2000182     -40940.479     -18.953926      30.434018    
      2500   2582.5719     -24859.882      32652.488      2.2000182     -40920.801     -18.944815      30.273662    
      3000   2583.2974     -22684.915      32652.488      2.2000182     -40920.712     -18.944774      30.208122    
      3500   2596.2858     -19679.853      32652.488      2.2000182     -40949.752     -18.958219      30.322299    
      4000   2563.1718     -22161.256      32652.488      2.2000182     -40922.479     -18.945592      30.3167      
      4500   2649.1813     -25712.421      32652.488      2.2000182     -40929.465     -18.948827      30.397574    
      5000   2646.231      -23416.639      32652.488      2.2000182     -40917.229     -18.943161      30.477152    
      5500   2642.1786     -27475.73       32652.488      2.2000182     -40920.305     -18.944586      30.150933    
      6000   2558.0063     -23904.278      32652.488      2.2000182     -40922.16      -18.945444      30.570807    
      6500   2631.8606     -26244.399      32652.488      2.2000182     -40928.466     -18.948364      30.270265    
      7000   2638.2981     -23697.934      32652.488      2.2000182     -40915.605     -18.94241       30.636695    
      7500   2642.1587     -23943.331      32652.488      2.2000182     -40937.689     -18.952634      30.169049    
      8000   2544.3397     -18815.908      32652.488      2.2000182     -40928.743     -18.948492      30.422903    
      8500   2520.9195     -25954.51       32652.488      2.2000182     -40917.67      -18.943366      30.381509    
      9000   2646.4648     -22380.898      32652.488      2.2000182     -40909.301     -18.939491      30.224256    
      9500   2586.4237     -30780.059      32652.488      2.2000182     -40907.386     -18.938605      30.431317    
     10000   2632.8426     -18016.042      32652.488      2.2000182     -40935.356     -18.951554      30.141128    
     10500   2616.7645     -23847.969      32652.488      2.2000182     -40942.269     -18.954754      30.268786    
     11000   2497.5285     -30559.252      32652.488      2.2000182     -40950.352     -18.958496      30.164858    
     11500   2616.3333     -22068.458      32652.488      2.2000182     -40916.81      -18.942968      30.196854    
     12000   2636.8183     -22907.545      32652.488      2.2000182     -40935.36      -18.951555      30.061717    
     12500   2502.7664     -21335.981      32652.488      2.2000182     -40915.065     -18.94216       30.170454    
     13000   2548.7332     -29577.038      32652.488      2.2000182     -40944.959     -18.956         30.143926    
     13500   2621.6971     -24872.275      32652.488      2.2000182     -40937.864     -18.952715      30.248119    
     14000   2616.1591     -26771.832      32652.488      2.2000182     -40917.68      -18.94337       30.301552    
     14500   2587.5864     -20794.968      32652.488      2.2000182     -40929.063     -18.94864       30.276745    
     15000   2564.022      -26103.472      32652.488      2.2000182     -40929.122     -18.948668      30.255826    
     15500   2623.6398     -30513.086      32652.488      2.2000182     -40897.625     -18.934086      30.181253    
     16000   2645.4562     -26648.86       32652.488      2.2000182     -40923.893     -18.946247      30.294468    
     16500   2561.0505     -25530.826      32652.488      2.2000182     -40919.052     -18.944006      30.251135    
     17000   2543.4838     -21136.527      32652.488      2.2000182     -40946.346     -18.956641      30.164696    
     17500   2524.3741     -28187.423      32652.488      2.2000182     -40943.525     -18.955336      30.33581     
     18000   2598.3754     -29875.018      32652.488      2.2000182     -40933.957     -18.950906      30.1196      
     18500   2625.5046     -28696.639      32652.488      2.2000182     -40925.263     -18.946881      30.465429    
     19000   2632.2809     -21042.745      32652.488      2.2000182     -40915.631     -18.942422      30.376762    
     19500   2604.0028     -22941.364      32652.488      2.2000182     -40939.803     -18.953613      30.218956    
     20000   2581.8008     -22935.452      32652.488      2.2000182     -40942.248     -18.954744      30.249178    
Loop time of 34.2383 on 6 procs for 20000 steps with 2160 atoms

Performance: 50.470 ns/day, 0.476 hours/ns, 584.142 timesteps/s, 1.262 Matom-step/s
97.3% CPU use with 6 MPI tasks x 1 OpenMP threads

MPI task timing breakdown:
Section |  min time  |  avg time  |  max time  |%varavg| %total
---------------------------------------------------------------
Pair    | 20.027     | 22.687     | 24.619     |  29.4 | 66.26
Kspace  | 7.2641     | 9.2106     | 11.902     |  46.8 | 26.90
Neigh   | 0.92882    | 1.0206     | 1.0611     |   4.3 |  2.98
Comm    | 0.98262    | 1.0327     | 1.0942     |   3.9 |  3.02
Output  | 0.00078191 | 0.00085956 | 0.001229   |   0.0 |  0.00
Modify  | 0.17641    | 0.18416    | 0.19585    |   2.0 |  0.54
Other   |            | 0.1024     |            |       |  0.30

Nlocal:            360 ave         370 max         346 min
Histogram: 1 0 0 1 1 0 0 1 0 2
Nghost:         4671.5 ave        4682 max        4656 min
Histogram: 1 0 0 1 0 1 1 0 0 2
Neighs:          86067 ave       91194 max       76587 min
Histogram: 1 0 0 0 0 1 1 1 0 2

Total # of neighbors = 516402
Ave neighs/atom = 239.075
Neighbor list builds = 736
Dangerous builds = 0
PPPM initialization ...
  using 12-bit tables for long-range coulomb (src/kspace.cpp:342)
  G vector (1/distance) = 0.29696104
  grid = 24 24 27
  stencil order = 5
  estimated absolute RMS force accuracy = 0.0014110636
  estimated relative force accuracy = 9.7992942e-05
  using double precision FFTW3
  3d grid and FFT values/proc = 9424 2880
Generated 0 of 1 mixed pair_coeff terms from geometric mixing rule
WARNING: Compute rdf cutoff less than neighbor cutoff - forcing a needless neighbor list build (src/compute_rdf.cpp:179)
Setting up Verlet run ...
  Unit style    : metal
  Current step  : 0
  Time step     : 0.001
Per MPI rank memory allocation (min/avg/max) = 6.134 | 6.276 | 6.545 Mbytes
   Step          Temp          Press          Volume        Density         PotEng         v_epa        c_msd0[4]   
         0   2581.8008     -22935.452      32652.488      2.2000182     -40942.248     -18.954744      30.249178    
       500   2544.6777     -26133.791      32652.488      2.2000182     -40968.587     -18.966938      30.315357    
      1000   2456.6547     -25164.043      32652.488      2.2000182     -40963.562     -18.964612      30.216067    
      1500   2559.1718     -22951.02       32652.488      2.2000182     -40960.857     -18.96336       30.205512    
      2000   2527.4091     -25886.982      32652.488      2.2000182     -40942.939     -18.955064      30.278514    
      2500   2515.8889     -22754.895      32652.488      2.2000182     -40969.821     -18.96751       30.120388    
      3000   2493.0575     -22431.379      32652.488      2.2000182     -40972.973     -18.968969      30.190834    
      3500   2553.0782     -29663.55       32652.488      2.2000182     -40993.07      -18.978273      30.246743    
      4000   2518.238      -22516.536      32652.488      2.2000182     -40961.561     -18.963686      30.339595    
      4500   2559.7442     -29753.903      32652.488      2.2000182     -40977.657     -18.971137      30.083377    
      5000   2451.5252     -21307.992      32652.488      2.2000182     -40964.613     -18.965098      30.312677    
      5500   2492.5118     -28950.838      32652.488      2.2000182     -40975.83      -18.970292      30.355664    
      6000   2460.9211     -25301.846      32652.488      2.2000182     -40945.589     -18.956291      30.374876    
      6500   2570.3425     -23549.021      32652.488      2.2000182     -40964.622     -18.965103      30.230003    
      7000   2518.6092     -18828.084      32652.488      2.2000182     -40940.704     -18.95403       30.278363    
      7500   2587.3791     -22069.548      32652.488      2.2000182     -40967.628     -18.966494      30.417208    
      8000   2434.902      -25566.496      32652.488      2.2000182     -40958.163     -18.962112      30.251017    
      8500   2527.7374     -18959.533      32652.488      2.2000182     -40978.14      -18.971361      30.152217    
      9000   2601.2028     -20250.581      32652.488      2.2000182     -40957.311     -18.961718      30.054479    
      9500   2552.3179     -20305.511      32652.488      2.2000182     -40958.071     -18.96207       30.187714    
     10000   2488.2216     -24722.928      32652.488      2.2000182     -40967.69      -18.966523      30.300458    
     10500   2482.4991     -21672.581      32652.488      2.2000182     -40958.145     -18.962104      30.178377    
     11000   2542.5563     -14643.768      32652.488      2.2000182     -40954.399     -18.96037       30.24083     
     11500   2477.7662     -19444.971      32652.488      2.2000182     -40958.261     -18.962158      30.617092    
     12000   2462.319      -19755.641      32652.488      2.2000182     -40961.977     -18.963878      30.243099    
     12500   2448.9839     -22173.443      32652.488      2.2000182     -40969.689     -18.967449      30.27623     
     13000   2466.5061     -25251.064      32652.488      2.2000182     -40956.02      -18.96112       30.126997    
     13500   2551.6089     -30840.862      32652.488      2.2000182     -40963.762     -18.964705      30.36119     
     14000   2507.4005     -30606.193      32652.488      2.2000182     -40976.825     -18.970752      30.227035    
     14500   2441.8002     -21395.414      32652.488      2.2000182     -40979.471     -18.971977      30.193924    
     15000   2494.0668     -26376.639      32652.488      2.2000182     -40963.08      -18.964389      30.313694    
     15500   2535.7385     -26224.329      32652.488      2.2000182     -40949.378     -18.958045      30.328818    
     16000   2495.8846     -31040.383      32652.488      2.2000182     -40954.115     -18.960238      30.413638    
     16500   2448.758      -24372.324      32652.488      2.2000182     -40959.414     -18.962691      30.227403    
     17000   2559.9857     -18546.415      32652.488      2.2000182     -40969.44      -18.967333      30.327011    
     17500   2465.9268     -25931.331      32652.488      2.2000182     -40958.923     -18.962464      30.112184    
     18000   2460.1437     -17432.112      32652.488      2.2000182     -40972.505     -18.968752      30.346489    
     18500   2503.8292     -26390.44       32652.488      2.2000182     -40970.431     -18.967792      30.330429    
     19000   2499.0765     -26447.488      32652.488      2.2000182     -40960.143     -18.963029      30.349958    
     19500   2454.628      -27402.381      32652.488      2.2000182     -40955.426     -18.960846      30.320668    
     20000   2414.9895     -28330.932      32652.488      2.2000182     -40962.999     -18.964352      30.300586    
Loop time of 34.4215 on 6 procs for 20000 steps with 2160 atoms

Performance: 50.201 ns/day, 0.478 hours/ns, 581.033 timesteps/s, 1.255 Matom-step/s
96.8% CPU use with 6 MPI tasks x 1 OpenMP threads

MPI task timing breakdown:
Section |  min time  |  avg time  |  max time  |%varavg| %total
---------------------------------------------------------------
Pair    | 19.891     | 22.687     | 24.925     |  31.7 | 65.91
Kspace  | 7.1889     | 9.4558     | 12.297     |  49.9 | 27.47
Neigh   | 0.8869     | 0.97538    | 1.0141     |   4.3 |  2.83
Comm    | 0.97556    | 1.0125     | 1.0499     |   2.6 |  2.94
Output  | 0.00078448 | 0.00086383 | 0.0012495  |   0.0 |  0.00
Modify  | 0.1672     | 0.18114    | 0.19096    |   2.1 |  0.53
Other   |            | 0.109      |            |       |  0.32

Nlocal:            360 ave         370 max         342 min
Histogram: 1 0 0 0 0 0 3 0 1 1
Nghost:        4663.67 ave        4705 max        4628 min
Histogram: 1 0 0 2 1 0 1 0 0 1
Neighs:        86062.7 ave       93043 max       73963 min
Histogram: 1 0 0 0 0 1 1 0 2 1

Total # of neighbors = 516376
Ave neighs/atom = 239.06296
Neighbor list builds = 703
Dangerous builds = 0
PPPM initialization ...
  using 12-bit tables for long-range coulomb (src/kspace.cpp:342)
  G vector (1/distance) = 0.29696104
  grid = 24 24 27
  stencil order = 5
  estimated absolute RMS force accuracy = 0.0014110636
  estimated relative force accuracy = 9.7992942e-05
  using double precision FFTW3
  3d grid and FFT values/proc = 9424 2880
Generated 0 of 1 mixed pair_coeff terms from geometric mixing rule
WARNING: Compute rdf cutoff less than neighbor cutoff - forcing a needless neighbor list build (src/compute_rdf.cpp:179)
Setting up Verlet run ...
  Unit style    : metal
  Current step  : 0
  Time step     : 0.001
Per MPI rank memory allocation (min/avg/max) = 6.134 | 6.276 | 6.545 Mbytes
   Step          Temp          Press          Volume        Density         PotEng         v_epa        c_msd0[4]   
         0   2414.9895     -28330.932      32652.488      2.2000182     -40962.999     -18.964352      30.300586    
       500   2377.3714     -24608.16       32652.488      2.2000182     -40986.929     -18.97543       30.271813    
      1000   2405.7984     -24282.268      32652.488      2.2000182     -41008.488     -18.985411      30.194504    
      1500   2394.1029     -28863.86       32652.488      2.2000182     -40987.155     -18.975535      30.155854    
      2000   2423.6753     -20522.517      32652.488      2.2000182     -40975.742     -18.970251      30.277217    
      2500   2382.934      -22993.443      32652.488      2.2000182     -40980.927     -18.972651      30.318822    
      3000   2427.5562     -24412.676      32652.488      2.2000182     -41012.706     -18.987364      30.167833    
      3500   2324.512      -27613.396      32652.488      2.2000182     -40986.422     -18.975195      30.378193    
      4000   2380.2991     -25725.902      32652.488      2.2000182     -41001.561     -18.982204      30.060765    
      4500   2406.2847     -22782.675      32652.488      2.2000182     -40990.047     -18.976874      30.361791    
      5000   2385.2975     -23325.321      32652.488      2.2000182     -40989.596     -18.976665      30.217578    
      5500   2378.2826     -24935.187      32652.488      2.2000182     -41005.179     -18.983879      30.288157    
      6000   2357.9874     -26366.623      32652.488      2.2000182     -40983.169     -18.973689      30.195039    
      6500   2470.7246     -25437.156      32652.488      2.2000182     -41004.533     -18.98358       30.271243    
      7000   2395.6973     -24305.751      32652.488      2.2000182     -41018.76      -18.990167      30.196511    
      7500   2414.7789     -26344.233      32652.488      2.2000182     -40972.602     -18.968797      30.411898    
      8000   2409.5093     -29781.741      32652.488      2.2000182     -40973.061     -18.96901       30.220885    
      8500   2458.5066     -26121.414      32652.488      2.2000182     -41023.885     -18.992539      30.360488    
      9000   2339.5308     -33777.648      32652.488      2.2000182     -40989.863     -18.976788      30.128997    
      9500   2405.2258     -28208.843      32652.488      2.2000182     -40998.154     -18.980627      30.438103    
     10000   2427.7401     -24583.205      32652.488      2.2000182     -40993.508     -18.978476      30.338284    
     10500   2484.2413     -16549.158      32652.488      2.2000182     -40997.109     -18.980143      30.249256    
     11000   2441.1059     -22215.796      32652.488      2.2000182     -40979.9       -18.972176      30.275276    
     11500   2474.4454     -21804.41       32652.488      2.2000182     -41015.668     -18.988735      30.241836    
     12000   2315.381      -28486.397      32652.488      2.2000182     -40982.731     -18.973486      30.255486    
     12500   2356.5897     -21079.824      32652.488      2.2000182     -40999.425     -18.981215      30.280646    
     13000   2300.0243     -22482.53       32652.488      2.2000182     -40985.149     -18.974606      30.067591    
     13500   2437.2544     -21440.943      32652.488      2.2000182     -40999.174     -18.981099      30.328828    
     14000   2374.2604     -25452.235      32652.488      2.2000182     -40989.379     -18.976564      30.245633    
     14500   2443.2981     -22984.488      32652.488      2.2000182     -40999.946     -18.981457      30.398846    
     15000   2447.7784     -30445.205      32652.488      2.2000182     -40988.244     -18.976039      30.086922    
     15500   2471.2898     -21795.463      32652.488      2.2000182     -41012.136     -18.9871        30.323015    
     16000   2408.2574     -21036.129      32652.488      2.2000182     -41012.672     -18.987348      30.408348    
     16500   2421.9385     -27845.427      32652.488      2.2000182     -40995.131     -18.979227      30.188455    
     17000   2446.1396     -26153.178      32652.488      2.2000182     -40996.276     -18.979757      30.205063    
     17500   2364.7279     -26629.781      32652.488      2.2000182     -40994.014     -18.97871       30.208836    
     18000   2332.5494     -26538.2        32652.488      2.2000182     -41017.458     -18.989564      30.28428     
     18500   2418.9935     -32598.037      32652.488      2.2000182     -40993.464     -18.978455      30.173727    
     19000   2391.1184     -20086.488      32652.488      2.2000182     -40989.956     -18.976831      30.088619    
     19500   2390.3583     -16088.137      32652.488      2.2000182     -40994.512     -18.978941      30.205468    
     20000   2307.7463     -24820.449      32652.488      2.2000182     -41010.312     -18.986256      30.194314    
Loop time of 34.1719 on 6 procs for 20000 steps with 2160 atoms

Performance: 50.568 ns/day, 0.475 hours/ns, 585.276 timesteps/s, 1.264 Matom-step/s
97.3% CPU use with 6 MPI tasks x 1 OpenMP threads

MPI task timing breakdown:
Section |  min time  |  avg time  |  max time  |%varavg| %total
---------------------------------------------------------------
Pair    | 19.948     | 22.758     | 24.648     |  30.2 | 66.60
Kspace  | 7.2484     | 9.1343     | 11.976     |  48.1 | 26.73
Neigh   | 0.86585    | 0.95149    | 0.98926    |   4.2 |  2.78
Comm    | 0.98381    | 1.0361     | 1.0845     |   4.1 |  3.03
Output  | 0.00077499 | 0.00085243 | 0.0012239  |   0.0 |  0.00
Modify  | 0.16535    | 0.18598    | 0.19668    |   2.6 |  0.54
Other   |            | 0.1056     |            |       |  0.31

Nlocal:            360 ave         376 max         339 min
Histogram: 1 0 0 1 0 1 1 0 1 1
Nghost:        4654.83 ave        4703 max        4626 min
Histogram: 3 0 0 0 1 0 0 1 0 1
Neighs:        86059.2 ave       91006 max       74620 min
Histogram: 1 0 0 0 0 0 2 0 1 2

Total # of neighbors = 516355
Ave neighs/atom = 239.05324
Neighbor list builds = 686
Dangerous builds = 0
PPPM initialization ...
  using 12-bit tables for long-range coulomb (src/kspace.cpp:342)
  G vector (1/distance) = 0.29696104
  grid = 24 24 27
  stencil order = 5
  estimated absolute RMS force accuracy = 0.0014110636
  estimated relative force accuracy = 9.7992942e-05
  using double precision FFTW3
  3d grid and FFT values/proc = 9424 2880
Generated 0 of 1 mixed pair_coeff terms from geometric mixing rule
WARNING: Compute rdf cutoff less than neighbor cutoff - forcing a needless neighbor list build (src/compute_rdf.cpp:179)
Setting up Verlet run ...
  Unit style    : metal
  Current step  : 0
  Time step     : 0.001
Per MPI rank memory allocation (min/avg/max) = 6.134 | 6.276 | 6.545 Mbytes
   Step          Temp          Press          Volume        Density         PotEng         v_epa        c_msd0[4]   
         0   2307.7463     -24820.449      32652.488      2.2000182     -41010.312     -18.986256      30.194314    
       500   2313.0579     -21298.969      32652.488      2.2000182     -41026.484     -18.993742      30.249461    
      1000   2317.2278     -23234.508      32652.488      2.2000182     -41031.987     -18.99629       30.029544    
      1500   2268.0268     -30054.544      32652.488      2.2000182     -41036.128     -18.998207      30.162968    
      2000   2302.5057     -22663.124      32652.488      2.2000182     -41031.553     -18.99609       30.149669    
      2500   2314.5592     -25243.679      32652.488      2.2000182     -41000.936     -18.981915      30.331767    
      3000   2336.7072     -21702.366      32652.488      2.2000182     -41018.259     -18.989935      30.312303    
      3500   2298.8916     -27557.168      32652.488      2.2000182     -41027.822     -18.994362      30.135633    
      4000   2336.5441     -18872.028      32652.488      2.2000182     -41014.453     -18.988173      30.310585    
      4500   2322.6047     -18652.515      32652.488      2.2000182     -41022.036     -18.991683      30.078941    
      5000   2277.8295     -30595.912      32652.488      2.2000182     -41025.041     -18.993075      30.139786    
      5500   2331.349      -20748.619      32652.488      2.2000182     -41046.579     -19.003046      30.169975    
      6000   2373.7384     -24409.969      32652.488      2.2000182     -41036.199     -18.99824       30.100497    
      6500   2312.1197     -24730.794      32652.488      2.2000182     -41041.414     -19.000654      30.317235    
      7000   2321.794      -26870.313      32652.488      2.2000182     -41033.03      -18.996773      30.338559    
      7500   2330.2178     -26035.087      32652.488      2.2000182     -41024.657     -18.992897      30.256897    
      8000   2276.5767     -22872.064      32652.488      2.2000182     -41023.165     -18.992206      30.184179    
      8500   2335.8715     -22770.593      32652.488      2.2000182     -41048.229     -19.00381       30.136123    
      9000   2249.5881     -29826.379      32652.488      2.2000182     -41005.09      -18.983838      30.435634    
      9500   2256.1359     -26377.355      32652.488      2.2000182     -41031.558     -18.996091      30.258261    
     10000   2299.2232     -26727.061      32652.488      2.2000182     -41052.385     -19.005734      30.108936    
     10500   2265.5858     -20009.689      32652.488      2.2000182     -41015.053     -18.98845       30.171682    
     11000   2309.2498     -29474.75       32652.488      2.2000182     -41024.096     -18.992637      30.227051    
     11500   2292.5381     -24129.532      32652.488      2.2000182     -41015.352     -18.988589      30.20504     
     12000   2276.2846     -32176.436      32652.488      2.2000182     -41027.949     -18.994421      30.252793    
     12500   2260.3257     -24021.652      32652.488      2.2000182     -41032.753     -18.996645      30.073277    
     13000   2289.191      -20654.864      32652.488      2.2000182     -41031.516     -18.996072      30.291157    
     13500   2268.7248     -28687.609      32652.488      2.2000182     -41004.994     -18.983793      30.003078    
     14000   2332.2558     -24741.674      32652.488      2.2000182     -41023.514     -18.992367      30.184097    
     14500   2295.8179     -23802.225      32652.488      2.2000182     -41028.556     -18.994702      30.016139    
     15000   2186.6652     -22400.414      32652.488      2.2000182     -41021.616     -18.991489      30.361877    
     15500   2202.2755     -20111.354      32652.488      2.2000182     -41022.56      -18.991926      30.173455    
     16000   2338.6213     -21129.81       32652.488      2.2000182     -41035.316     -18.997831      30.249808    
     16500   2283.4819     -24152.728      32652.488      2.2000182     -41011.86      -18.986972      30.177908    
     17000   2294.2857     -27336.763      32652.488      2.2000182     -41034.122     -18.997279      30.263484    
     17500   2255.6136     -20361.962      32652.488      2.2000182     -41030.348     -18.995531      30.055618    
     18000   2291.0197     -22367.689      32652.488      2.2000182     -41033.506     -18.996993      30.282503    
     18500   2355.2692     -24796.722      32652.488      2.2000182     -41008.168     -18.985263      30.488293    
     19000   2290.3929     -28507.924      32652.488      2.2000182     -41021.014     -18.99121       30.167837    
     19500   2289.1227     -26099.773      32652.488      2.2000182     -41032.267     -18.99642       30.255608    
     20000   2305.6536     -24558.039      32652.488      2.2000182     -41040.257     -19.000119      30.273453    
Loop time of 34.3687 on 6 procs for 20000 steps with 2160 atoms

Performance: 50.278 ns/day, 0.477 hours/ns, 581.924 timesteps/s, 1.257 Matom-step/s
96.8% CPU use with 6 MPI tasks x 1 OpenMP threads

MPI task timing breakdown:
Section |  min time  |  avg time  |  max time  |%varavg| %total
---------------------------------------------------------------
Pair    | 19.769     | 22.739     | 24.911     |  33.1 | 66.16
Kspace  | 7.2577     | 9.4403     | 12.448     |  52.1 | 27.47
Neigh   | 0.82948    | 0.91418    | 0.9515     |   4.3 |  2.66
Comm    | 0.95811    | 0.99681    | 1.0382     |   3.1 |  2.90
Output  | 0.00077485 | 0.0008473  | 0.0012003  |   0.0 |  0.00
Modify  | 0.15989    | 0.17442    | 0.18564    |   2.1 |  0.51
Other   |            | 0.1032     |            |       |  0.30

Nlocal:            360 ave         369 max         346 min
Histogram: 1 0 0 1 0 0 1 1 1 1
Nghost:           4666 ave        4695 max        4637 min
Histogram: 1 1 1 0 0 0 0 1 1 1
Neighs:          86042 ave       93277 max       76389 min
Histogram: 1 0 0 0 1 2 0 0 0 2

Total # of neighbors = 516252
Ave neighs/atom = 239.00556
Neighbor list builds = 659
Dangerous builds = 0
PPPM initialization ...
  using 12-bit tables for long-range coulomb (src/kspace.cpp:342)
  G vector (1/distance) = 0.29696104
  grid = 24 24 27
  stencil order = 5
  estimated absolute RMS force accuracy = 0.0014110636
  estimated relative force accuracy = 9.7992942e-05
  using double precision FFTW3
  3d grid and FFT values/proc = 9424 2880
Generated 0 of 1 mixed pair_coeff terms from geometric mixing rule
WARNING: Compute rdf cutoff less than neighbor cutoff - forcing a needless neighbor list build (src/compute_rdf.cpp:179)
Setting up Verlet run ...
  Unit style    : metal
  Current step  : 0
  Time step     : 0.001
Per MPI rank memory allocation (min/avg/max) = 6.134 | 6.276 | 6.545 Mbytes
   Step          Temp          Press          Volume        Density         PotEng         v_epa        c_msd0[4]   
         0   2305.6536     -24558.039      32652.488      2.2000182     -41040.257     -19.000119      30.273453    
       500   2186.3541     -20450.896      32652.488      2.2000182     -41066.202     -19.012131      30.304027    
      1000   2183.8116     -24419.424      32652.488      2.2000182     -41071.008     -19.014356      30.127706    
      1500   2142.9235     -29959.683      32652.488      2.2000182     -41066.147     -19.012105      30.24928     
      2000   2241.6112     -30546.251      32652.488      2.2000182     -41073.558     -19.015536      30.160014    
      2500   2258.7059     -20954.864      32652.488      2.2000182     -41065.099     -19.01162       30.36959     
      3000   2256.0222     -32813.834      32652.488      2.2000182     -41066.99      -19.012496      30.044455    
      3500   2190.2449     -26831.588      32652.488      2.2000182     -41086.992     -19.021756      30.298969    
      4000   2261.339      -26236.91       32652.488      2.2000182     -41058.765     -19.008688      30.327794    
      4500   2259.6086     -23029.911      32652.488      2.2000182     -41058.302     -19.008473      30.214479    
      5000   2172.0022     -21598.025      32652.488      2.2000182     -41073.865     -19.015678      30.284597    
      5500   2113.6509     -23186.252      32652.488      2.2000182     -41059.733     -19.009136      30.355342    
      6000   2249.668      -24737.778      32652.488      2.2000182     -41069.917     -19.01385       30.247665    
      6500   2198.3624     -21689.576      32652.488      2.2000182     -41033.94      -18.997194      30.133273    
      7000   2160.5012     -27727.394      32652.488      2.2000182     -41062.453     -19.010395      30.290281    
      7500   2131.2991     -28816.266      32652.488      2.2000182     -41056.46      -19.00762       30.443904    
      8000   2195.9764     -19436.392      32652.488      2.2000182     -41052.501     -19.005787      30.295475    
      8500   2204.3506     -22208.822      32652.488      2.2000182     -41057.091     -19.007913      30.150267    
      9000   2137.2709     -26545.755      32652.488      2.2000182     -41050.012     -19.004635      30.20926     
      9500   2134.9993     -27690.062      32652.488      2.2000182     -41060.078     -19.009295      30.264278    
     10000   2190.6805     -27449.606      32652.488      2.2000182     -41071.046     -19.014373      30.308975    
     10500   2220.5798     -23351.383      32652.488      2.2000182     -41061.589     -19.009995      30.143943    
     11000   2269.0232     -21393.049      32652.488      2.2000182     -41064.332     -19.011265      30.283544    
     11500   2193.6638     -23451.081      32652.488      2.2000182     -41057.893     -19.008284      30.230966    
     12000   2151.7046     -24959.781      32652.488      2.2000182     -41061.598     -19.009999      30.125714    
     12500   2124.1716     -28423.522      32652.488      2.2000182     -41072.065     -19.014845      30.29904     
     13000   2187.3253     -25074.962      32652.488      2.2000182     -41055.133     -19.007006      30.199888    
     13500   2209.1594     -25600.307      32652.488      2.2000182     -41052.228     -19.005661      30.490554    
     14000   2199.1433     -24249.046      32652.488      2.2000182     -41049.883     -19.004576      30.212245    
     14500   2242.4247     -24549.191      32652.488      2.2000182     -41066.181     -19.012121      30.363107    
     15000   2207.7141     -27630.374      32652.488      2.2000182     -41064.625     -19.0114        30.13444     
     15500   2212.9131     -29213.757      32652.488      2.2000182     -41054.489     -19.006708      30.124126    
     16000   2225.6389     -32637.588      32652.488      2.2000182     -41038.521     -18.999315      30.220303    
     16500   2242.3369     -31055.497      32652.488      2.2000182     -41053.552     -19.006274      30.35667     
     17000   2271.4159     -27270.221      32652.488      2.2000182     -41071.656     -19.014656      30.283896    
     17500   2237.8746     -20543.287      32652.488      2.2000182     -41079.362     -19.018223      30.407668    
     18000   2157.3787     -27478.857      32652.488      2.2000182     -41084.576     -19.020637      30.124317    
     18500   2216.3175     -26593.223      32652.488      2.2000182     -41050.551     -19.004885      30.223666    
     19000   2192.1127     -32358.709      32652.488      2.2000182     -41052.601     -19.005834      30.059564    
     19500   2243.4692     -23475.316      32652.488      2.2000182     -41066.869     -19.012439      30.300614    
     20000   2227.376      -24332.568      32652.488      2.2000182     -41074.977     -19.016193      30.368232    
Loop time of 34.3241 on 6 procs for 20000 steps with 2160 atoms

Performance: 50.344 ns/day, 0.477 hours/ns, 582.681 timesteps/s, 1.259 Matom-step/s
96.9% CPU use with 6 MPI tasks x 1 OpenMP threads

MPI task timing breakdown:
Section |  min time  |  avg time  |  max time  |%varavg| %total
---------------------------------------------------------------
Pair    | 19.802     | 22.721     | 24.925     |  32.7 | 66.20
Kspace  | 7.2331     | 9.4393     | 12.381     |  51.1 | 27.50
Neigh   | 0.79255    | 0.87554    | 0.91035    |   4.3 |  2.55
Comm    | 0.94828    | 1.0006     | 1.0531     |   3.7 |  2.92
Output  | 0.00078197 | 0.00086159 | 0.001234   |   0.0 |  0.00
Modify  | 0.16891    | 0.18178    | 0.19008    |   1.9 |  0.53
Other   |            | 0.1048     |            |       |  0.31

Nlocal:            360 ave         375 max         342 min
Histogram: 1 0 0 1 1 0 1 0 1 1
Nghost:         4665.5 ave        4680 max        4631 min
Histogram: 1 0 0 0 0 0 1 1 1 2
Neighs:          86036 ave       92035 max       75218 min
Histogram: 1 0 0 0 0 0 2 1 1 1

Total # of neighbors = 516216
Ave neighs/atom = 238.98889
Neighbor list builds = 632
Dangerous builds = 0
PPPM initialization ...
  using 12-bit tables for long-range coulomb (src/kspace.cpp:342)
  G vector (1/distance) = 0.29696104
  grid = 24 24 27
  stencil order = 5
  estimated absolute RMS force accuracy = 0.0014110636
  estimated relative force accuracy = 9.7992942e-05
  using double precision FFTW3
  3d grid and FFT values/proc = 9424 2880
Generated 0 of 1 mixed pair_coeff terms from geometric mixing rule
WARNING: Compute rdf cutoff less than neighbor cutoff - forcing a needless neighbor list build (src/compute_rdf.cpp:179)
Setting up Verlet run ...
  Unit style    : metal
  Current step  : 0
  Time step     : 0.001
Per MPI rank memory allocation (min/avg/max) = 6.134 | 6.276 | 6.545 Mbytes
   Step          Temp          Press          Volume        Density         PotEng         v_epa        c_msd0[4]   
         0   2227.376      -24332.568      32652.488      2.2000182     -41074.977     -19.016193      30.368232    
       500   2047.5903     -24036.881      32652.488      2.2000182     -41088.126     -19.022281      30.260067    
      1000   2107.1678     -29732.902      32652.488      2.2000182     -41104.607     -19.029911      30.307454    
      1500   2195.3413     -22568.93       32652.488      2.2000182     -41093.757     -19.024888      30.215824    
      2000   2121.377      -29045.499      32652.488      2.2000182     -41072.047     -19.014836      30.285041    
      2500   2123.1918     -28365.895      32652.488      2.2000182     -41107.431     -19.031218      30.21861     
      3000   2111.0848     -21635.928      32652.488      2.2000182     -41086.283     -19.021427      30.213673    
      3500   2084.6449     -26528.281      32652.488      2.2000182     -41071.41      -19.014542      30.146737    
      4000   2063.8029     -26423.782      32652.488      2.2000182     -41092.141     -19.024139      30.08701     
      4500   2096.3529     -19986.251      32652.488      2.2000182     -41089.491     -19.022913      30.275698    
      5000   2073.8869     -25227.352      32652.488      2.2000182     -41075.255     -19.016322      30.228072    
      5500   2026.948      -22985.399      32652.488      2.2000182     -41099.582     -19.027584      30.235341    
      6000   2104.637      -24644.222      32652.488      2.2000182     -41094.842     -19.02539       30.181994    
      6500   2083.5113     -18191.183      32652.488      2.2000182     -41082.104     -19.019492      30.382408    
      7000   2125.8667     -26090.565      32652.488      2.2000182     -41089.058     -19.022712      30.23644     
      7500   2060.0317     -25685.271      32652.488      2.2000182     -41094.193     -19.02509       30.372274    
      8000   2108.8475     -29176.05       32652.488      2.2000182     -41090.084     -19.023187      30.147525    
      8500   2103.7714     -28298.142      32652.488      2.2000182     -41076.473     -19.016886      30.34685     
      9000   2123.3989     -20375.019      32652.488      2.2000182     -41079.105     -19.018104      30.186517    
      9500   2045.8499     -26517.901      32652.488      2.2000182     -41076.623     -19.016955      30.167403    
     10000   2090.3647     -30712.99       32652.488      2.2000182     -41093.664     -19.024844      30.224931    
     10500   2105.3013     -22744.712      32652.488      2.2000182     -41082.896     -19.019859      30.186754    
     11000   2105.8268     -26370.859      32652.488      2.2000182     -41071.631     -19.014644      30.164392    
     11500   2060.6575     -24626.922      32652.488      2.2000182     -41066.416     -19.01223       30.305603    
     12000   2109.6444     -29437.177      32652.488      2.2000182     -41088.524     -19.022465      30.270919    
     12500   2136.3706     -28153.035      32652.488      2.2000182     -41083.09      -19.019949      30.217789    
     13000   2113.1646     -22290.672      32652.488      2.2000182     -41086.784     -19.021659      30.126714    
     13500   2042.574      -21796.778      32652.488      2.2000182     -41096.443     -19.026131      30.163661    
     14000   2060.3641     -26064.733      32652.488      2.2000182     -41077.134     -19.017192      30.278535    
     14500   2094.7522     -19899.089      32652.488      2.2000182     -41084.225     -19.020474      30.093595    
     15000   2068.5699     -25913.887      32652.488      2.2000182     -41095.162     -19.025538      30.206036    
     15500   2123.6626     -23783.604      32652.488      2.2000182     -41095.172     -19.025543      30.17191     
     16000   2127.7294     -28126.17       32652.488      2.2000182     -41082.775     -19.019803      30.230323    
     16500   2156.8726     -20996.765      32652.488      2.2000182     -41080.435     -19.01872       30.307447    
     17000   2080.4182     -25747.401      32652.488      2.2000182     -41091.116     -19.023665      30.266324    
     17500   2106.9853     -26879.044      32652.488      2.2000182     -41103.039     -19.029185      30.330163    
     18000   2066.7405     -24273.732      32652.488      2.2000182     -41082.949     -19.019884      30.044879    
     18500   2077.9744     -22589.482      32652.488      2.2000182     -41076.623     -19.016955      30.078279    
     19000   2119.4542     -28132.169      32652.488      2.2000182     -41077.215     -19.017229      30.451428    
     19500   2144.8839     -22129.98       32652.488      2.2000182     -41078.869     -19.017995      30.31938     
     20000   2122.3339     -25317.404      32652.488      2.2000182     -41077.537     -19.017378      30.102738    
Loop time of 34.4619 on 6 procs for 20000 steps with 2160 atoms

Performance: 50.142 ns/day, 0.479 hours/ns, 580.351 timesteps/s, 1.254 Matom-step/s
96.8% CPU use with 6 MPI tasks x 1 OpenMP threads

MPI task timing breakdown:
Section |  min time  |  avg time  |  max time  |%varavg| %total
---------------------------------------------------------------
Pair    | 19.788     | 22.683     | 25.069     |  33.2 | 65.82
Kspace  | 7.2393     | 9.6229     | 12.54      |  51.2 | 27.92
Neigh   | 0.76862    | 0.84715    | 0.87974    |   4.1 |  2.46
Comm    | 0.98039    | 1.0258     | 1.0749     |   3.8 |  2.98
Output  | 0.00078985 | 0.00086303 | 0.001223   |   0.0 |  0.00
Modify  | 0.159      | 0.17749    | 0.18822    |   2.8 |  0.52
Other   |            | 0.1045     |            |       |  0.30

Nlocal:            360 ave         369 max         343 min
Histogram: 1 0 0 0 0 1 1 1 0 2
Nghost:        4663.67 ave        4698 max        4623 min
Histogram: 2 0 0 0 1 0 0 0 2 1
Neighs:        86096.8 ave       95679 max       75592 min
Histogram: 1 0 0 0 2 1 0 1 0 1

Total # of neighbors = 516581
Ave neighs/atom = 239.15787
Neighbor list builds = 612
Dangerous builds = 0
PPPM initialization ...
  using 12-bit tables for long-range coulomb (src/kspace.cpp:342)
  G vector (1/distance) = 0.29696104
  grid = 24 24 27
  stencil order = 5
  estimated absolute RMS force accuracy = 0.0014110636
  estimated relative force accuracy = 9.7992942e-05
  using double precision FFTW3
  3d grid and FFT values/proc = 9424 2880
Generated 0 of 1 mixed pair_coeff terms from geometric mixing rule
WARNING: Compute rdf cutoff less than neighbor cutoff - forcing a needless neighbor list build (src/compute_rdf.cpp:179)
Setting up Verlet run ...
  Unit style    : metal
  Current step  : 0
  Time step     : 0.001
Per MPI rank memory allocation (min/avg/max) = 6.134 | 6.276 | 6.545 Mbytes
   Step          Temp          Press          Volume        Density         PotEng         v_epa        c_msd0[4]   
         0   2122.3339     -25317.404      32652.488      2.2000182     -41077.537     -19.017378      30.102738    
       500   2004.5422     -24704.665      32652.488      2.2000182     -41135.396     -19.044165      30.17198     
      1000   1959.4705     -24717.006      32652.488      2.2000182     -41136.542     -19.044696      30.27083     
      1500   2005.8667     -22287.421      32652.488      2.2000182     -41120.392     -19.037219      30.278707    
      2000   1991.8447     -28201.222      32652.488      2.2000182     -41109.648     -19.032245      30.201648    
      2500   2015.9879     -28319.278      32652.488      2.2000182     -41123.735     -19.038766      30.30185     
      3000   1991.7536     -27266.374      32652.488      2.2000182     -41118.961     -19.036556      30.27191     
      3500   2026.8111     -30085.871      32652.488      2.2000182     -41116.4       -19.035371      30.271529    
      4000   2069.0055     -22887.684      32652.488      2.2000182     -41114.01      -19.034264      30.294497    
      4500   2094.5032     -16685.174      32652.488      2.2000182     -41121.949     -19.037939      30.221065    
      5000   2036.9673     -31068.222      32652.488      2.2000182     -41125.773     -19.03971       30.368528    
      5500   1956.9468     -27950.039      32652.488      2.2000182     -41117.079     -19.035684      30.286394    
      6000   2048.8598     -24199.269      32652.488      2.2000182     -41104.64      -19.029926      30.201603    
      6500   2037.7295     -28192.675      32652.488      2.2000182     -41111.572     -19.033135      30.233066    
      7000   2001.0115     -26675.823      32652.488      2.2000182     -41119.219     -19.036676      30.228879    
      7500   1967.7763     -28679.697      32652.488      2.2000182     -41114.36      -19.034426      30.294941    
      8000   2059.3278     -26952.996      32652.488      2.2000182     -41130.396     -19.04185       30.268369    
      8500   2002.1421     -25733.003      32652.488      2.2000182     -41103.284     -19.029298      30.344667    
      9000   2028.938      -28616.787      32652.488      2.2000182     -41114.404     -19.034446      30.223869    
      9500   2001.59       -23516.019      32652.488      2.2000182     -41109.98      -19.032398      30.414364    
     10000   2010.7242     -30689.772      32652.488      2.2000182     -41128.536     -19.040989      30.134442    
     10500   1940.2352     -34104.683      32652.488      2.2000182     -41114.744     -19.034604      30.346288    
     11000   1930.6916     -24990.705      32652.488      2.2000182     -41118.457     -19.036323      30.107025    
     11500   1983.3575     -27769.823      32652.488      2.2000182     -41126.938     -19.040249      30.153256    
     12000   2026.9175     -26479.323      32652.488      2.2000182     -41117.12      -19.035704      30.43078     
     12500   2071.7551     -24464.633      32652.488      2.2000182     -41129.202     -19.041297      30.360141    
     13000   1963.7455     -22027.093      32652.488      2.2000182     -41123.604     -19.038706      30.188295    
     13500   1968.5945     -31504.459      32652.488      2.2000182     -41123.989     -19.038884      30.10081     
     14000   2018.4847     -26491.885      32652.488      2.2000182     -41122.038     -19.03798       30.25671     
     14500   2059.2111     -24556.808      32652.488      2.2000182     -41118.095     -19.036155      30.298918    
     15000   2022.673      -24164.908      32652.488      2.2000182     -41127.266     -19.040401      30.296522    
     15500   1994.4176     -25404.174      32652.488      2.2000182     -41113.704     -19.034122      30.27357     
     16000   2054.1459     -21062.111      32652.488      2.2000182     -41109.407     -19.032133      30.228163    
     16500   2018.1835     -18990.626      32652.488      2.2000182     -41120.012     -19.037043      30.356803    
     17000   2010.2062     -29094.035      32652.488      2.2000182     -41131.129     -19.042189      30.257934    
     17500   2001.315      -23918.585      32652.488      2.2000182     -41128.64      -19.041037      30.208443    
     18000   2071.5855     -25841.782      32652.488      2.2000182     -41101.874     -19.028645      30.260274    
     18500   2037.0573     -27090.284      32652.488      2.2000182     -41112.804     -19.033706      30.269717    
     19000   1988.3836     -25634.828      32652.488      2.2000182     -41109.304     -19.032085      30.377015    
     19500   2025.9708     -26671.035      32652.488      2.2000182     -41129.371     -19.041375      30.054248    
     20000   1961.7661     -27626.738      32652.488      2.2000182     -41128.048     -19.040763      30.431168    
Loop time of 34.1319 on 6 procs for 20000 steps with 2160 atoms

Performance: 50.627 ns/day, 0.474 hours/ns, 585.963 timesteps/s, 1.266 Matom-step/s
96.9% CPU use with 6 MPI tasks x 1 OpenMP threads

MPI task timing breakdown:
Section |  min time  |  avg time  |  max time  |%varavg| %total
---------------------------------------------------------------
Pair    | 19.8       | 22.653     | 24.854     |  32.0 | 66.37
Kspace  | 7.1752     | 9.3926     | 12.277     |  50.2 | 27.52
Neigh   | 0.73036    | 0.80372    | 0.83526    |   3.9 |  2.35
Comm    | 0.97868    | 1.0065     | 1.0438     |   2.3 |  2.95
Output  | 0.00078782 | 0.00086566 | 0.0012313  |   0.0 |  0.00
Modify  | 0.1598     | 0.17284    | 0.1807     |   1.9 |  0.51
Other   |            | 0.102      |            |       |  0.30

Nlocal:            360 ave         376 max         341 min
Histogram: 1 0 0 0 1 1 2 0 0 1
Nghost:        4673.83 ave        4720 max        4626 min
Histogram: 2 0 0 1 0 0 1 0 0 2
Neighs:        86084.7 ave       93935 max       75103 min
Histogram: 1 0 0 0 1 0 2 1 0 1

Total # of neighbors = 516508
Ave neighs/atom = 239.12407
Neighbor list builds = 581
Dangerous builds = 0
PPPM initialization ...
  using 12-bit tables for long-range coulomb (src/kspace.cpp:342)
  G vector (1/distance) = 0.29696104
  grid = 24 24 27
  stencil order = 5
  estimated absolute RMS force accuracy = 0.0014110636
  estimated relative force accuracy = 9.7992942e-05
  using double precision FFTW3
  3d grid and FFT values/proc = 9424 2880
Generated 0 of 1 mixed pair_coeff terms from geometric mixing rule
WARNING: Compute rdf cutoff less than neighbor cutoff - forcing a needless neighbor list build (src/compute_rdf.cpp:179)
Setting up Verlet run ...
  Unit style    : metal
  Current step  : 0
  Time step     : 0.001
Per MPI rank memory allocation (min/avg/max) = 6.134 | 6.276 | 6.545 Mbytes
   Step          Temp          Press          Volume        Density         PotEng         v_epa        c_msd0[4]   
         0   1961.7661     -27626.738      32652.488      2.2000182     -41128.048     -19.040763      30.431168    
       500   1869.5861     -31075.051      32652.488      2.2000182     -41145.149     -19.04868       30.248695    
      1000   1909.068      -25377.95       32652.488      2.2000182     -41161.628     -19.056309      30.273901    
      1500   1911.1769     -28412.047      32652.488      2.2000182     -41136.269     -19.044569      30.300159    
      2000   1922.655      -26638.881      32652.488      2.2000182     -41139.459     -19.046046      30.097263    
      2500   1933.4405     -25122.767      32652.488      2.2000182     -41148.767     -19.050355      30.181668    
      3000   1872.4503     -26487.669      32652.488      2.2000182     -41151.941     -19.051825      30.327873    
      3500   1863.823      -19732.547      32652.488      2.2000182     -41156.325     -19.053854      30.188616    
      4000   1897.8851     -24907.904      32652.488      2.2000182     -41148.44      -19.050204      30.311567    
      4500   1912.4233     -27348.788      32652.488      2.2000182     -41141.835     -19.047146      30.18173     
      5000   1861.0179     -24082.775      32652.488      2.2000182     -41142.533     -19.047469      30.436137    
      5500   1835.9519     -24639.316      32652.488      2.2000182     -41157.13      -19.054227      30.297697    
      6000   1949.5061     -29920.183      32652.488      2.2000182     -41156.019     -19.053712      30.175255    
      6500   1934.6905     -20552.491      32652.488      2.2000182     -41149.069     -19.050495      30.364352    
      7000   1902.0899     -28809.048      32652.488      2.2000182     -41137.722     -19.045242      30.286584    
      7500   1875.9156     -26272.856      32652.488      2.2000182     -41151.487     -19.051614      30.109005    
      8000   1908.8724     -22772.728      32652.488      2.2000182     -41139.059     -19.045861      30.265328    
      8500   1900.0798     -30798.012      32652.488      2.2000182     -41126.479     -19.040037      30.388696    
      9000   1914.2764     -20893.904      32652.488      2.2000182     -41136.469     -19.044662      30.15564     
      9500   1876.1161     -26000.185      32652.488      2.2000182     -41144.589     -19.048421      30.313914    
     10000   1861.9855     -27102.434      32652.488      2.2000182     -41152.893     -19.052265      30.196189    
     10500   1904.0208     -24030.233      32652.488      2.2000182     -41158.36      -19.054796      30.247763    
     11000   1979.4185     -22672.205      32652.488      2.2000182     -41160.178     -19.055638      30.083016    
     11500   1887.8645     -22727.809      32652.488      2.2000182     -41145.476     -19.048831      30.274       
     12000   1913.0719     -24189.999      32652.488      2.2000182     -41146.355     -19.049239      30.26972     
     12500   1899.6068     -29237.93       32652.488      2.2000182     -41137.381     -19.045084      30.234339    
     13000   1949.5331     -29931.75       32652.488      2.2000182     -41146.711     -19.049403      29.941709    
     13500   1958.4647     -25092.036      32652.488      2.2000182     -41146.943     -19.049511      30.264563    
     14000   1890.6683     -22922.478      32652.488      2.2000182     -41146.29      -19.049208      30.231856    
     14500   1924.6353     -24476.971      32652.488      2.2000182     -41160.236     -19.055665      30.243623    
     15000   1866.548      -27805.725      32652.488      2.2000182     -41142.275     -19.04735       30.270369    
     15500   1978.367      -23049.844      32652.488      2.2000182     -41134.091     -19.043561      30.309853    
     16000   1876.6907     -26113.455      32652.488      2.2000182     -41149.494     -19.050692      30.259249    
     16500   1876.0181     -28495.993      32652.488      2.2000182     -41154.101     -19.052824      30.219248    
     17000   1854.8236     -29241.945      32652.488      2.2000182     -41147.258     -19.049657      30.397072    
     17500   1903.5035     -25362.165      32652.488      2.2000182     -41158.98      -19.055083      30.131433    
     18000   1919.5241     -24529.075      32652.488      2.2000182     -41148.448     -19.050207      30.3169      
     18500   1887.9611     -24490.642      32652.488      2.2000182     -41143.946     -19.048123      30.14298     
     19000   1867.5098     -28888.909      32652.488      2.2000182     -41151.12      -19.051444      30.334437    
     19500   1908.6967     -26760.599      32652.488      2.2000182     -41125.432     -19.039552      30.223981    
     20000   1919.0246     -24861.02       32652.488      2.2000182     -41137.952     -19.045348      30.283701    
Loop time of 34.3659 on 6 procs for 20000 steps with 2160 atoms

Performance: 50.282 ns/day, 0.477 hours/ns, 581.973 timesteps/s, 1.257 Matom-step/s
96.9% CPU use with 6 MPI tasks x 1 OpenMP threads

MPI task timing breakdown:
Section |  min time  |  avg time  |  max time  |%varavg| %total
---------------------------------------------------------------
Pair    | 20.034     | 22.75      | 25.053     |  31.3 | 66.20
Kspace  | 7.2221     | 9.5469     | 12.292     |  48.9 | 27.78
Neigh   | 0.69837    | 0.77005    | 0.80202    |   3.9 |  2.24
Comm    | 0.99055    | 1.0105     | 1.0504     |   2.1 |  2.94
Output  | 0.00078799 | 0.0008632  | 0.0012206  |   0.0 |  0.00
Modify  | 0.1694     | 0.18133    | 0.19196    |   1.9 |  0.53
Other   |            | 0.1057     |            |       |  0.31

Nlocal:            360 ave         368 max         345 min
Histogram: 1 0 0 0 1 0 1 0 1 2
Nghost:           4659 ave        4696 max        4616 min
Histogram: 1 1 0 1 0 0 0 0 1 2
Neighs:        86015.7 ave       94997 max       75881 min
Histogram: 1 0 0 0 1 2 1 0 0 1

Total # of neighbors = 516094
Ave neighs/atom = 238.93241
Neighbor list builds = 557
Dangerous builds = 0
PPPM initialization ...
  using 12-bit tables for long-range coulomb (src/kspace.cpp:342)
  G vector (1/distance) = 0.29696104
  grid = 24 24 27
  stencil order = 5
  estimated absolute RMS force accuracy = 0.0014110636
  estimated relative force accuracy = 9.7992942e-05
  using double precision FFTW3
  3d grid and FFT values/proc = 9424 2880
Generated 0 of 1 mixed pair_coeff terms from geometric mixing rule
WARNING: Compute rdf cutoff less than neighbor cutoff - forcing a needless neighbor list build (src/compute_rdf.cpp:179)
Setting up Verlet run ...
  Unit style    : metal
  Current step  : 0
  Time step     : 0.001
Per MPI rank memory allocation (min/avg/max) = 6.134 | 6.276 | 6.545 Mbytes
   Step          Temp          Press          Volume        Density         PotEng         v_epa        c_msd0[4]   
         0   1919.0246     -24861.02       32652.488      2.2000182     -41137.952     -19.045348      30.283701    
       500   1784.5348     -19543.197      32652.488      2.2000182     -41190.857     -19.069841      30.196471    
      1000   1796.857      -21929.435      32652.488      2.2000182     -41185.555     -19.067387      30.226004    
      1500   1784.8055     -25495.567      32652.488      2.2000182     -41161.551     -19.056273      30.083104    
      2000   1800.4264     -27386.775      32652.488      2.2000182     -41179.662     -19.064658      30.343985    
      2500   1762.6223     -24212.589      32652.488      2.2000182     -41186.39      -19.067773      30.206746    
      3000   1782.9913     -27167.969      32652.488      2.2000182     -41190.383     -19.069622      30.34532     
      3500   1818.7974     -23769.399      32652.488      2.2000182     -41179.338     -19.064508      30.22545     
      4000   1813.7078     -23178.19       32652.488      2.2000182     -41176.657     -19.063267      30.271171    
      4500   1769.6455     -21448.998      32652.488      2.2000182     -41172.302     -19.061251      30.302628    
      5000   1737.8274     -24890.98       32652.488      2.2000182     -41187.682     -19.068371      30.186026    
      5500   1806.0136     -26179.271      32652.488      2.2000182     -41196.142     -19.072288      30.098125    
      6000   1830.3789     -29777.575      32652.488      2.2000182     -41179.494     -19.064581      30.249943    
      6500   1858.0705     -26640.628      32652.488      2.2000182     -41175.619     -19.062786      30.119928    
      7000   1852.2403     -24281.195      32652.488      2.2000182     -41175.136     -19.062563      30.341796    
      7500   1782.2776     -28045.579      32652.488      2.2000182     -41173.567     -19.061837      30.206361    
      8000   1790.7416     -28615.347      32652.488      2.2000182     -41180.057     -19.064841      30.178001    
      8500   1830.9449     -28304.171      32652.488      2.2000182     -41180.328     -19.064967      30.323935    
      9000   1809.8894     -26114.394      32652.488      2.2000182     -41168.211     -19.059357      30.2086      
      9500   1836.766      -26104.945      32652.488      2.2000182     -41176.152     -19.063033      30.327342    
     10000   1772.8996     -26916.097      32652.488      2.2000182     -41168.364     -19.059428      30.232705    
     10500   1781.9975     -24557.178      32652.488      2.2000182     -41185.55      -19.067384      30.160814    
     11000   1777.7181     -21852.138      32652.488      2.2000182     -41179.384     -19.064529      30.227823    
     11500   1829.9513     -25193.398      32652.488      2.2000182     -41173.925     -19.062002      30.310701    
     12000   1793.9568     -27106.302      32652.488      2.2000182     -41170.624     -19.060474      30.234701    
     12500   1801.6265     -25865.825      32652.488      2.2000182     -41182.91      -19.066162      30.294544    
     13000   1754.2832     -27108.025      32652.488      2.2000182     -41183.001     -19.066204      30.195203    
     13500   1780.7154     -23896.327      32652.488      2.2000182     -41175.076     -19.062535      30.284854    
     14000   1801.3417     -21718.166      32652.488      2.2000182     -41169.661     -19.060028      30.033531    
     14500   1849.1372     -23413.232      32652.488      2.2000182     -41161.28      -19.056148      30.171682    
     15000   1856.4817     -30099.536      32652.488      2.2000182     -41185.644     -19.067428      30.370944    
     15500   1765.9611     -24430.721      32652.488      2.2000182     -41172.988     -19.061569      30.309896    
     16000   1763.8098     -24531.875      32652.488      2.2000182     -41178.005     -19.063891      30.190612    
     16500   1832.3534     -24364.868      32652.488      2.2000182     -41153.892     -19.052728      30.209298    
     17000   1827.2156     -27251.948      32652.488      2.2000182     -41184.222     -19.066769      30.240354    
     17500   1816.0474     -24651.535      32652.488      2.2000182     -41187.045     -19.068076      30.334048    
     18000   1743.6738     -24112.294      32652.488      2.2000182     -41168.96      -19.059704      30.382346    
     18500   1820.2613     -28578.511      32652.488      2.2000182     -41181.895     -19.065692      30.153364    
     19000   1804.3692     -27774.909      32652.488      2.2000182     -41171.062     -19.060677      30.358703    
     19500   1826.2653     -20138.634      32652.488      2.2000182     -41177.808     -19.0638        30.198962    
     20000   1789.3172     -27839.18       32652.488      2.2000182     -41191.21      -19.070005      30.172029    
Loop time of 34.1133 on 6 procs for 20000 steps with 2160 atoms

Performance: 50.655 ns/day, 0.474 hours/ns, 586.282 timesteps/s, 1.266 Matom-step/s
96.7% CPU use with 6 MPI tasks x 1 OpenMP threads

MPI task timing breakdown:
Section |  min time  |  avg time  |  max time  |%varavg| %total
---------------------------------------------------------------
Pair    | 19.874     | 22.711     | 24.986     |  32.3 | 66.58
Kspace  | 7.1271     | 9.4131     | 12.264     |  50.5 | 27.59
Neigh   | 0.65354    | 0.71946    | 0.7482     |   3.7 |  2.11
Comm    | 0.95425    | 0.98674    | 1.0358     |   2.8 |  2.89
Output  | 0.00079601 | 0.00087206 | 0.0012341  |   0.0 |  0.00
Modify  | 0.16608    | 0.1796     | 0.18894    |   1.8 |  0.53
Other   |            | 0.1021     |            |       |  0.30

Nlocal:            360 ave         370 max         340 min
Histogram: 1 0 0 0 0 0 2 0 1 2
Nghost:        4664.67 ave        4704 max        4633 min
Histogram: 1 1 1 0 0 1 0 1 0 1
Neighs:        86084.2 ave       92188 max       74593 min
Histogram: 1 0 0 0 0 0 2 0 2 1

Total # of neighbors = 516505
Ave neighs/atom = 239.12269
Neighbor list builds = 520
Dangerous builds = 0
PPPM initialization ...
  using 12-bit tables for long-range coulomb (src/kspace.cpp:342)
  G vector (1/distance) = 0.29696104
  grid = 24 24 27
  stencil order = 5
  estimated absolute RMS force accuracy = 0.0014110636
  estimated relative force accuracy = 9.7992942e-05
  using double precision FFTW3
  3d grid and FFT values/proc = 9424 2880
Generated 0 of 1 mixed pair_coeff terms from geometric mixing rule
WARNING: Compute rdf cutoff less than neighbor cutoff - forcing a needless neighbor list build (src/compute_rdf.cpp:179)
Setting up Verlet run ...
  Unit style    : metal
  Current step  : 0
  Time step     : 0.001
Per MPI rank memory allocation (min/avg/max) = 6.134 | 6.276 | 6.545 Mbytes
   Step          Temp          Press          Volume        Density         PotEng         v_epa        c_msd0[4]   
         0   1789.3172     -27839.18       32652.488      2.2000182     -41191.21      -19.070005      30.172029    
       500   1686.6261     -24190.541      32652.488      2.2000182     -41211.961     -19.079612      30.211126    
      1000   1687.6679     -29059.975      32652.488      2.2000182     -41207.91      -19.077736      30.186945    
      1500   1669.8501     -21124.852      32652.488      2.2000182     -41193.495     -19.071062      30.366917    
      2000   1716.4126     -24980.636      32652.488      2.2000182     -41192.069     -19.070402      30.184666    
      2500   1691.7689     -29886.184      32652.488      2.2000182     -41191.869     -19.07031       30.351391    
      3000   1735.0067     -22522.066      32652.488      2.2000182     -41207.544     -19.077566      30.229808    
      3500   1663.3046     -30499.239      32652.488      2.2000182     -41204.214     -19.076025      30.23273     
      4000   1692.5676     -25601.854      32652.488      2.2000182     -41222.251     -19.084376      30.153716    
      4500   1721.357      -22429.837      32652.488      2.2000182     -41221.378     -19.083972      30.264044    
      5000   1716.5163     -26845.997      32652.488      2.2000182     -41212.497     -19.07986       30.21386     
      5500   1788.8076     -19638.762      32652.488      2.2000182     -41213.067     -19.080124      30.367582    
      6000   1694.9499     -25305.872      32652.488      2.2000182     -41206.542     -19.077103      30.068053    
      6500   1676.3289     -21070.284      32652.488      2.2000182     -41212.196     -19.07972       30.154286    
      7000   1720.8175     -20049.83       32652.488      2.2000182     -41208.056     -19.077804      30.125235    
      7500   1701.6051     -23071.631      32652.488      2.2000182     -41212.408     -19.079819      30.181815    
      8000   1699.5793     -23127.064      32652.488      2.2000182     -41219.96      -19.083315      30.33011     
      8500   1699.7046     -28033.128      32652.488      2.2000182     -41216.993     -19.081941      30.122911    
      9000   1708.9444     -20934.83       32652.488      2.2000182     -41208.776     -19.078137      30.251084    
      9500   1664.7455     -23031.055      32652.488      2.2000182     -41207.727     -19.077652      30.26048     
     10000   1663.4543     -25159.743      32652.488      2.2000182     -41215.996     -19.08148       30.075888    
     10500   1698.4265     -22585.553      32652.488      2.2000182     -41209.495     -19.07847       30.300266    
     11000   1696.3351     -26557.462      32652.488      2.2000182     -41206.288     -19.076985      30.266279    
     11500   1644.4178     -30013.155      32652.488      2.2000182     -41205.073     -19.076423      30.263316    
     12000   1625.7556     -24841.73       32652.488      2.2000182     -41201.79      -19.074903      30.112512    
     12500   1669.4915     -25086.156      32652.488      2.2000182     -41210.878     -19.07911       30.350284    
     13000   1768.7498     -25930.495      32652.488      2.2000182     -41197.922     -19.073112      30.146208    
     13500   1666.7602     -24368.992      32652.488      2.2000182     -41203.847     -19.075855      30.218656    
     14000   1701.1469     -26532.544      32652.488      2.2000182     -41216.859     -19.081879      30.171992    
     14500   1718.3275     -28072.107      32652.488      2.2000182     -41212.032     -19.079644      30.199777    
     15000   1680.25       -22856.977      32652.488      2.2000182     -41189.472     -19.0692        30.0519      
     15500   1776.8604     -20361.784      32652.488      2.2000182     -41203.694     -19.075784      30.314167    
     16000   1717.604      -19677.089      32652.488      2.2000182     -41211.513     -19.079404      30.096858    
     16500   1716.8323     -22316.092      32652.488      2.2000182     -41214.8       -19.080926      30.396002    
     17000   1646.5512     -27287.419      32652.488      2.2000182     -41200.222     -19.074177      30.183316    
     17500   1723.5836     -26542.148      32652.488      2.2000182     -41208.213     -19.077876      30.200374    
     18000   1692.7726     -21677.425      32652.488      2.2000182     -41199.658     -19.073916      30.127853    
     18500   1684.5482     -20571.81       32652.488      2.2000182     -41210.232     -19.078811      30.21358     
     19000   1711.537      -24270.347      32652.488      2.2000182     -41214.89      -19.080967      30.132033    
     19500   1726.1917     -24744.816      32652.488      2.2000182     -41203.362     -19.07563       30.131179    
     20000   1728.4817     -18096.235      32652.488      2.2000182     -41203.743     -19.075807      30.109537    
Loop time of 33.8276 on 6 procs for 20000 steps with 2160 atoms

Performance: 51.083 ns/day, 0.470 hours/ns, 591.233 timesteps/s, 1.277 Matom-step/s
96.9% CPU use with 6 MPI tasks x 1 OpenMP threads

MPI task timing breakdown:
Section |  min time  |  avg time  |  max time  |%varavg| %total
---------------------------------------------------------------
Pair    | 19.961     | 22.659     | 24.718     |  30.4 | 66.98
Kspace  | 7.1591     | 9.2214     | 11.921     |  47.8 | 27.26
Neigh   | 0.6166     | 0.67847    | 0.7067     |   3.6 |  2.01
Comm    | 0.95017    | 0.9851     | 1.0404     |   3.1 |  2.91
Output  | 0.00077347 | 0.00085787 | 0.0012348  |   0.0 |  0.00
Modify  | 0.1657     | 0.17737    | 0.18691    |   1.8 |  0.52
Other   |            | 0.1059     |            |       |  0.31

Nlocal:            360 ave         369 max         346 min
Histogram: 1 0 0 0 0 2 1 0 0 2
Nghost:        4667.83 ave        4706 max        4635 min
Histogram: 2 1 0 0 0 0 0 2 0 1
Neighs:        86094.3 ave       92670 max       75815 min
Histogram: 1 0 0 0 0 2 0 2 0 1

Total # of neighbors = 516566
Ave neighs/atom = 239.15093
Neighbor list builds = 491
Dangerous builds = 0
PPPM initialization ...
  using 12-bit tables for long-range coulomb (src/kspace.cpp:342)
  G vector (1/distance) = 0.29696104
  grid = 24 24 27
  stencil order = 5
  estimated absolute RMS force accuracy = 0.0014110636
  estimated relative force accuracy = 9.7992942e-05
  using double precision FFTW3
  3d grid and FFT values/proc = 9424 2880
Generated 0 of 1 mixed pair_coeff terms from geometric mixing rule
WARNING: Compute rdf cutoff less than neighbor cutoff - forcing a needless neighbor list build (src/compute_rdf.cpp:179)
Setting up Verlet run ...
  Unit style    : metal
  Current step  : 0
  Time step     : 0.001
Per MPI rank memory allocation (min/avg/max) = 6.134 | 6.276 | 6.545 Mbytes
   Step          Temp          Press          Volume        Density         PotEng         v_epa        c_msd0[4]   
         0   1728.4817     -18096.235      32652.488      2.2000182     -41203.743     -19.075807      30.109537    
       500   1604.4657     -28245.569      32652.488      2.2000182     -41253.57      -19.098875      30.23803     
      1000   1598.2197     -24358.617      32652.488      2.2000182     -41253.521     -19.098852      30.213264    
      1500   1588.4995     -26161.029      32652.488      2.2000182     -41230.045     -19.087984      30.124364    
      2000   1616.3767     -22638.136      32652.488      2.2000182     -41232.739     -19.089231      30.170733    
      2500   1602.5797     -26423.985      32652.488      2.2000182     -41228.945     -19.087474      30.231163    
      3000   1586.2491     -22928.053      32652.488      2.2000182     -41234.148     -19.089883      30.138427    
      3500   1593.549      -28450.741      32652.488      2.2000182     -41242.838     -19.093907      29.948284    
      4000   1584.3365     -27270.453      32652.488      2.2000182     -41234.427     -19.090013      30.176837    
      4500   1597.9332     -22275.082      32652.488      2.2000182     -41221.329     -19.083949      30.12607     
      5000   1647.9808     -24592.663      32652.488      2.2000182     -41231.126     -19.088484      30.179157    
      5500   1591.2674     -27288.689      32652.488      2.2000182     -41236.741     -19.091084      30.30804     
      6000   1618.5906     -17469.521      32652.488      2.2000182     -41252.151     -19.098218      30.124237    
      6500   1564.5081     -28952.662      32652.488      2.2000182     -41239.07      -19.092162      30.266721    
      7000   1612.3857     -23926.999      32652.488      2.2000182     -41244.332     -19.094598      30.02184     
      7500   1605.0863     -23301.925      32652.488      2.2000182     -41236.238     -19.090851      30.310047    
      8000   1572.5751     -22857.192      32652.488      2.2000182     -41227.8       -19.086944      30.282098    
      8500   1576.5815     -21225.375      32652.488      2.2000182     -41247.834     -19.09622       30.142615    
      9000   1578.2892     -24772.212      32652.488      2.2000182     -41241.565     -19.093317      29.999442    
      9500   1557.3996     -28168.35       32652.488      2.2000182     -41234.621     -19.090102      30.124619    
     10000   1612.3353     -27547.722      32652.488      2.2000182     -41231.545     -19.088678      30.471356    
     10500   1646.4869     -20704.897      32652.488      2.2000182     -41231.526     -19.08867       30.162496    
     11000   1610.4457     -32527.695      32652.488      2.2000182     -41233.676     -19.089665      30.078927    
     11500   1587.9051     -27516.397      32652.488      2.2000182     -41232.668     -19.089198      30.087812    
     12000   1498.5814     -22661.811      32652.488      2.2000182     -41237.89      -19.091616      30.069278    
     12500   1651.4359     -23434.45       32652.488      2.2000182     -41243.846     -19.094373      30.151572    
     13000   1614.7902     -28208.562      32652.488      2.2000182     -41237.168     -19.091281      30.220412    
     13500   1585.348      -27531.073      32652.488      2.2000182     -41233.094     -19.089395      30.12712     
     14000   1587.6267     -22229.315      32652.488      2.2000182     -41246.405     -19.095558      30.15881     
     14500   1630.8043     -27520.723      32652.488      2.2000182     -41232.631     -19.089181      30.267729    
     15000   1650.8807     -24557.22       32652.488      2.2000182     -41227.238     -19.086684      30.076591    
     15500   1618.8639     -24736.434      32652.488      2.2000182     -41250.104     -19.09727       30.086671    
     16000   1570.8988     -29295.939      32652.488      2.2000182     -41248.391     -19.096477      30.28572     
     16500   1590.2121     -26746.933      32652.488      2.2000182     -41243.991     -19.09444       30.015071    
     17000   1606.1601     -27931.046      32652.488      2.2000182     -41233.163     -19.089427      30.20028     
     17500   1599.3693     -28838.928      32652.488      2.2000182     -41237.481     -19.091426      30.127721    
     18000   1581.4394     -24993.66       32652.488      2.2000182     -41234.251     -19.089931      30.264818    
     18500   1591.5247     -31279.962      32652.488      2.2000182     -41249.047     -19.096781      30.161804    
     19000   1595.6036     -25047.907      32652.488      2.2000182     -41237.126     -19.091262      30.177899    
     19500   1597.6799     -25591.175      32652.488      2.2000182     -41223.029     -19.084736      30.131571    
     20000   1624.246      -27447.513      32652.488      2.2000182     -41226.108     -19.086161      30.079421    
Loop time of 33.7004 on 6 procs for 20000 steps with 2160 atoms

Performance: 51.275 ns/day, 0.468 hours/ns, 593.464 timesteps/s, 1.282 Matom-step/s
97.1% CPU use with 6 MPI tasks x 1 OpenMP threads

MPI task timing breakdown:
Section |  min time  |  avg time  |  max time  |%varavg| %total
---------------------------------------------------------------
Pair    | 19.834     | 22.645     | 24.727     |  31.1 | 67.20
Kspace  | 7.0706     | 9.1497     | 11.975     |  49.2 | 27.15
Neigh   | 0.58126    | 0.63963    | 0.66529    |   3.5 |  1.90
Comm    | 0.94059    | 0.97602    | 1.012      |   2.6 |  2.90
Output  | 0.00079781 | 0.00087844 | 0.0012454  |   0.0 |  0.00
Modify  | 0.16593    | 0.18044    | 0.18921    |   2.2 |  0.54
Other   |            | 0.1084     |            |       |  0.32

Nlocal:            360 ave         368 max         344 min
Histogram: 1 0 0 0 0 0 2 0 1 2
Nghost:        4668.83 ave        4694 max        4656 min
Histogram: 2 0 1 2 0 0 0 0 0 1
Neighs:        86048.8 ave       93766 max       76193 min
Histogram: 1 0 0 0 1 1 1 1 0 1

Total # of neighbors = 516293
Ave neighs/atom = 239.02454
Neighbor list builds = 463
Dangerous builds = 0
PPPM initialization ...
  using 12-bit tables for long-range coulomb (src/kspace.cpp:342)
  G vector (1/distance) = 0.29696104
  grid = 24 24 27
  stencil order = 5
  estimated absolute RMS force accuracy = 0.0014110636
  estimated relative force accuracy = 9.7992942e-05
  using double precision FFTW3
  3d grid and FFT values/proc = 9424 2880
Generated 0 of 1 mixed pair_coeff terms from geometric mixing rule
WARNING: Compute rdf cutoff less than neighbor cutoff - forcing a needless neighbor list build (src/compute_rdf.cpp:179)
Setting up Verlet run ...
  Unit style    : metal
  Current step  : 0
  Time step     : 0.001
Per MPI rank memory allocation (min/avg/max) = 6.134 | 6.276 | 6.545 Mbytes
   Step          Temp          Press          Volume        Density         PotEng         v_epa        c_msd0[4]   
         0   1624.246      -27447.513      32652.488      2.2000182     -41226.108     -19.086161      30.079421    
       500   1454.7486     -24403.355      32652.488      2.2000182     -41271.885     -19.107354      30.161361    
      1000   1474.176      -21638.703      32652.488      2.2000182     -41277.284     -19.109854      30.238701    
      1500   1483.0702     -26204.013      32652.488      2.2000182     -41261.373     -19.102487      30.061743    
      2000   1502.5312     -21657.63       32652.488      2.2000182     -41280.272     -19.111237      30.159673    
      2500   1565.3248     -24778.695      32652.488      2.2000182     -41263.17      -19.10332       30.185872    
      3000   1525.9519     -20412.556      32652.488      2.2000182     -41264.428     -19.103902      30.075497    
      3500   1535.6591     -27095.055      32652.488      2.2000182     -41280.144     -19.111178      30.234765    
      4000   1507.2259     -24382.257      32652.488      2.2000182     -41286.048     -19.113911      30.107679    
      4500   1490.6667     -29512.389      32652.488      2.2000182     -41273.003     -19.107872      30.192218    
      5000   1517.6383     -20834.816      32652.488      2.2000182     -41277.157     -19.109795      30.093101    
      5500   1517.5194     -30434.504      32652.488      2.2000182     -41267.847     -19.105485      30.091499    
      6000   1503.5499     -30757.506      32652.488      2.2000182     -41266.949     -19.105069      30.193566    
      6500   1472.181      -32093.493      32652.488      2.2000182     -41265.024     -19.104178      30.106102    
      7000   1478.1252     -24088.653      32652.488      2.2000182     -41277.986     -19.110179      30.195076    
      7500   1537.2172     -31292.46       32652.488      2.2000182     -41281.498     -19.111805      30.151035    
      8000   1548.7945     -28795.042      32652.488      2.2000182     -41274.358     -19.108499      30.14986     
      8500   1488.6054     -23314.788      32652.488      2.2000182     -41272.276     -19.107535      30.218266    
      9000   1454.5206     -27079.351      32652.488      2.2000182     -41272.753     -19.107756      30.115553    
      9500   1490.3205     -23943.141      32652.488      2.2000182     -41272.25      -19.107523      30.239976    
     10000   1468.6209     -24513.979      32652.488      2.2000182     -41262.88      -19.103185      30.230349    
     10500   1509.1003     -19436.539      32652.488      2.2000182     -41264.248     -19.103819      30.039511    
     11000   1497.0451     -24428.697      32652.488      2.2000182     -41268.845     -19.105947      30.094955    
     11500   1502.7013     -28009.569      32652.488      2.2000182     -41270.294     -19.106618      30.24523     
     12000   1518.7577     -26994.18       32652.488      2.2000182     -41281.27      -19.111699      30.172678    
     12500   1470.7698     -30111.769      32652.488      2.2000182     -41269.986     -19.106475      30.228145    
     13000   1502.701      -26568.37       32652.488      2.2000182     -41263.768     -19.103596      30.2216      
     13500   1505.7777     -26469.084      32652.488      2.2000182     -41260.079     -19.101889      30.164951    
     14000   1491.5902     -26647.628      32652.488      2.2000182     -41259.703     -19.101714      30.120462    
     14500   1491.9654     -24977.545      32652.488      2.2000182     -41267.087     -19.105133      30.250183    
     15000   1508.5342     -27931.528      32652.488      2.2000182     -41279.249     -19.110763      30.075747    
     15500   1491.8551     -26322.528      32652.488      2.2000182     -41290.81      -19.116116      30.110558    
     16000   1482.4262     -26079.854      32652.488      2.2000182     -41257.5       -19.100695      30.238024    
     16500   1497.1858     -25721.446      32652.488      2.2000182     -41258.824     -19.101308      30.086494    
     17000   1511.9281     -18568.335      32652.488      2.2000182     -41275.415     -19.108988      30.195937    
     17500   1509.7031     -28693.045      32652.488      2.2000182     -41279.417     -19.110841      30.155462    
     18000   1515.775      -23815.675      32652.488      2.2000182     -41277.881     -19.11013       30.213238    
     18500   1536.1837     -30768.847      32652.488      2.2000182     -41273.328     -19.108022      30.218258    
     19000   1500.7313     -30784.888      32652.488      2.2000182     -41273.176     -19.107952      30.194946    
     19500   1484.7032     -26910.635      32652.488      2.2000182     -41262.79      -19.103143      30.210672    
     20000   1508.2672     -26119.592      32652.488      2.2000182     -41262.762     -19.103131      30.092786    
Loop time of 33.9916 on 6 procs for 20000 steps with 2160 atoms

Performance: 50.836 ns/day, 0.472 hours/ns, 588.381 timesteps/s, 1.271 Matom-step/s
96.7% CPU use with 6 MPI tasks x 1 OpenMP threads

MPI task timing breakdown:
Section |  min time  |  avg time  |  max time  |%varavg| %total
---------------------------------------------------------------
Pair    | 19.979     | 22.64      | 25.001     |  32.0 | 66.60
Kspace  | 7.1667     | 9.5414     | 12.205     |  49.4 | 28.07
Neigh   | 0.52246    | 0.5778     | 0.60299    |   3.5 |  1.70
Comm    | 0.93105    | 0.95796    | 1.0064     |   2.7 |  2.82
Output  | 0.00079435 | 0.00087154 | 0.0012365  |   0.0 |  0.00
Modify  | 0.16537    | 0.17461    | 0.18091    |   1.3 |  0.51
Other   |            | 0.09925    |            |       |  0.29

Nlocal:            360 ave         365 max         343 min
Histogram: 1 0 0 0 0 0 0 0 1 4
Nghost:           4668 ave        4698 max        4640 min
Histogram: 2 0 0 1 0 1 0 0 1 1
Neighs:        86024.5 ave       94364 max       75049 min
Histogram: 1 0 0 1 0 1 1 1 0 1

Total # of neighbors = 516147
Ave neighs/atom = 238.95694
Neighbor list builds = 419
Dangerous builds = 0
PPPM initialization ...
  using 12-bit tables for long-range coulomb (src/kspace.cpp:342)
  G vector (1/distance) = 0.29696104
  grid = 24 24 27
  stencil order = 5
  estimated absolute RMS force accuracy = 0.0014110636
  estimated relative force accuracy = 9.7992942e-05
  using double precision FFTW3
  3d grid and FFT values/proc = 9424 2880
Generated 0 of 1 mixed pair_coeff terms from geometric mixing rule
WARNING: Compute rdf cutoff less than neighbor cutoff - forcing a needless neighbor list build (src/compute_rdf.cpp:179)
Setting up Verlet run ...
  Unit style    : metal
  Current step  : 0
  Time step     : 0.001
Per MPI rank memory allocation (min/avg/max) = 6.134 | 6.276 | 6.545 Mbytes
   Step          Temp          Press          Volume        Density         PotEng         v_epa        c_msd0[4]   
         0   1508.2672     -26119.592      32652.488      2.2000182     -41262.762     -19.103131      30.092786    
       500   1393.8588     -23365.219      32652.488      2.2000182     -41310.516     -19.125239      30.257146    
      1000   1369.3288     -28934.221      32652.488      2.2000182     -41306.56      -19.123408      30.152807    
      1500   1404.1462     -25770.673      32652.488      2.2000182     -41295.416     -19.118248      30.218235    
      2000   1387.8317     -25756.219      32652.488      2.2000182     -41304.859     -19.12262       30.199241    
      2500   1402.7404     -24908.866      32652.488      2.2000182     -41307.331     -19.123764      30.187058    
      3000   1381.0679     -24463.165      32652.488      2.2000182     -41301.165     -19.12091       30.233747    
      3500   1423.1564     -31550.385      32652.488      2.2000182     -41300.761     -19.120723      30.283978    
      4000   1385.5661     -26501.855      32652.488      2.2000182     -41282.198     -19.112129      30.287488    
      4500   1442.5216     -26570.256      32652.488      2.2000182     -41306.842     -19.123538      30.197942    
      5000   1395.1414     -27587.138      32652.488      2.2000182     -41305.137     -19.122749      30.201359    
      5500   1369.7824     -28551.639      32652.488      2.2000182     -41287.551     -19.114607      30.046329    
      6000   1407.2063     -32218.179      32652.488      2.2000182     -41293.809     -19.117504      30.148678    
      6500   1408.0908     -23288.673      32652.488      2.2000182     -41293.427     -19.117327      30.242894    
      7000   1395.3873     -23597.196      32652.488      2.2000182     -41298.367     -19.119614      30.23248     
      7500   1383.8673     -26039.027      32652.488      2.2000182     -41288.072     -19.114848      30.201552    
      8000   1445.7976     -27331.165      32652.488      2.2000182     -41298.417     -19.119638      30.222676    
      8500   1388.0573     -31679.449      32652.488      2.2000182     -41302.554     -19.121553      30.187715    
      9000   1415.3312     -23878.24       32652.488      2.2000182     -41306.363     -19.123316      30.16202     
      9500   1397.5069     -27972.487      32652.488      2.2000182     -41289.727     -19.115614      30.076074    
     10000   1384.6666     -25900.427      32652.488      2.2000182     -41288.349     -19.114977      30.124285    
     10500   1396.9078     -27064.429      32652.488      2.2000182     -41303.221     -19.121861      30.218894    
     11000   1362.4735     -29121.129      32652.488      2.2000182     -41306.245     -19.123262      29.979599    
     11500   1399.1888     -26986.332      32652.488      2.2000182     -41306.811     -19.123523      30.053087    
     12000   1401.4963     -24515.647      32652.488      2.2000182     -41295.82      -19.118435      30.181091    
     12500   1406.5571     -29022.013      32652.488      2.2000182     -41303.303     -19.1219        30.126671    
     13000   1358.1589     -27571.234      32652.488      2.2000182     -41304.306     -19.122364      30.132738    
     13500   1383.3052     -23894.627      32652.488      2.2000182     -41305.429     -19.122884      30.107347    
     14000   1405.228      -26408.362      32652.488      2.2000182     -41287.886     -19.114762      30.034028    
     14500   1416.0217     -28837.894      32652.488      2.2000182     -41308.347     -19.124235      30.22055     
     15000   1379.8663     -23100.771      32652.488      2.2000182     -41298.897     -19.11986       30.036782    
     15500   1367.7125     -24844.377      32652.488      2.2000182     -41303.842     -19.122149      30.145213    
     16000   1383.091      -28138.997      32652.488      2.2000182     -41302.676     -19.121609      30.201329    
     16500   1429.0596     -23065.192      32652.488      2.2000182     -41305.918     -19.12311       30.253191    
     17000   1394.6227     -30032.271      32652.488      2.2000182     -41289.091     -19.11532       30.131545    
     17500   1418.0405     -21314.165      32652.488      2.2000182     -41292.821     -19.117047      30.11039     
     18000   1389.0971     -31664.544      32652.488      2.2000182     -41299.842     -19.120297      30.215378    
     18500   1417.3023     -22446.65       32652.488      2.2000182     -41298.698     -19.119767      30.241834    
     19000   1393.1557     -29932.874      32652.488      2.2000182     -41301.864     -19.121233      30.123132    
     19500   1406.5105     -23421.15       32652.488      2.2000182     -41313.52      -19.12663       30.08156     
     20000   1387.6586     -26023.798      32652.488      2.2000182     -41304.23      -19.122329      30.196054    
Loop time of 33.7391 on 6 procs for 20000 steps with 2160 atoms

Performance: 51.217 ns/day, 0.469 hours/ns, 592.785 timesteps/s, 1.280 Matom-step/s
96.8% CPU use with 6 MPI tasks x 1 OpenMP threads

MPI task timing breakdown:
Section |  min time  |  avg time  |  max time  |%varavg| %total
---------------------------------------------------------------
Pair    | 19.729     | 22.633     | 24.892     |  32.7 | 67.08
Kspace  | 7.0902     | 9.3466     | 12.246     |  50.9 | 27.70
Neigh   | 0.48451    | 0.53503    | 0.55915    |   3.3 |  1.59
Comm    | 0.90913    | 0.95318    | 0.99993    |   3.6 |  2.83
Output  | 0.00079281 | 0.00086722 | 0.0012245  |   0.0 |  0.00
Modify  | 0.16125    | 0.17336    | 0.18172    |   2.0 |  0.51
Other   |            | 0.09743    |            |       |  0.29

Nlocal:            360 ave         369 max         346 min
Histogram: 1 0 0 1 0 0 1 1 1 1
Nghost:        4677.17 ave        4698 max        4656 min
Histogram: 1 1 0 1 0 1 0 0 0 2
Neighs:        86066.2 ave       93622 max       76073 min
Histogram: 1 0 0 0 2 0 1 0 1 1

Total # of neighbors = 516397
Ave neighs/atom = 239.07269
Neighbor list builds = 388
Dangerous builds = 0
PPPM initialization ...
  using 12-bit tables for long-range coulomb (src/kspace.cpp:342)
  G vector (1/distance) = 0.29696104
  grid = 24 24 27
  stencil order = 5
  estimated absolute RMS force accuracy = 0.0014110636
  estimated relative force accuracy = 9.7992942e-05
  using double precision FFTW3
  3d grid and FFT values/proc = 9424 2880
Generated 0 of 1 mixed pair_coeff terms from geometric mixing rule
WARNING: Compute rdf cutoff less than neighbor cutoff - forcing a needless neighbor list build (src/compute_rdf.cpp:179)
Setting up Verlet run ...
  Unit style    : metal
  Current step  : 0
  Time step     : 0.001
Per MPI rank memory allocation (min/avg/max) = 6.134 | 6.276 | 6.545 Mbytes
   Step          Temp          Press          Volume        Density         PotEng         v_epa        c_msd0[4]   
         0   1387.6586     -26023.798      32652.488      2.2000182     -41304.23      -19.122329      30.196054    
       500   1276.7206     -31480.701      32652.488      2.2000182     -41332.204     -19.135279      30.170796    
      1000   1283.1057     -24678.161      32652.488      2.2000182     -41340.204     -19.138983      30.09008     
      1500   1296.1857     -30486.359      32652.488      2.2000182     -41338.077     -19.137999      30.158087    
      2000   1308.3872     -27219.405      32652.488      2.2000182     -41329.772     -19.134154      30.21046     
      2500   1295.669      -23601.833      32652.488      2.2000182     -41322.415     -19.130748      30.084475    
      3000   1263.8821     -24591.672      32652.488      2.2000182     -41324.589     -19.131754      30.199112    
      3500   1309.5788     -24142.432      32652.488      2.2000182     -41326.102     -19.132455      30.213183    
      4000   1300.159      -23606.49       32652.488      2.2000182     -41321.005     -19.130095      30.165764    
      4500   1305.6653     -24043.253      32652.488      2.2000182     -41316.271     -19.127903      30.200436    
      5000   1293.2567     -27151.805      32652.488      2.2000182     -41328.446     -19.13354       30.11966     
      5500   1276.23       -27917.648      32652.488      2.2000182     -41329.97      -19.134245      30.142239    
      6000   1298.9075     -25364.655      32652.488      2.2000182     -41337.489     -19.137726      30.140197    
      6500   1278.7301     -25221.785      32652.488      2.2000182     -41319.132     -19.129228      30.11405     
      7000   1282.8457     -30284.659      32652.488      2.2000182     -41328.768     -19.133689      30.059828    
      7500   1272.8082     -21501.288      32652.488      2.2000182     -41333.826     -19.136031      30.201968    
      8000   1288.6956     -27464.042      32652.488      2.2000182     -41327.722     -19.133204      30.248556    
      8500   1321.7922     -26887.356      32652.488      2.2000182     -41328.967     -19.133781      30.110877    
      9000   1286.967      -26794.003      32652.488      2.2000182     -41324.349     -19.131643      30.099161    
      9500   1283.9463     -28848.512      32652.488      2.2000182     -41332.364     -19.135354      30.156141    
     10000   1307.4128     -25645.515      32652.488      2.2000182     -41331.713     -19.135052      30.163777    
     10500   1299.3188     -26546.113      32652.488      2.2000182     -41325.456     -19.132156      30.304103    
     11000   1307.3017     -25139.516      32652.488      2.2000182     -41333.479     -19.13587       30.163476    
     11500   1292.8883     -31104.642      32652.488      2.2000182     -41331.543     -19.134974      30.128852    
     12000   1272.066      -28317.945      32652.488      2.2000182     -41333.083     -19.135687      29.996312    
     12500   1291.1798     -25533.674      32652.488      2.2000182     -41322.573     -19.130821      30.066267    
     13000   1321.4693     -28220.757      32652.488      2.2000182     -41324.292     -19.131617      30.134926    
     13500   1299.8887     -22675.53       32652.488      2.2000182     -41332.937     -19.135619      30.170575    
     14000   1282.9012     -29781.379      32652.488      2.2000182     -41337.089     -19.137541      30.103353    
     14500   1269.0979     -28152.941      32652.488      2.2000182     -41339.371     -19.138598      30.107976    
     15000   1313.6112     -27413.208      32652.488      2.2000182     -41327.291     -19.133005      30.178063    
     15500   1319.2774     -24132.816      32652.488      2.2000182     -41330.401     -19.134445      30.198114    
     16000   1284.3667     -26489.049      32652.488      2.2000182     -41330.68      -19.134574      30.093945    
     16500   1271.7723     -32873.567      32652.488      2.2000182     -41336.304     -19.137178      30.102301    
     17000   1279.1541     -25561.695      32652.488      2.2000182     -41331.509     -19.134958      30.100027    
     17500   1317.019      -23867.853      32652.488      2.2000182     -41338.289     -19.138097      30.091935    
     18000   1347.0548     -27910.481      32652.488      2.2000182     -41317.592     -19.128515      30.144482    
     18500   1302.4834     -22115.654      32652.488      2.2000182     -41325.512     -19.132181      30.026721    
     19000   1315.7805     -22682.905      32652.488      2.2000182     -41334.16      -19.136185      30.091984    
     19500   1299.8894     -28896.771      32652.488      2.2000182     -41329.533     -19.134043      30.211658    
     20000   1301.4487     -22706.045      32652.488      2.2000182     -41339.534     -19.138673      30.15888     
Loop time of 33.7112 on 6 procs for 20000 steps with 2160 atoms

Performance: 51.259 ns/day, 0.468 hours/ns, 593.275 timesteps/s, 1.281 Matom-step/s
96.9% CPU use with 6 MPI tasks x 1 OpenMP threads

MPI task timing breakdown:
Section |  min time  |  avg time  |  max time  |%varavg| %total
---------------------------------------------------------------
Pair    | 19.963     | 22.67      | 24.903     |  31.3 | 67.25
Kspace  | 7.0953     | 9.3228     | 12.022     |  48.8 | 27.66
Neigh   | 0.4441     | 0.48925    | 0.51023    |   3.1 |  1.45
Comm    | 0.91744    | 0.95511    | 1.0018     |   3.4 |  2.83
Output  | 0.00078421 | 0.00086125 | 0.0012343  |   0.0 |  0.00
Modify  | 0.16151    | 0.17296    | 0.18323    |   2.1 |  0.51
Other   |            | 0.1005     |            |       |  0.30

Nlocal:            360 ave         365 max         348 min
Histogram: 1 0 0 0 0 0 0 2 1 2
Nghost:        4667.83 ave        4689 max        4649 min
Histogram: 1 0 2 0 0 1 0 1 0 1
Neighs:        86055.2 ave       94438 max       76510 min
Histogram: 1 0 0 1 0 2 0 1 0 1

Total # of neighbors = 516331
Ave neighs/atom = 239.04213
Neighbor list builds = 355
Dangerous builds = 0
PPPM initialization ...
  using 12-bit tables for long-range coulomb (src/kspace.cpp:342)
  G vector (1/distance) = 0.29696104
  grid = 24 24 27
  stencil order = 5
  estimated absolute RMS force accuracy = 0.0014110636
  estimated relative force accuracy = 9.7992942e-05
  using double precision FFTW3
  3d grid and FFT values/proc = 9424 2880
Generated 0 of 1 mixed pair_coeff terms from geometric mixing rule
WARNING: Compute rdf cutoff less than neighbor cutoff - forcing a needless neighbor list build (src/compute_rdf.cpp:179)
Setting up Verlet run ...
  Unit style    : metal
  Current step  : 0
  Time step     : 0.001
Per MPI rank memory allocation (min/avg/max) = 6.134 | 6.276 | 6.545 Mbytes
   Step          Temp          Press          Volume        Density         PotEng         v_epa        c_msd0[4]   
         0   1301.4487     -22706.045      32652.488      2.2000182     -41339.534     -19.138673      30.15888     
       500   1177.9901     -27458.729      32652.488      2.2000182     -41361.66      -19.148917      30.246887    
      1000   1194.7754     -28253.459      32652.488      2.2000182     -41368.041     -19.151871      30.143305    
      1500   1190.5325     -30700.841      32652.488      2.2000182     -41369.127     -19.152374      30.154231    
      2000   1203.0979     -24950.368      32652.488      2.2000182     -41358.906     -19.147642      30.118812    
      2500   1187.8446     -24357.568      32652.488      2.2000182     -41354.771     -19.145727      30.157456    
      3000   1227.0509     -25487.646      32652.488      2.2000182     -41371.21      -19.153338      30.089748    
      3500   1182.7319     -28324.768      32652.488      2.2000182     -41371.897     -19.153656      30.174155    
      4000   1205.2613     -29673.161      32652.488      2.2000182     -41360.459     -19.14836       30.248254    
      4500   1205.3497     -27200.301      32652.488      2.2000182     -41367.225     -19.151493      30.079931    
      5000   1158.2273     -30736.958      32652.488      2.2000182     -41357.369     -19.14693       30.248044    
      5500   1180.8292     -30554.182      32652.488      2.2000182     -41367.843     -19.151779      30.000366    
      6000   1192.0104     -27878.76       32652.488      2.2000182     -41362.131     -19.149135      30.15749     
      6500   1210.0652     -22125.908      32652.488      2.2000182     -41355.075     -19.145868      30.116713    
      7000   1234.5445     -26883.132      32652.488      2.2000182     -41366.198     -19.151018      30.161972    
      7500   1178.098      -29944.642      32652.488      2.2000182     -41369.465     -19.15253       29.975988    
      8000   1235.8596     -33218.023      32652.488      2.2000182     -41353.84      -19.145296      30.17439     
      8500   1199.6293     -30817.551      32652.488      2.2000182     -41349.299     -19.143194      29.982097    
      9000   1216.5128     -28741.551      32652.488      2.2000182     -41366.17      -19.151005      30.242317    
      9500   1228.8548     -29785.092      32652.488      2.2000182     -41359.71      -19.148014      30.190291    
     10000   1211.9963     -23047.302      32652.488      2.2000182     -41358.225     -19.147326      30.139703    
     10500   1194.3542     -26635.285      32652.488      2.2000182     -41364.215     -19.1501        30.219685    
     11000   1168.5428     -32045.419      32652.488      2.2000182     -41355.232     -19.145941      30.056445    
     11500   1195.3923     -27015.197      32652.488      2.2000182     -41352.132     -19.144505      30.17092     
     12000   1235.4805     -31646.808      32652.488      2.2000182     -41353.193     -19.144997      30.142118    
     12500   1231.1277     -23608.585      32652.488      2.2000182     -41360.767     -19.148503      30.133337    
     13000   1205.3121     -26837.326      32652.488      2.2000182     -41363.808     -19.149911      29.999063    
     13500   1198.1951     -23458.104      32652.488      2.2000182     -41360.068     -19.14818       30.069464    
     14000   1212.8828     -26662.004      32652.488      2.2000182     -41359.362     -19.147853      30.083308    
     14500   1212.467      -31139.824      32652.488      2.2000182     -41355.031     -19.145848      30.084948    
     15000   1223.499      -27375.014      32652.488      2.2000182     -41351.12      -19.144037      30.202981    
     15500   1191.2686     -30663.029      32652.488      2.2000182     -41356.382     -19.146473      30.040738    
     16000   1177.4575     -31587.163      32652.488      2.2000182     -41355.158     -19.145907      30.146083    
     16500   1237.3153     -28966.543      32652.488      2.2000182     -41363.793     -19.149904      30.080403    
     17000   1220.7959     -25645.123      32652.488      2.2000182     -41352.883     -19.144853      30.324133    
     17500   1200.2802     -26921.45       32652.488      2.2000182     -41364.712     -19.15033       30.022359    
     18000   1161.1921     -24759.344      32652.488      2.2000182     -41360.472     -19.148367      30.197465    
     18500   1195.6944     -25239.348      32652.488      2.2000182     -41364.399     -19.150185      30.119943    
     19000   1213.843      -23205.127      32652.488      2.2000182     -41359.732     -19.148024      30.218376    
     19500   1196.2893     -26325.197      32652.488      2.2000182     -41354.391     -19.145551      30.127904    
     20000   1229.4595     -27380.539      32652.488      2.2000182     -41354.882     -19.145779      30.123549    
Loop time of 33.9952 on 6 procs for 20000 steps with 2160 atoms

Performance: 50.831 ns/day, 0.472 hours/ns, 588.318 timesteps/s, 1.271 Matom-step/s
96.5% CPU use with 6 MPI tasks x 1 OpenMP threads

MPI task timing breakdown:
Section |  min time  |  avg time  |  max time  |%varavg| %total
---------------------------------------------------------------
Pair    | 19.853     | 22.655     | 25.191     |  33.3 | 66.64
Kspace  | 7.1379     | 9.6601     | 12.446     |  50.9 | 28.42
Neigh   | 0.40467    | 0.44621    | 0.4656     |   3.0 |  1.31
Comm    | 0.9132     | 0.96199    | 1.0133     |   3.8 |  2.83
Output  | 0.00078962 | 0.00086815 | 0.0012314  |   0.0 |  0.00
Modify  | 0.15668    | 0.16826    | 0.17694    |   2.0 |  0.49
Other   |            | 0.1032     |            |       |  0.30

Nlocal:            360 ave         368 max         340 min
Histogram: 1 0 0 0 0 0 1 1 1 2
Nghost:        4655.67 ave        4697 max        4627 min
Histogram: 2 1 0 0 1 0 0 1 0 1
Neighs:        86062.5 ave       95026 max       74678 min
Histogram: 1 0 0 0 1 1 1 1 0 1

Total # of neighbors = 516375
Ave neighs/atom = 239.0625
Neighbor list builds = 324
Dangerous builds = 0
PPPM initialization ...
  using 12-bit tables for long-range coulomb (src/kspace.cpp:342)
  G vector (1/distance) = 0.29696104
  grid = 24 24 27
  stencil order = 5
  estimated absolute RMS force accuracy = 0.0014110636
  estimated relative force accuracy = 9.7992942e-05
  using double precision FFTW3
  3d grid and FFT values/proc = 9424 2880
Generated 0 of 1 mixed pair_coeff terms from geometric mixing rule
WARNING: Compute rdf cutoff less than neighbor cutoff - forcing a needless neighbor list build (src/compute_rdf.cpp:179)
Setting up Verlet run ...
  Unit style    : metal
  Current step  : 0
  Time step     : 0.001
Per MPI rank memory allocation (min/avg/max) = 6.134 | 6.276 | 6.545 Mbytes
   Step          Temp          Press          Volume        Density         PotEng         v_epa        c_msd0[4]   
         0   1229.4595     -27380.539      32652.488      2.2000182     -41354.882     -19.145779      30.123549    
       500   1104.5982     -22827.54       32652.488      2.2000182     -41399.093     -19.166247      30.119627    
      1000   1108.5438     -28387.865      32652.488      2.2000182     -41395.276     -19.16448       30.210676    
      1500   1131.8981     -24009.694      32652.488      2.2000182     -41391.582     -19.16277       30.225036    
      2000   1124.231      -29079.873      32652.488      2.2000182     -41380.699     -19.157731      30.05763     
      2500   1068.6408     -24227.799      32652.488      2.2000182     -41386.335     -19.16034       30.219147    
      3000   1123.4259     -28091          32652.488      2.2000182     -41400.148     -19.166735      30.212626    
      3500   1100.0719     -28924.39       32652.488      2.2000182     -41383.125     -19.158854      30.153581    
      4000   1134.7697     -29058.783      32652.488      2.2000182     -41385.392     -19.159904      30.165954    
      4500   1094.5351     -31077.038      32652.488      2.2000182     -41384.835     -19.159646      30.149889    
      5000   1119.4894     -26218.087      32652.488      2.2000182     -41399.158     -19.166277      30.156779    
      5500   1096.0206     -24924.224      32652.488      2.2000182     -41393.83      -19.16381       30.199147    
      6000   1112.2248     -24085.107      32652.488      2.2000182     -41385.506     -19.159957      30.071474    
      6500   1062.4381     -27438.544      32652.488      2.2000182     -41389.315     -19.16172       30.16922     
      7000   1074.3658     -27416.379      32652.488      2.2000182     -41392.771     -19.16332       30.123148    
      7500   1061.6777     -26399.106      32652.488      2.2000182     -41381.361     -19.158038      30.209046    
      8000   1115.399      -25107.228      32652.488      2.2000182     -41384.638     -19.159555      30.08981     
      8500   1109.864      -28292.986      32652.488      2.2000182     -41390.609     -19.162319      30.161384    
      9000   1077.4136     -26660.938      32652.488      2.2000182     -41386.182     -19.160269      30.09675     
      9500   1086.4369     -29879.662      32652.488      2.2000182     -41394.306     -19.164031      30.196269    
     10000   1108.2909     -25775.969      32652.488      2.2000182     -41383.867     -19.159197      30.113638    
     10500   1085.8666     -30340.907      32652.488      2.2000182     -41384.07      -19.159292      30.143864    
     11000   1080.8992     -26661.603      32652.488      2.2000182     -41392.387     -19.163142      30.055021    
     11500   1088.3241     -33994.842      32652.488      2.2000182     -41387.264     -19.16077       30.102714    
     12000   1142.006      -26582.262      32652.488      2.2000182     -41382.575     -19.158599      30.196967    
     12500   1110.5823     -30069.432      32652.488      2.2000182     -41381.447     -19.158077      30.17795     
     13000   1099.5813     -24764.374      32652.488      2.2000182     -41383.352     -19.158959      30.177235    
     13500   1084.1934     -27721.644      32652.488      2.2000182     -41382.953     -19.158774      30.125891    
     14000   1123.3863     -27652.168      32652.488      2.2000182     -41398.446     -19.165947      30.182278    
     14500   1080.488      -25785.506      32652.488      2.2000182     -41389.834     -19.16196       30.406329    
     15000   1112.6982     -33321.2        32652.488      2.2000182     -41380.805     -19.15778       30.246149    
     15500   1115.5398     -28090.237      32652.488      2.2000182     -41379.113     -19.156997      30.094278    
     16000   1101.2758     -29163.422      32652.488      2.2000182     -41380.507     -19.157642      30.205142    
     16500   1123.8398     -28591.739      32652.488      2.2000182     -41391.855     -19.162896      30.283232    
     17000   1090.0815     -26575.363      32652.488      2.2000182     -41397.916     -19.165702      30.052349    
     17500   1097.5792     -23670.32       32652.488      2.2000182     -41399.147     -19.166272      30.150078    
     18000   1103.5036     -29116.416      32652.488      2.2000182     -41383.416     -19.158989      30.22978     
     18500   1103.6323     -26993.519      32652.488      2.2000182     -41382.035     -19.15835       30.109938    
     19000   1056.9471     -25580.683      32652.488      2.2000182     -41394.252     -19.164005      30.093436    
     19500   1079.7627     -27859.872      32652.488      2.2000182     -41383.69      -19.159116      30.134387    
     20000   1099.1048     -24063.888      32652.488      2.2000182     -41385.922     -19.160149      30.131741    
Loop time of 33.7537 on 6 procs for 20000 steps with 2160 atoms

Performance: 51.194 ns/day, 0.469 hours/ns, 592.528 timesteps/s, 1.280 Matom-step/s
96.8% CPU use with 6 MPI tasks x 1 OpenMP threads

MPI task timing breakdown:
Section |  min time  |  avg time  |  max time  |%varavg| %total
---------------------------------------------------------------
Pair    | 19.654     | 22.569     | 25.061     |  34.2 | 66.86
Kspace  | 7.0616     | 9.5538     | 12.463     |  52.6 | 28.30
Neigh   | 0.36629    | 0.40527    | 0.42422    |   2.9 |  1.20
Comm    | 0.90287    | 0.94853    | 0.98501    |   3.0 |  2.81
Output  | 0.00080074 | 0.00087819 | 0.0012492  |   0.0 |  0.00
Modify  | 0.16544    | 0.17614    | 0.18286    |   1.7 |  0.52
Other   |            | 0.1003     |            |       |  0.30

Nlocal:            360 ave         370 max         342 min
Histogram: 1 0 0 0 0 2 0 1 0 2
Nghost:           4660 ave        4688 max        4616 min
Histogram: 1 0 1 0 0 1 0 0 1 2
Neighs:        86071.7 ave       95109 max       74904 min
Histogram: 1 0 0 0 1 2 0 1 0 1

Total # of neighbors = 516430
Ave neighs/atom = 239.08796
Neighbor list builds = 295
Dangerous builds = 0
PPPM initialization ...
  using 12-bit tables for long-range coulomb (src/kspace.cpp:342)
  G vector (1/distance) = 0.29696104
  grid = 24 24 27
  stencil order = 5
  estimated absolute RMS force accuracy = 0.0014110636
  estimated relative force accuracy = 9.7992942e-05
  using double precision FFTW3
  3d grid and FFT values/proc = 9424 2880
Generated 0 of 1 mixed pair_coeff terms from geometric mixing rule
WARNING: Compute rdf cutoff less than neighbor cutoff - forcing a needless neighbor list build (src/compute_rdf.cpp:179)
Setting up Verlet run ...
  Unit style    : metal
  Current step  : 0
  Time step     : 0.001
Per MPI rank memory allocation (min/avg/max) = 6.134 | 6.276 | 6.545 Mbytes
   Step          Temp          Press          Volume        Density         PotEng         v_epa        c_msd0[4]   
         0   1099.1048     -24063.888      32652.488      2.2000182     -41385.922     -19.160149      30.131741    
       500   982.03106     -28131.253      32652.488      2.2000182     -41420.637     -19.176221      30.122587    
      1000   971.49356     -25736.752      32652.488      2.2000182     -41415.782     -19.173973      30.20736     
      1500   1003.2397     -25167.813      32652.488      2.2000182     -41413.077     -19.172721      30.023474    
      2000   1038.3606     -31929.144      32652.488      2.2000182     -41415.262     -19.173732      30.211414    
      2500   973.74354     -28073.735      32652.488      2.2000182     -41406.417     -19.169638      30.122311    
      3000   987.37599     -25803.933      32652.488      2.2000182     -41415.027     -19.173624      30.189495    
      3500   1002.7987     -32629.54       32652.488      2.2000182     -41409.995     -19.171294      30.13111     
      4000   1018.0135     -25064.284      32652.488      2.2000182     -41415.381     -19.173787      30.2295      
      4500   1012.8045     -25310.483      32652.488      2.2000182     -41413.704     -19.173011      30.099667    
      5000   1010.9669     -26189.897      32652.488      2.2000182     -41421.995     -19.176849      30.039601    
      5500   1016.1662     -29049.425      32652.488      2.2000182     -41413.178     -19.172768      30.145602    
      6000   1042.5254     -27690.419      32652.488      2.2000182     -41412.898     -19.172638      30.167031    
      6500   1001.2009     -25181.799      32652.488      2.2000182     -41423.58      -19.177584      30.16998     
      7000   982.06123     -27091.103      32652.488      2.2000182     -41417.463     -19.174751      30.139471    
      7500   1012.2982     -28464.155      32652.488      2.2000182     -41414.058     -19.173175      30.064013    
      8000   984.78918     -25720.213      32652.488      2.2000182     -41401.196     -19.16722       30.071561    
      8500   1006.7092     -26696.393      32652.488      2.2000182     -41411.646     -19.172058      30.120513    
      9000   1026.7162     -29624.017      32652.488      2.2000182     -41421.113     -19.176441      30.163224    
      9500   988.15919     -29251.006      32652.488      2.2000182     -41422.977     -19.177304      30.136363    
     10000   988.29839     -28935.347      32652.488      2.2000182     -41427.205     -19.179261      30.086964    
     10500   989.70665     -24919.874      32652.488      2.2000182     -41415.681     -19.173926      30.132495    
     11000   1014.6511     -27515.342      32652.488      2.2000182     -41418.447     -19.175207      30.262397    
     11500   1010.3926     -23263.993      32652.488      2.2000182     -41413.988     -19.173143      30.164276    
     12000   1002.2241     -28260.963      32652.488      2.2000182     -41412.879     -19.172629      30.116399    
     12500   1009.602      -29567.409      32652.488      2.2000182     -41424.154     -19.177849      30.19574     
     13000   976.60836     -26782.148      32652.488      2.2000182     -41412.786     -19.172586      30.166086    
     13500   992.35876     -29204.661      32652.488      2.2000182     -41416.604     -19.174354      30.164824    
     14000   1024.0848     -28605.454      32652.488      2.2000182     -41410.365     -19.171465      30.16104     
     14500   1027.6846     -28649.217      32652.488      2.2000182     -41417.255     -19.174655      30.148719    
     15000   1006.2039     -25806.643      32652.488      2.2000182     -41414.685     -19.173466      30.143042    
     15500   975.74989     -29234.05       32652.488      2.2000182     -41419.134     -19.175525      30.150495    
     16000   998.75921     -24996.625      32652.488      2.2000182     -41426.889     -19.179115      30.122614    
     16500   1009.3719     -25585.664      32652.488      2.2000182     -41412.512     -19.172459      30.180852    
     17000   1029.1062     -22061.459      32652.488      2.2000182     -41417.628     -19.174828      30.268981    
     17500   1009.6817     -30713.084      32652.488      2.2000182     -41423.802     -19.177686      30.192666    
     18000   973.6492      -25997.803      32652.488      2.2000182     -41419.333     -19.175617      30.211137    
     18500   982.1288      -24495.956      32652.488      2.2000182     -41412.288     -19.172355      30.177273    
     19000   976.1895      -24641.517      32652.488      2.2000182     -41415.558     -19.173869      30.128617    
     19500   1008.0517     -26850.808      32652.488      2.2000182     -41424.519     -19.178018      30.20193     
     20000   1027.4733     -29880.534      32652.488      2.2000182     -41421.231     -19.176496      30.17891     
Loop time of 33.5324 on 6 procs for 20000 steps with 2160 atoms

Performance: 51.532 ns/day, 0.466 hours/ns, 596.438 timesteps/s, 1.288 Matom-step/s
96.7% CPU use with 6 MPI tasks x 1 OpenMP threads

MPI task timing breakdown:
Section |  min time  |  avg time  |  max time  |%varavg| %total
---------------------------------------------------------------
Pair    | 19.523     | 22.53      | 24.948     |  34.4 | 67.19
Kspace  | 7.0388     | 9.4534     | 12.453     |  53.1 | 28.19
Neigh   | 0.31809    | 0.35198    | 0.36832    |   2.7 |  1.05
Comm    | 0.8857     | 0.92698    | 0.96202    |   2.8 |  2.76
Output  | 0.00079354 | 0.00087003 | 0.0012356  |   0.0 |  0.00
Modify  | 0.15588    | 0.16638    | 0.17147    |   1.6 |  0.50
Other   |            | 0.1026     |            |       |  0.31

Nlocal:            360 ave         369 max         343 min
Histogram: 1 0 0 0 0 1 1 1 0 2
Nghost:        4663.67 ave        4717 max        4627 min
Histogram: 2 1 0 0 0 1 0 1 0 1
Neighs:        86026.8 ave       95087 max       75274 min
Histogram: 1 0 0 0 1 2 1 0 0 1

Total # of neighbors = 516161
Ave neighs/atom = 238.96343
Neighbor list builds = 256
Dangerous builds = 0
PPPM initialization ...
  using 12-bit tables for long-range coulomb (src/kspace.cpp:342)
  G vector (1/distance) = 0.29696104
  grid = 24 24 27
  stencil order = 5
  estimated absolute RMS force accuracy = 0.0014110636
  estimated relative force accuracy = 9.7992942e-05
  using double precision FFTW3
  3d grid and FFT values/proc = 9424 2880
Generated 0 of 1 mixed pair_coeff terms from geometric mixing rule
WARNING: Compute rdf cutoff less than neighbor cutoff - forcing a needless neighbor list build (src/compute_rdf.cpp:179)
Setting up Verlet run ...
  Unit style    : metal
  Current step  : 0
  Time step     : 0.001
Per MPI rank memory allocation (min/avg/max) = 6.134 | 6.276 | 6.545 Mbytes
   Step          Temp          Press          Volume        Density         PotEng         v_epa        c_msd0[4]   
         0   1027.4733     -29880.534      32652.488      2.2000182     -41421.231     -19.176496      30.17891     
       500   883.9214      -23956.546      32652.488      2.2000182     -41452.357     -19.190906      30.141163    
      1000   885.57191     -25800.244      32652.488      2.2000182     -41444.68      -19.187352      30.084169    
      1500   897.65288     -28121.381      32652.488      2.2000182     -41439.91      -19.185144      30.105403    
      2000   898.2484      -29095.986      32652.488      2.2000182     -41434.287     -19.18254       30.144378    
      2500   929.28023     -28658.456      32652.488      2.2000182     -41449.616     -19.189637      30.096433    
      3000   876.65959     -29106.352      32652.488      2.2000182     -41443.062     -19.186603      30.208468    
      3500   907.46765     -25725.48       32652.488      2.2000182     -41453.984     -19.191659      30.079292    
      4000   901.41033     -25339.205      32652.488      2.2000182     -41450.939     -19.190249      30.166661    
      4500   899.04862     -28489.863      32652.488      2.2000182     -41446.713     -19.188293      30.060563    
      5000   909.47574     -25374.008      32652.488      2.2000182     -41445.338     -19.187656      30.078182    
      5500   890.52573     -27412.186      32652.488      2.2000182     -41443.195     -19.186664      30.104599    
      6000   876.87198     -26092.492      32652.488      2.2000182     -41448.137     -19.188952      30.221173    
      6500   867.99577     -27705.916      32652.488      2.2000182     -41442.668     -19.18642       30.116411    
      7000   911.63404     -29475.19       32652.488      2.2000182     -41445.88      -19.187907      30.166381    
      7500   904.08289     -28145.53       32652.488      2.2000182     -41443.025     -19.186586      30.13857     
      8000   902.50948     -25008.918      32652.488      2.2000182     -41443.467     -19.186791      30.036035    
      8500   900.70377     -30074.689      32652.488      2.2000182     -41448.669     -19.189198      30.17709     
      9000   896.89107     -28681.13       32652.488      2.2000182     -41445.431     -19.1877        30.07494     
      9500   912.32749     -30533.392      32652.488      2.2000182     -41443.53      -19.186819      30.187476    
     10000   923.98954     -27675.757      32652.488      2.2000182     -41441.023     -19.185659      30.159791    
     10500   906.69078     -27347.796      32652.488      2.2000182     -41447.717     -19.188758      30.325946    
     11000   908.54374     -26030.095      32652.488      2.2000182     -41452.728     -19.191078      30.146702    
     11500   882.32942     -27754.206      32652.488      2.2000182     -41450.193     -19.189904      30.224895    
     12000   888.40235     -24948.01       32652.488      2.2000182     -41442.424     -19.186307      30.183436    
     12500   904.56053     -29024.928      32652.488      2.2000182     -41438.189     -19.184347      30.166966    
     13000   931.49351     -31426.19       32652.488      2.2000182     -41446.766     -19.188318      30.149475    
     13500   891.51531     -27593.037      32652.488      2.2000182     -41449.246     -19.189466      30.255323    
     14000   890.57383     -26620.488      32652.488      2.2000182     -41444.525     -19.18728       30.139574    
     14500   924.54452     -28492.323      32652.488      2.2000182     -41445.719     -19.187833      30.197436    
     15000   932.70475     -27283.685      32652.488      2.2000182     -41443.918     -19.186999      30.179514    
     15500   901.35954     -29030.432      32652.488      2.2000182     -41448.323     -19.189038      30.23474     
     16000   878.73118     -26152.568      32652.488      2.2000182     -41447.485     -19.188651      30.225907    
     16500   910.79104     -27841.773      32652.488      2.2000182     -41448.097     -19.188934      30.13262     
     17000   895.66299     -30268.907      32652.488      2.2000182     -41437.946     -19.184234      30.05779     
     17500   929.66199     -23444.667      32652.488      2.2000182     -41451.41      -19.190467      30.149873    
     18000   896.64168     -27033.461      32652.488      2.2000182     -41445.94      -19.187935      30.174825    
     18500   878.79869     -28790.171      32652.488      2.2000182     -41457.076     -19.193091      30.154044    
     19000   896.17982     -26904.61       32652.488      2.2000182     -41439.096     -19.184767      30.153161    
     19500   923.10164     -27385.711      32652.488      2.2000182     -41444.186     -19.187123      30.147944    
     20000   903.38058     -27421.096      32652.488      2.2000182     -41449.931     -19.189783      30.060825    
Loop time of 33.6248 on 6 procs for 20000 steps with 2160 atoms

Performance: 51.391 ns/day, 0.467 hours/ns, 594.799 timesteps/s, 1.285 Matom-step/s
96.4% CPU use with 6 MPI tasks x 1 OpenMP threads

MPI task timing breakdown:
Section |  min time  |  avg time  |  max time  |%varavg| %total
---------------------------------------------------------------
Pair    | 19.747     | 22.579     | 25.055     |  33.6 | 67.15
Kspace  | 7.0722     | 9.5393     | 12.353     |  51.4 | 28.37
Neigh   | 0.28391    | 0.31441    | 0.32883    |   2.6 |  0.94
Comm    | 0.89181    | 0.9252     | 0.96827    |   2.7 |  2.75
Output  | 0.0007942  | 0.00086617 | 0.0012224  |   0.0 |  0.00
Modify  | 0.15397    | 0.16744    | 0.17675    |   2.1 |  0.50
Other   |            | 0.09886    |            |       |  0.29

Nlocal:            360 ave         369 max         348 min
Histogram: 1 0 1 0 0 0 2 0 1 1
Nghost:        4656.17 ave        4683 max        4621 min
Histogram: 1 1 0 0 0 0 2 0 0 2
Neighs:        86111.2 ave       93688 max       76753 min
Histogram: 1 0 0 0 1 1 2 0 0 1

Total # of neighbors = 516667
Ave neighs/atom = 239.19769
Neighbor list builds = 229
Dangerous builds = 0
PPPM initialization ...
  using 12-bit tables for long-range coulomb (src/kspace.cpp:342)
  G vector (1/distance) = 0.29696104
  grid = 24 24 27
  stencil order = 5
  estimated absolute RMS force accuracy = 0.0014110636
  estimated relative force accuracy = 9.7992942e-05
  using double precision FFTW3
  3d grid and FFT values/proc = 9424 2880
Generated 0 of 1 mixed pair_coeff terms from geometric mixing rule
WARNING: Compute rdf cutoff less than neighbor cutoff - forcing a needless neighbor list build (src/compute_rdf.cpp:179)
Setting up Verlet run ...
  Unit style    : metal
  Current step  : 0
  Time step     : 0.001
Per MPI rank memory allocation (min/avg/max) = 6.134 | 6.276 | 6.545 Mbytes
   Step          Temp          Press          Volume        Density         PotEng         v_epa        c_msd0[4]   
         0   903.38058     -27421.096      32652.488      2.2000182     -41449.931     -19.189783      30.060825    
       500   777.13623     -27773.603      32652.488      2.2000182     -41477.593     -19.202589      30.217138    
      1000   793.08211     -25290.446      32652.488      2.2000182     -41477.689     -19.202634      30.191507    
      1500   805.69605     -29033.015      32652.488      2.2000182     -41475.067     -19.20142       30.150582    
      2000   813.80465     -30872.516      32652.488      2.2000182     -41470.668     -19.199384      30.110329    
      2500   820.82482     -27108.413      32652.488      2.2000182     -41476.132     -19.201913      30.137211    
      3000   794.41325     -26053.182      32652.488      2.2000182     -41476.547     -19.202105      30.108643    
      3500   796.18107     -26892.107      32652.488      2.2000182     -41474.871     -19.201329      30.1528      
      4000   832.55168     -26384.375      32652.488      2.2000182     -41473.783     -19.200826      30.127565    
      4500   805.99552     -24297.475      32652.488      2.2000182     -41476.059     -19.201879      30.141672    
      5000   806.81893     -25140.972      32652.488      2.2000182     -41478.333     -19.202932      30.092591    
      5500   788.96187     -28246.614      32652.488      2.2000182     -41475.144     -19.201456      30.2231      
      6000   820.43391     -24230.855      32652.488      2.2000182     -41475.141     -19.201454      30.171161    
      6500   803.25698     -26758.826      32652.488      2.2000182     -41465.338     -19.196916      30.182525    
      7000   799.28177     -29923.256      32652.488      2.2000182     -41471.098     -19.199582      30.150729    
      7500   782.08714     -28250.42       32652.488      2.2000182     -41473.166     -19.20054       30.182634    
      8000   787.15839     -33110.915      32652.488      2.2000182     -41474.917     -19.20135       30.15506     
      8500   801.44383     -27837.378      32652.488      2.2000182     -41475.346     -19.201549      30.205753    
      9000   806.12192     -26154.27       32652.488      2.2000182     -41473.524     -19.200706      30.002913    
      9500   804.55275     -25979.922      32652.488      2.2000182     -41472.379     -19.200176      30.235557    
     10000   802.22114     -30062.329      32652.488      2.2000182     -41479.577     -19.203508      30.16694     
     10500   779.85932     -25065.519      32652.488      2.2000182     -41478.398     -19.202962      30.141116    
     11000   824.58627     -24817.908      32652.488      2.2000182     -41483.071     -19.205125      30.083797    
     11500   825.69483     -28831.332      32652.488      2.2000182     -41477.015     -19.202322      30.216395    
     12000   782.14074     -24954.548      32652.488      2.2000182     -41471.503     -19.19977       30.088878    
     12500   791.97103     -25524.052      32652.488      2.2000182     -41480.755     -19.204053      30.18685     
     13000   773.81429     -25748.524      32652.488      2.2000182     -41477.057     -19.202341      30.110443    
     13500   805.14981     -24417.893      32652.488      2.2000182     -41477.04      -19.202333      30.098156    
     14000   811.63114     -25046.106      32652.488      2.2000182     -41472.883     -19.200409      30.157435    
     14500   786.81615     -28336.147      32652.488      2.2000182     -41472.752     -19.200348      30.188151    
     15000   803.63496     -24025.256      32652.488      2.2000182     -41487.041     -19.206963      30.169125    
     15500   800.05227     -24970.603      32652.488      2.2000182     -41477.172     -19.202394      30.119421    
     16000   827.16153     -26516.275      32652.488      2.2000182     -41479.872     -19.203645      30.194989    
     16500   806.78716     -28145.473      32652.488      2.2000182     -41481.014     -19.204173      30.145494    
     17000   805.32398     -27913.586      32652.488      2.2000182     -41484.16      -19.20563       30.077395    
     17500   804.29213     -29376.437      32652.488      2.2000182     -41476.165     -19.201928      30.149988    
     18000   824.48794     -29307.982      32652.488      2.2000182     -41477.714     -19.202645      30.12689     
     18500   806.97234     -25850.248      32652.488      2.2000182     -41470.999     -19.199536      30.180848    
     19000   815.74678     -30030.745      32652.488      2.2000182     -41470.394     -19.199256      30.069991    
     19500   803.98618     -25039.99       32652.488      2.2000182     -41476.204     -19.201946      30.30191     
     20000   787.76733     -27110.635      32652.488      2.2000182     -41476.244     -19.201965      30.141322    
Loop time of 33.23 on 6 procs for 20000 steps with 2160 atoms

Performance: 52.001 ns/day, 0.462 hours/ns, 601.866 timesteps/s, 1.300 Matom-step/s
97.0% CPU use with 6 MPI tasks x 1 OpenMP threads

MPI task timing breakdown:
Section |  min time  |  avg time  |  max time  |%varavg| %total
---------------------------------------------------------------
Pair    | 19.575     | 22.505     | 24.709     |  32.8 | 67.73
Kspace  | 7.0755     | 9.2791     | 12.198     |  51.0 | 27.92
Neigh   | 0.22928    | 0.25403    | 0.26578    |   2.4 |  0.76
Comm    | 0.8957     | 0.92234    | 0.95465    |   2.2 |  2.78
Output  | 0.00077474 | 0.00084882 | 0.0012034  |   0.0 |  0.00
Modify  | 0.15816    | 0.16896    | 0.1774     |   1.7 |  0.51
Other   |            | 0.09967    |            |       |  0.30

Nlocal:            360 ave         371 max         338 min
Histogram: 1 0 0 0 0 1 0 1 2 1
Nghost:         4652.5 ave        4684 max        4606 min
Histogram: 1 1 0 0 0 0 0 2 0 2
Neighs:        86111.2 ave       95048 max       74489 min
Histogram: 1 0 0 0 0 3 0 1 0 1

Total # of neighbors = 516667
Ave neighs/atom = 239.19769
Neighbor list builds = 185
Dangerous builds = 0
PPPM initialization ...
  using 12-bit tables for long-range coulomb (src/kspace.cpp:342)
  G vector (1/distance) = 0.29696104
  grid = 24 24 27
  stencil order = 5
  estimated absolute RMS force accuracy = 0.0014110636
  estimated relative force accuracy = 9.7992942e-05
  using double precision FFTW3
  3d grid and FFT values/proc = 9424 2880
Generated 0 of 1 mixed pair_coeff terms from geometric mixing rule
WARNING: Compute rdf cutoff less than neighbor cutoff - forcing a needless neighbor list build (src/compute_rdf.cpp:179)
Setting up Verlet run ...
  Unit style    : metal
  Current step  : 0
  Time step     : 0.001
Per MPI rank memory allocation (min/avg/max) = 6.134 | 6.276 | 6.545 Mbytes
   Step          Temp          Press          Volume        Density         PotEng         v_epa        c_msd0[4]   
         0   787.76733     -27110.635      32652.488      2.2000182     -41476.244     -19.201965      30.141322    
       500   682.95887     -25636.549      32652.488      2.2000182     -41506.245     -19.215854      30.152567    
      1000   704.10842     -29237.143      32652.488      2.2000182     -41507.503     -19.216437      30.109328    
      1500   701.39236     -26792.971      32652.488      2.2000182     -41500.695     -19.213285      30.115083    
      2000   728.74316     -28609.724      32652.488      2.2000182     -41504.243     -19.214927      30.104665    
      2500   703.23838     -24976.167      32652.488      2.2000182     -41504.032     -19.21483       30.192895    
      3000   687.60431     -23962.626      32652.488      2.2000182     -41502.765     -19.214243      30.042842    
      3500   713.22787     -27192.012      32652.488      2.2000182     -41506.561     -19.216001      30.148679    
      4000   697.30705     -28465.988      32652.488      2.2000182     -41497.142     -19.21164       30.156616    
      4500   698.96828     -28160.64       32652.488      2.2000182     -41499.41      -19.21269       30.123945    
      5000   702.71471     -26102.777      32652.488      2.2000182     -41505.989     -19.215735      30.100495    
      5500   699.55471     -28911.691      32652.488      2.2000182     -41505.488     -19.215504      30.079707    
      6000   700.29648     -27533.628      32652.488      2.2000182     -41502.935     -19.214322      30.237689    
      6500   713.24143     -25121.95       32652.488      2.2000182     -41500.114     -19.213016      30.134209    
      7000   714.16333     -27333.753      32652.488      2.2000182     -41504.868     -19.215216      30.185998    
      7500   695.31992     -25516.529      32652.488      2.2000182     -41504.079     -19.214851      30.027837    
      8000   703.14745     -28570.144      32652.488      2.2000182     -41507.036     -19.21622       30.164239    
      8500   682.13464     -31618.878      32652.488      2.2000182     -41501.571     -19.21369       30.046635    
      9000   715.72695     -27290.572      32652.488      2.2000182     -41505.897     -19.215693      30.13136     
      9500   704.56611     -26578.65       32652.488      2.2000182     -41508.101     -19.216714      30.125494    
     10000   684.05225     -29716.596      32652.488      2.2000182     -41508.963     -19.217112      30.142117    
     10500   674.05052     -26874.753      32652.488      2.2000182     -41499.788     -19.212865      30.16085     
     11000   704.05986     -26646.348      32652.488      2.2000182     -41503.53      -19.214597      30.17845     
     11500   720.70246     -26181.082      32652.488      2.2000182     -41503.704     -19.214678      30.157601    
     12000   702.33063     -25560.504      32652.488      2.2000182     -41497.265     -19.211697      30.166097    
     12500   697.24957     -30446.734      32652.488      2.2000182     -41500.859     -19.213361      30.142521    
     13000   708.46491     -25462.157      32652.488      2.2000182     -41507.095     -19.216248      30.129551    
     13500   699.6713      -24867.558      32652.488      2.2000182     -41508.629     -19.216958      30.104355    
     14000   669.22032     -27974.444      32652.488      2.2000182     -41505.534     -19.215525      30.071087    
     14500   689.57766     -26759.657      32652.488      2.2000182     -41505.706     -19.215605      30.206209    
     15000   693.43564     -26543.065      32652.488      2.2000182     -41500.03      -19.212977      30.090028    
     15500   698.42103     -25047.832      32652.488      2.2000182     -41501.302     -19.213566      30.141208    
     16000   693.1363      -25684.384      32652.488      2.2000182     -41506.775     -19.2161        30.168504    
     16500   682.56407     -24107.539      32652.488      2.2000182     -41507.04      -19.216222      30.071555    
     17000   699.25936     -28645.075      32652.488      2.2000182     -41506.603     -19.21602       30.162499    
     17500   689.5672      -27859.667      32652.488      2.2000182     -41501.251     -19.213542      30.09123     
     18000   728.5376      -29532.016      32652.488      2.2000182     -41503.697     -19.214675      30.192376    
     18500   707.9488      -24840.395      32652.488      2.2000182     -41500.153     -19.213034      30.143537    
     19000   701.3498      -25410.658      32652.488      2.2000182     -41499.536     -19.212748      30.097926    
     19500   701.855       -21860.661      32652.488      2.2000182     -41503.946     -19.21479       30.142701    
     20000   696.35419     -26374.374      32652.488      2.2000182     -41505.736     -19.215619      30.132469    
Loop time of 33.3126 on 6 procs for 20000 steps with 2160 atoms

Performance: 51.872 ns/day, 0.463 hours/ns, 600.374 timesteps/s, 1.297 Matom-step/s
96.6% CPU use with 6 MPI tasks x 1 OpenMP threads

MPI task timing breakdown:
Section |  min time  |  avg time  |  max time  |%varavg| %total
---------------------------------------------------------------
Pair    | 19.656     | 22.505     | 24.924     |  33.4 | 67.56
Kspace  | 7.0122     | 9.4157     | 12.225     |  51.3 | 28.26
Neigh   | 0.18151    | 0.20107    | 0.21012    |   2.1 |  0.60
Comm    | 0.86639    | 0.92442    | 0.97624    |   3.8 |  2.77
Output  | 0.00078051 | 0.00085284 | 0.0012015  |   0.0 |  0.00
Modify  | 0.15272    | 0.16796    | 0.17603    |   2.0 |  0.50
Other   |            | 0.09763    |            |       |  0.29

Nlocal:            360 ave         367 max         342 min
Histogram: 1 0 0 0 0 0 0 2 1 2
Nghost:         4649.5 ave        4686 max        4621 min
Histogram: 2 1 0 0 0 0 0 2 0 1
Neighs:        86069.5 ave       94993 max       75516 min
Histogram: 1 0 0 0 1 2 1 0 0 1

Total # of neighbors = 516417
Ave neighs/atom = 239.08194
Neighbor list builds = 147
Dangerous builds = 0
PPPM initialization ...
  using 12-bit tables for long-range coulomb (src/kspace.cpp:342)
  G vector (1/distance) = 0.29696104
  grid = 24 24 27
  stencil order = 5
  estimated absolute RMS force accuracy = 0.0014110636
  estimated relative force accuracy = 9.7992942e-05
  using double precision FFTW3
  3d grid and FFT values/proc = 9424 2880
Generated 0 of 1 mixed pair_coeff terms from geometric mixing rule
WARNING: Compute rdf cutoff less than neighbor cutoff - forcing a needless neighbor list build (src/compute_rdf.cpp:179)
Setting up Verlet run ...
  Unit style    : metal
  Current step  : 0
  Time step     : 0.001
Per MPI rank memory allocation (min/avg/max) = 6.134 | 6.276 | 6.545 Mbytes
   Step          Temp          Press          Volume        Density         PotEng         v_epa        c_msd0[4]   
         0   696.35419     -26374.374      32652.488      2.2000182     -41505.736     -19.215619      30.132469    
       500   584.24163     -27736.096      32652.488      2.2000182     -41535.191     -19.229255      30.045673    
      1000   603.54415     -28521.926      32652.488      2.2000182     -41533.356     -19.228406      30.137037    
      1500   600.40611     -27971.744      32652.488      2.2000182     -41528.099     -19.225972      29.995319    
      2000   601.05476     -26163.99       32652.488      2.2000182     -41529.206     -19.226484      30.117099    
      2500   604.45956     -27219.288      32652.488      2.2000182     -41532.934     -19.22821       30.101897    
      3000   592.95131     -28229.818      32652.488      2.2000182     -41536.642     -19.229927      30.046132    
      3500   611.41761     -28505.411      32652.488      2.2000182     -41535.293     -19.229302      30.142473    
      4000   607.50914     -26748.172      32652.488      2.2000182     -41531.286     -19.227447      30.182224    
      4500   604.99806     -26914.902      32652.488      2.2000182     -41533.711     -19.22857       30.127824    
      5000   610.82666     -30045.538      32652.488      2.2000182     -41530.312     -19.226996      30.090755    
      5500   601.82446     -29491.307      32652.488      2.2000182     -41531.447     -19.227522      30.219682    
      6000   588.6773      -30792.471      32652.488      2.2000182     -41533.08      -19.228278      30.140773    
      6500   585.199       -28392.921      32652.488      2.2000182     -41534.417     -19.228897      30.112189    
      7000   592.00522     -28181.418      32652.488      2.2000182     -41534.733     -19.229043      30.182318    
      7500   597.07262     -25398.357      32652.488      2.2000182     -41532.286     -19.22791       30.181195    
      8000   612.79119     -25785.405      32652.488      2.2000182     -41531.338     -19.227471      30.069942    
      8500   616.31001     -26300.463      32652.488      2.2000182     -41526.833     -19.225386      30.228456    
      9000   614.19341     -26761.446      32652.488      2.2000182     -41537.123     -19.230149      30.097784    
      9500   591.30262     -26195.394      32652.488      2.2000182     -41531.76      -19.227667      30.178687    
     10000   589.12215     -27321.324      32652.488      2.2000182     -41530.681     -19.227167      30.100456    
     10500   595.11704     -23835.184      32652.488      2.2000182     -41526.398     -19.225184      30.150552    
     11000   612.79213     -27255.612      32652.488      2.2000182     -41531.093     -19.227358      30.137309    
     11500   591.72668     -28803.575      32652.488      2.2000182     -41537.203     -19.230186      30.150842    
     12000   592.85018     -31143.08       32652.488      2.2000182     -41533.018     -19.228249      30.15637     
     12500   594.39169     -26010.302      32652.488      2.2000182     -41529.899     -19.226805      30.15425     
     13000   592.00786     -26105.089      32652.488      2.2000182     -41535.369     -19.229338      30.122298    
     13500   598.05021     -23831.016      32652.488      2.2000182     -41533.298     -19.228379      30.09308     
     14000   601.02761     -27634.119      32652.488      2.2000182     -41532.593     -19.228052      30.149758    
     14500   584.86355     -25946.011      32652.488      2.2000182     -41528.255     -19.226044      30.024364    
     15000   583.68693     -25467.404      32652.488      2.2000182     -41532.228     -19.227883      30.114641    
     15500   603.46047     -28203.743      32652.488      2.2000182     -41534.544     -19.228956      30.053387    
     16000   601.37916     -26763.09       32652.488      2.2000182     -41527.294     -19.225599      30.129912    
     16500   608.41034     -28105.74       32652.488      2.2000182     -41533.828     -19.228624      30.110246    
     17000   591.83641     -26365.785      32652.488      2.2000182     -41532.918     -19.228203      30.111963    
     17500   609.09275     -30406.817      32652.488      2.2000182     -41532.739     -19.22812       30.120075    
     18000   615.9506      -25019.401      32652.488      2.2000182     -41531.699     -19.227638      30.091048    
     18500   604.40003     -29033.958      32652.488      2.2000182     -41534.308     -19.228846      30.156641    
     19000   586.06914     -25992.046      32652.488      2.2000182     -41535.272     -19.229292      30.147325    
     19500   602.54186     -26167.575      32652.488      2.2000182     -41532.278     -19.227906      30.082867    
     20000   600.06397     -25903.999      32652.488      2.2000182     -41529.679     -19.226703      30.142138    
Loop time of 33.1883 on 6 procs for 20000 steps with 2160 atoms

Performance: 52.067 ns/day, 0.461 hours/ns, 602.622 timesteps/s, 1.302 Matom-step/s
96.7% CPU use with 6 MPI tasks x 1 OpenMP threads

MPI task timing breakdown:
Section |  min time  |  avg time  |  max time  |%varavg| %total
---------------------------------------------------------------
Pair    | 19.684     | 22.497     | 24.889     |  32.7 | 67.79
Kspace  | 6.9904     | 9.3804     | 12.179     |  50.6 | 28.26
Neigh   | 0.12887    | 0.14224    | 0.14865    |   1.7 |  0.43
Comm    | 0.87009    | 0.90571    | 0.92731    |   2.1 |  2.73
Output  | 0.00078264 | 0.00085657 | 0.0012121  |   0.0 |  0.00
Modify  | 0.15396    | 0.16353    | 0.1694     |   1.7 |  0.49
Other   |            | 0.09869    |            |       |  0.30

Nlocal:            360 ave         368 max         342 min
Histogram: 1 0 0 0 0 0 1 0 2 2
Nghost:         4680.5 ave        4716 max        4649 min
Histogram: 1 1 0 1 0 1 0 0 1 1
Neighs:        86097.3 ave       94114 max       75473 min
Histogram: 1 0 0 0 1 1 1 1 0 1

Total # of neighbors = 516584
Ave neighs/atom = 239.15926
Neighbor list builds = 104
Dangerous builds = 0
PPPM initialization ...
  using 12-bit tables for long-range coulomb (src/kspace.cpp:342)
  G vector (1/distance) = 0.29696104
  grid = 24 24 27
  stencil order = 5
  estimated absolute RMS force accuracy = 0.0014110636
  estimated relative force accuracy = 9.7992942e-05
  using double precision FFTW3
  3d grid and FFT values/proc = 9424 2880
Generated 0 of 1 mixed pair_coeff terms from geometric mixing rule
WARNING: Compute rdf cutoff less than neighbor cutoff - forcing a needless neighbor list build (src/compute_rdf.cpp:179)
Setting up Verlet run ...
  Unit style    : metal
  Current step  : 0
  Time step     : 0.001
Per MPI rank memory allocation (min/avg/max) = 6.134 | 6.276 | 6.545 Mbytes
   Step          Temp          Press          Volume        Density         PotEng         v_epa        c_msd0[4]   
         0   600.06397     -25903.999      32652.488      2.2000182     -41529.679     -19.226703      30.142138    
       500   481.31685     -28111.111      32652.488      2.2000182     -41563.144     -19.242196      30.052927    
      1000   497.86433     -27611.675      32652.488      2.2000182     -41560.015     -19.240748      30.178252    
      1500   500.40087     -26930.793      32652.488      2.2000182     -41556.882     -19.239297      30.121505    
      2000   516.32498     -28290.164      32652.488      2.2000182     -41559.87      -19.24068       30.064921    
      2500   494.48239     -23930.304      32652.488      2.2000182     -41560.19      -19.240829      30.089313    
      3000   510.4168      -28603.15       32652.488      2.2000182     -41565.492     -19.243283      30.180678    
      3500   505.45321     -29050.952      32652.488      2.2000182     -41562.418     -19.24186       30.077954    
      4000   511.78811     -28566.992      32652.488      2.2000182     -41556.867     -19.23929       30.126057    
      4500   497.48283     -28728.352      32652.488      2.2000182     -41558.415     -19.240007      30.126161    
      5000   480.6141      -27599.835      32652.488      2.2000182     -41558.969     -19.240263      30.086238    
      5500   487.9228      -25182.619      32652.488      2.2000182     -41561.114     -19.241256      30.113292    
      6000   500.21817     -26906.048      32652.488      2.2000182     -41557.986     -19.239809      30.069794    
      6500   498.25653     -24540.552      32652.488      2.2000182     -41560.731     -19.241079      30.110132    
      7000   492.38524     -27522.335      32652.488      2.2000182     -41559.283     -19.240409      30.038249    
      7500   511.12101     -28581.213      32652.488      2.2000182     -41559.353     -19.240441      30.086214    
      8000   507.18793     -24415.661      32652.488      2.2000182     -41562.145     -19.241734      30.12464     
      8500   478.58556     -26360.071      32652.488      2.2000182     -41563.24      -19.242241      30.133058    
      9000   501.45918     -27846.844      32652.488      2.2000182     -41562.401     -19.241852      30.119384    
      9500   508.97822     -28071.343      32652.488      2.2000182     -41561.167     -19.241281      30.165918    
     10000   490.87918     -31356.956      32652.488      2.2000182     -41560.753     -19.241089      30.148167    
     10500   481.99118     -29119.616      32652.488      2.2000182     -41561.937     -19.241637      30.15897     
     11000   492.24848     -28429.828      32652.488      2.2000182     -41561.228     -19.241309      30.138337    
     11500   503.64675     -26206.948      32652.488      2.2000182     -41560.134     -19.240803      30.125677    
     12000   503.14303     -30750.544      32652.488      2.2000182     -41559.582     -19.240547      30.168034    
     12500   504.05374     -28042.547      32652.488      2.2000182     -41565.085     -19.243095      30.216817    
     13000   492.82575     -25551.228      32652.488      2.2000182     -41561.888     -19.241615      30.127043    
     13500   506.02719     -26259          32652.488      2.2000182     -41563.954     -19.242572      30.108878    
     14000   511.53656     -31429.322      32652.488      2.2000182     -41562.399     -19.241851      30.062179    
     14500   499.35163     -26760.044      32652.488      2.2000182     -41562.414     -19.241858      30.123713    
     15000   493.01602     -28770.47       32652.488      2.2000182     -41564.501     -19.242824      30.121534    
     15500   496.12262     -28313.469      32652.488      2.2000182     -41562.155     -19.241738      30.078576    
     16000   512.45537     -28572.242      32652.488      2.2000182     -41562.358     -19.241833      30.143189    
     16500   489.79477     -28960.38       32652.488      2.2000182     -41560.007     -19.240744      30.114978    
     17000   508.51013     -27491.488      32652.488      2.2000182     -41557.417     -19.239545      30.14406     
     17500   503.33867     -29649.866      32652.488      2.2000182     -41558.043     -19.239835      30.148039    
     18000   506.87349     -28429.624      32652.488      2.2000182     -41564.792     -19.242959      30.160338    
     18500   510.12508     -27367.491      32652.488      2.2000182     -41561.61      -19.241486      30.097723    
     19000   510.98708     -27807.602      32652.488      2.2000182     -41557.529     -19.239597      30.040524    
     19500   498.66105     -26778.283      32652.488      2.2000182     -41558.9       -19.240231      30.179972    
     20000   504.66155     -27201.166      32652.488      2.2000182     -41564.287     -19.242725      30.182201    
Loop time of 32.8678 on 6 procs for 20000 steps with 2160 atoms

Performance: 52.574 ns/day, 0.456 hours/ns, 608.498 timesteps/s, 1.314 Matom-step/s
96.9% CPU use with 6 MPI tasks x 1 OpenMP threads

MPI task timing breakdown:
Section |  min time  |  avg time  |  max time  |%varavg| %total
---------------------------------------------------------------
Pair    | 19.531     | 22.484     | 24.662     |  32.9 | 68.41
Kspace  | 7.0318     | 9.1973     | 12.095     |  50.9 | 27.98
Neigh   | 0.032186   | 0.035628   | 0.037299   |   0.9 |  0.11
Comm    | 0.84951    | 0.8926     | 0.94699    |   3.1 |  2.72
Output  | 0.00078418 | 0.0014875  | 0.0049927  |   4.1 |  0.00
Modify  | 0.14642    | 0.15555    | 0.16123    |   1.4 |  0.47
Other   |            | 0.101      |            |       |  0.31

Nlocal:            360 ave         370 max         342 min
Histogram: 1 0 0 0 0 0 3 0 1 1
Nghost:        4671.67 ave        4719 max        4639 min
Histogram: 2 1 0 0 0 1 1 0 0 1
Neighs:        86087.8 ave       95546 max       75358 min
Histogram: 1 0 0 0 1 2 1 0 0 1

Total # of neighbors = 516527
Ave neighs/atom = 239.13287
Neighbor list builds = 26
Dangerous builds = 0
PPPM initialization ...
  using 12-bit tables for long-range coulomb (src/kspace.cpp:342)
  G vector (1/distance) = 0.29696104
  grid = 24 24 27
  stencil order = 5
  estimated absolute RMS force accuracy = 0.0014110636
  estimated relative force accuracy = 9.7992942e-05
  using double precision FFTW3
  3d grid and FFT values/proc = 9424 2880
Generated 0 of 1 mixed pair_coeff terms from geometric mixing rule
WARNING: Compute rdf cutoff less than neighbor cutoff - forcing a needless neighbor list build (src/compute_rdf.cpp:179)
Setting up Verlet run ...
  Unit style    : metal
  Current step  : 0
  Time step     : 0.001
Per MPI rank memory allocation (min/avg/max) = 6.134 | 6.276 | 6.545 Mbytes
   Step          Temp          Press          Volume        Density         PotEng         v_epa        c_msd0[4]   
         0   504.66155     -27201.166      32652.488      2.2000182     -41564.287     -19.242725      30.182201    
       500   392.46562     -28167.753      32652.488      2.2000182     -41592.62      -19.255843      30.10898     
      1000   397.9956      -27447.817      32652.488      2.2000182     -41587.241     -19.253352      30.089411    
      1500   405.22053     -30576.121      32652.488      2.2000182     -41587.081     -19.253278      30.054636    
      2000   407.72485     -26426.201      32652.488      2.2000182     -41590.244     -19.254742      30.134679    
      2500   407.37644     -27793.824      32652.488      2.2000182     -41591.809     -19.255467      30.067102    
      3000   407.27522     -30098.604      32652.488      2.2000182     -41591.87      -19.255496      30.106621    
      3500   406.66203     -27223.274      32652.488      2.2000182     -41589.425     -19.254364      30.1193      
      4000   410.04388     -28384.88       32652.488      2.2000182     -41591.635     -19.255386      30.127627    
      4500   393.56395     -28568.832      32652.488      2.2000182     -41588.823     -19.254085      30.05191     
      5000   402.95112     -27343.242      32652.488      2.2000182     -41593.626     -19.256308      30.105413    
      5500   391.6385      -28079.117      32652.488      2.2000182     -41587.885     -19.25365       30.024753    
      6000   406.8298      -27100.386      32652.488      2.2000182     -41587.718     -19.253573      30.131799    
      6500   403.38603     -29180.532      32652.488      2.2000182     -41585.494     -19.252544      30.08944     
      7000   400.56445     -28531.065      32652.488      2.2000182     -41589.484     -19.254391      30.206936    
      7500   392.38731     -27449.269      32652.488      2.2000182     -41588.337     -19.25386       30.034296    
      8000   405.2442      -27020.631      32652.488      2.2000182     -41588.677     -19.254017      30.079369    
      8500   410.14681     -30705.316      32652.488      2.2000182     -41587.002     -19.253242      30.111622    
      9000   401.6822      -26317.594      32652.488      2.2000182     -41587.363     -19.253409      30.109944    
      9500   388.89201     -28833.318      32652.488      2.2000182     -41587.593     -19.253515      30.136634    
     10000   401.85179     -27552.532      32652.488      2.2000182     -41593.254     -19.256136      30.107138    
     10500   400.75653     -27691.18       32652.488      2.2000182     -41589.127     -19.254225      30.149112    
     11000   414.27188     -28658.696      32652.488      2.2000182     -41591.569     -19.255356      30.123519    
     11500   404.501       -28088.624      32652.488      2.2000182     -41588.223     -19.253807      30.152968    
     12000   400.56696     -23730.978      32652.488      2.2000182     -41590.111     -19.254681      30.054176    
     12500   394.06397     -26431.107      32652.488      2.2000182     -41588.298     -19.253842      30.08182     
     13000   387.57796     -25494.417      32652.488      2.2000182     -41587.947     -19.253679      30.077899    
     13500   399.64953     -29565.224      32652.488      2.2000182     -41588.827     -19.254087      30.157785    
     14000   415.85882     -26684.975      32652.488      2.2000182     -41590.058     -19.254657      30.057315    
     14500   393.80151     -29224.5        32652.488      2.2000182     -41587.912     -19.253663      30.169214    
     15000   406.64444     -26807.854      32652.488      2.2000182     -41589.043     -19.254186      30.021079    
     15500   406.17295     -24313.233      32652.488      2.2000182     -41583.802     -19.25176       30.138619    
     16000   396.64537     -26777.221      32652.488      2.2000182     -41590.27      -19.254755      30.130997    
     16500   400.5341      -27680.995      32652.488      2.2000182     -41591.913     -19.255515      30.153842    
     17000   394.34303     -28159.712      32652.488      2.2000182     -41588.342     -19.253862      30.086833    
     17500   414.53904     -26600.639      32652.488      2.2000182     -41589.577     -19.254434      30.121375    
     18000   409.34258     -27678.236      32652.488      2.2000182     -41587.385     -19.253419      30.092919    
     18500   409.69823     -25537.169      32652.488      2.2000182     -41590.458     -19.254842      30.114883    
     19000   394.73843     -27465.346      32652.488      2.2000182     -41589.664     -19.254474      30.075546    
     19500   392.87947     -29121.143      32652.488      2.2000182     -41591.114     -19.255146      30.116247    
     20000   393.98761     -27873.739      32652.488      2.2000182     -41588.348     -19.253865      30.069216    
Loop time of 33.0402 on 6 procs for 20000 steps with 2160 atoms

Performance: 52.300 ns/day, 0.459 hours/ns, 605.323 timesteps/s, 1.307 Matom-step/s
96.7% CPU use with 6 MPI tasks x 1 OpenMP threads

MPI task timing breakdown:
Section |  min time  |  avg time  |  max time  |%varavg| %total
---------------------------------------------------------------
Pair    | 19.709     | 22.543     | 24.908     |  33.4 | 68.23
Kspace  | 6.9981     | 9.3376     | 12.136     |  51.4 | 28.26
Neigh   | 0.0099445  | 0.010995   | 0.011494   |   0.5 |  0.03
Comm    | 0.85145    | 0.89021    | 0.91813    |   2.8 |  2.69
Output  | 0.00077745 | 0.00084977 | 0.0011941  |   0.0 |  0.00
Modify  | 0.14417    | 0.15696    | 0.16443    |   1.9 |  0.48
Other   |            | 0.1001     |            |       |  0.30

Nlocal:            360 ave         371 max         345 min
Histogram: 1 0 0 0 0 2 2 0 0 1
Nghost:        4669.83 ave        4706 max        4625 min
Histogram: 1 0 1 0 1 0 0 1 1 1
Neighs:        86077.5 ave       93399 max       76011 min
Histogram: 1 0 0 0 0 2 1 1 0 1

Total # of neighbors = 516465
Ave neighs/atom = 239.10417
Neighbor list builds = 8
Dangerous builds = 0
PPPM initialization ...
  using 12-bit tables for long-range coulomb (src/kspace.cpp:342)
  G vector (1/distance) = 0.29696104
  grid = 24 24 27
  stencil order = 5
  estimated absolute RMS force accuracy = 0.0014110636
  estimated relative force accuracy = 9.7992942e-05
  using double precision FFTW3
  3d grid and FFT values/proc = 9424 2880
Generated 0 of 1 mixed pair_coeff terms from geometric mixing rule
WARNING: Compute rdf cutoff less than neighbor cutoff - forcing a needless neighbor list build (src/compute_rdf.cpp:179)
Setting up Verlet run ...
  Unit style    : metal
  Current step  : 0
  Time step     : 0.001
Per MPI rank memory allocation (min/avg/max) = 6.134 | 6.276 | 6.545 Mbytes
   Step          Temp          Press          Volume        Density         PotEng         v_epa        c_msd0[4]   
         0   393.98761     -27873.739      32652.488      2.2000182     -41588.348     -19.253865      30.069216    
       500   300.94295     -27770.456      32652.488      2.2000182     -41621.717     -19.269313      30.113777    
      1000   301.04796     -28436.36       32652.488      2.2000182     -41615.336     -19.266359      30.100343    
      1500   310.20894     -28057.323      32652.488      2.2000182     -41617.975     -19.267581      30.117811    
      2000   300.88091     -27745.823      32652.488      2.2000182     -41618.539     -19.267842      30.113722    
      2500   300.64049     -27587.67       32652.488      2.2000182     -41620.33      -19.268671      30.028395    
      3000   297.34573     -28030.601      32652.488      2.2000182     -41617.776     -19.267489      30.103392    
      3500   300.88155     -30207.644      32652.488      2.2000182     -41615.745     -19.266549      30.083897    
      4000   301.07422     -28741.506      32652.488      2.2000182     -41615.82      -19.266583      30.113737    
      4500   303.60109     -25098.833      32652.488      2.2000182     -41618.755     -19.267942      30.104736    
      5000   298.00004     -28314.895      32652.488      2.2000182     -41617.247     -19.267244      30.11095     
      5500   312.01545     -27236.523      32652.488      2.2000182     -41618.821     -19.267973      30.083228    
      6000   298.63851     -27958.017      32652.488      2.2000182     -41616.898     -19.267083      30.116667    
      6500   301.19065     -28769.847      32652.488      2.2000182     -41618.849     -19.267986      29.993774    
      7000   302.12708     -28089.973      32652.488      2.2000182     -41618.799     -19.267963      30.080408    
      7500   300.93497     -29126.224      32652.488      2.2000182     -41617.257     -19.267249      30.059018    
      8000   304.92068     -27304.582      32652.488      2.2000182     -41614.893     -19.266154      30.127974    
      8500   302.61826     -27263.906      32652.488      2.2000182     -41616.151     -19.266737      30.072956    
      9000   301.77919     -28376.777      32652.488      2.2000182     -41616.937     -19.267101      30.092834    
      9500   292.24496     -26747.065      32652.488      2.2000182     -41617.056     -19.267156      30.087242    
     10000   299.92741     -27976.101      32652.488      2.2000182     -41615.95      -19.266644      30.083317    
     10500   302.86014     -26599.06       32652.488      2.2000182     -41617.268     -19.267254      30.093159    
     11000   303.49024     -28102.684      32652.488      2.2000182     -41617.82      -19.267509      30.083683    
     11500   290.80203     -27260.089      32652.488      2.2000182     -41620.701     -19.268843      30.126972    
     12000   307.64085     -29454.167      32652.488      2.2000182     -41618.541     -19.267843      30.082854    
     12500   308.55545     -25837.769      32652.488      2.2000182     -41619.043     -19.268075      30.054106    
     13000   294.35802     -27926.429      32652.488      2.2000182     -41618.401     -19.267778      30.116072    
     13500   295.39622     -27770.504      32652.488      2.2000182     -41619.506     -19.26829       30.112089    
     14000   302.8349      -28540.492      32652.488      2.2000182     -41619.55      -19.26831       30.058087    
     14500   302.84961     -29211.482      32652.488      2.2000182     -41616.39      -19.266847      30.075035    
     15000   307.76738     -27930.826      32652.488      2.2000182     -41617.843     -19.26752       30.071546    
     15500   304.75525     -27716.951      32652.488      2.2000182     -41618.117     -19.267647      30.10302     
     16000   287.09368     -30666.682      32652.488      2.2000182     -41620.257     -19.268637      30.119111    
     16500   308.30986     -28823.417      32652.488      2.2000182     -41617.743     -19.267473      30.141439    
     17000   302.76677     -29683.138      32652.488      2.2000182     -41617.216     -19.267229      30.107034    
     17500   291.0409      -25908.379      32652.488      2.2000182     -41619.041     -19.268075      30.093177    
     18000   298.08182     -27431.713      32652.488      2.2000182     -41619.674     -19.268367      30.031607    
     18500   297.22921     -27455.154      32652.488      2.2000182     -41615.253     -19.266321      30.159949    
     19000   295.10006     -28578.159      32652.488      2.2000182     -41615.113     -19.266256      30.096454    
     19500   287.84023     -26968.181      32652.488      2.2000182     -41619.292     -19.268191      30.082172    
     20000   295.41088     -28549.834      32652.488      2.2000182     -41619.109     -19.268106      30.071366    
Loop time of 32.8161 on 6 procs for 20000 steps with 2160 atoms

Performance: 52.657 ns/day, 0.456 hours/ns, 609.457 timesteps/s, 1.316 Matom-step/s
96.7% CPU use with 6 MPI tasks x 1 OpenMP threads

MPI task timing breakdown:
Section |  min time  |  avg time  |  max time  |%varavg| %total
---------------------------------------------------------------
Pair    | 19.468     | 22.454     | 24.646     |  33.2 | 68.42
Kspace  | 7.0227     | 9.2015     | 12.137     |  51.4 | 28.04
Neigh   | 0          | 0          | 0          |   0.0 |  0.00
Comm    | 0.86532    | 0.90325    | 0.95485    |   3.0 |  2.75
Output  | 0.00075833 | 0.0008271  | 0.0011619  |   0.0 |  0.00
Modify  | 0.15315    | 0.16226    | 0.17497    |   2.2 |  0.49
Other   |            | 0.09409    |            |       |  0.29

Nlocal:            360 ave         371 max         341 min
Histogram: 1 0 0 0 0 0 1 3 0 1
Nghost:        4656.17 ave        4686 max        4617 min
Histogram: 1 0 0 2 0 0 0 0 2 1
Neighs:        86065.2 ave       93920 max       74700 min
Histogram: 1 0 0 0 0 2 1 1 0 1

Total # of neighbors = 516391
Ave neighs/atom = 239.06991
Neighbor list builds = 0
Dangerous builds = 0
=========== BKS EQUIL 300 K (NVT, 5 ps) ===========
PPPM initialization ...
  using 12-bit tables for long-range coulomb (src/kspace.cpp:342)
  G vector (1/distance) = 0.29696104
  grid = 24 24 27
  stencil order = 5
  estimated absolute RMS force accuracy = 0.0014110636
  estimated relative force accuracy = 9.7992942e-05
  using double precision FFTW3
  3d grid and FFT values/proc = 9424 2880
Generated 0 of 1 mixed pair_coeff terms from geometric mixing rule
WARNING: Compute rdf cutoff less than neighbor cutoff - forcing a needless neighbor list build (src/compute_rdf.cpp:179)
Setting up Verlet run ...
  Unit style    : metal
  Current step  : 0
  Time step     : 0.001
Per MPI rank memory allocation (min/avg/max) = 6.134 | 6.276 | 6.545 Mbytes
   Step          Temp          Press          Volume        Density         PotEng         v_epa        c_msd0[4]   
         0   295.41088     -28549.834      32652.488      2.2000182     -41619.109     -19.268106      30.071366    
       500   300.24763     -27786.648      32652.488      2.2000182     -41617.625     -19.267419      30.090643    
      1000   301.34322     -28045.952      32652.488      2.2000182     -41616.889     -19.267078      30.10444     
      1500   290.94368     -27532.742      32652.488      2.2000182     -41621.785     -19.269345      30.128348    
      2000   304.71753     -27933.232      32652.488      2.2000182     -41618.181     -19.267676      30.06213     
      2500   299.0162      -28630.473      32652.488      2.2000182     -41615.723     -19.266539      30.057121    
      3000   302.40523     -28362.507      32652.488      2.2000182     -41615.059     -19.266231      30.110538    
      3500   303.89475     -25893.75       32652.488      2.2000182     -41617.773     -19.267487      30.090372    
      4000   301.61866     -27074.656      32652.488      2.2000182     -41619.297     -19.268193      30.114371    
      4500   305.64017     -27109.55       32652.488      2.2000182     -41619.288     -19.268189      30.034117    
      5000   306.67411     -27643.506      32652.488      2.2000182     -41617.73      -19.267468      30.13231     
Loop time of 8.15268 on 6 procs for 5000 steps with 2160 atoms

Performance: 52.989 ns/day, 0.453 hours/ns, 613.295 timesteps/s, 1.325 Matom-step/s
96.9% CPU use with 6 MPI tasks x 1 OpenMP threads

MPI task timing breakdown:
Section |  min time  |  avg time  |  max time  |%varavg| %total
---------------------------------------------------------------
Pair    | 4.8924     | 5.5776     | 6.1199     |  15.9 | 68.41
Kspace  | 1.747      | 2.2839     | 2.9534     |  24.5 | 28.01
Neigh   | 0          | 0          | 0          |   0.0 |  0.00
Comm    | 0.21204    | 0.22756    | 0.24172    |   2.1 |  2.79
Output  | 0.00037611 | 0.00039486 | 0.00048036 |   0.0 |  0.00
Modify  | 0.03657    | 0.039211   | 0.041153   |   1.0 |  0.48
Other   |            | 0.02407    |            |       |  0.30

Nlocal:            360 ave         371 max         341 min
Histogram: 1 0 0 0 0 0 1 3 0 1
Nghost:        4664.83 ave        4700 max        4623 min
Histogram: 1 0 1 1 0 0 0 1 1 1
Neighs:        86117.2 ave       94033 max       75483 min
Histogram: 1 0 0 0 0 3 0 1 0 1

Total # of neighbors = 516703
Ave neighs/atom = 239.21435
Neighbor list builds = 0
Dangerous builds = 0
System init for write_data ...
PPPM initialization ...
  using 12-bit tables for long-range coulomb (src/kspace.cpp:342)
  G vector (1/distance) = 0.29696104
  grid = 24 24 27
  stencil order = 5
  estimated absolute RMS force accuracy = 0.0014110636
  estimated relative force accuracy = 9.7992942e-05
  using double precision FFTW3
  3d grid and FFT values/proc = 9424 2880
Generated 0 of 1 mixed pair_coeff terms from geometric mixing rule
WARNING: Compute rdf cutoff less than neighbor cutoff - forcing a needless neighbor list build (src/compute_rdf.cpp:179)
=========== BKS PROD 300 K (NVT, 5 ps, RDF + traj) ===========
PPPM initialization ...
  using 12-bit tables for long-range coulomb (src/kspace.cpp:342)
  G vector (1/distance) = 0.29696104
  grid = 24 24 27
  stencil order = 5
  estimated absolute RMS force accuracy = 0.0014110636
  estimated relative force accuracy = 9.7992942e-05
  using double precision FFTW3
  3d grid and FFT values/proc = 9424 2880
Generated 0 of 1 mixed pair_coeff terms from geometric mixing rule
WARNING: Compute rdf cutoff less than neighbor cutoff - forcing a needless neighbor list build (src/compute_rdf.cpp:179)
Setting up Verlet run ...
  Unit style    : metal
  Current step  : 0
  Time step     : 0.001
Per MPI rank memory allocation (min/avg/max) = 6.15 | 6.291 | 6.561 Mbytes
   Step          Temp          Press          Volume        Density         PotEng         v_epa        c_msd0[4]   
         0   306.67411     -27643.506      32652.488      2.2000182     -41617.73      -19.267468      30.13231     
       500   302.96287     -26408.219      32652.488      2.2000182     -41617.153     -19.2672        30.055601    
      1000   293.01671     -27360.491      32652.488      2.2000182     -41619.825     -19.268438      30.069374    
      1500   292.12547     -29453.32       32652.488      2.2000182     -41618.324     -19.267743      30.090558    
      2000   300.68802     -26861.417      32652.488      2.2000182     -41617.875     -19.267535      30.097206    
      2500   309.61318     -28508.003      32652.488      2.2000182     -41619.52      -19.268296      30.079845    
      3000   301.19555     -30615.872      32652.488      2.2000182     -41620.579     -19.268787      30.172299    
      3500   299.461       -28540.708      32652.488      2.2000182     -41617.849     -19.267523      30.149772    
      4000   302.63554     -27504.685      32652.488      2.2000182     -41617.326     -19.267281      30.148743    
      4500   288.6097      -28362.441      32652.488      2.2000182     -41618.821     -19.267973      30.11351     
      5000   295.53373     -27090.576      32652.488      2.2000182     -41619.744     -19.2684        30.154421    
Loop time of 8.63901 on 6 procs for 5000 steps with 2160 atoms

Performance: 50.006 ns/day, 0.480 hours/ns, 578.770 timesteps/s, 1.250 Matom-step/s
97.0% CPU use with 6 MPI tasks x 1 OpenMP threads

MPI task timing breakdown:
Section |  min time  |  avg time  |  max time  |%varavg| %total
---------------------------------------------------------------
Pair    | 4.9146     | 5.6109     | 6.1848     |  16.0 | 64.95
Kspace  | 1.7639     | 2.3366     | 3.0219     |  24.6 | 27.05
Neigh   | 0.0012516  | 0.0013793  | 0.0014298  |   0.2 |  0.02
Comm    | 0.22178    | 0.23027    | 0.24023    |   1.3 |  2.67
Output  | 0.069249   | 0.073843   | 0.078366   |   1.2 |  0.85
Modify  | 0.35483    | 0.35615    | 0.35793    |   0.2 |  4.12
Other   |            | 0.0299     |            |       |  0.35

Nlocal:            360 ave         367 max         343 min
Histogram: 1 0 0 0 0 0 0 2 2 1
Nghost:        4664.83 ave        4697 max        4623 min
Histogram: 1 0 1 0 1 0 0 0 2 1
Neighs:        86101.5 ave       94104 max       75837 min
Histogram: 1 0 0 0 1 2 0 1 0 1

Total # of neighbors = 516609
Ave neighs/atom = 239.17083
Neighbor list builds = 1
Dangerous builds = 0
System init for write_data ...
PPPM initialization ...
  using 12-bit tables for long-range coulomb (src/kspace.cpp:342)
  G vector (1/distance) = 0.29696104
  grid = 24 24 27
  stencil order = 5
  estimated absolute RMS force accuracy = 0.0014110636
  estimated relative force accuracy = 9.7992942e-05
  using double precision FFTW3
  3d grid and FFT values/proc = 9424 2880
Generated 0 of 1 mixed pair_coeff terms from geometric mixing rule
WARNING: Compute rdf cutoff less than neighbor cutoff - forcing a needless neighbor list build (src/compute_rdf.cpp:179)
=========== DONE 5e12 ===========
Total wall time: 0:22:32
