LAMMPS (2 Aug 2023 - Update 3)
  using 1 OpenMP thread(s) per MPI task
Reading data file ...
  orthogonal box = (-0.13095199 -0.13140962 -0.15165528) to (30.269865 30.375648 35.055481)
  1 by 2 by 3 MPI processor grid
  reading atoms ...
  2160 atoms
  reading velocities ...
  2160 velocities
  read_data CPU = 0.018 seconds
PPPM initialization ...
  using 12-bit tables for long-range coulomb (src/kspace.cpp:342)
  G vector (1/distance) = 0.29696104
  grid = 24 24 27
  stencil order = 5
  estimated absolute RMS force accuracy = 0.0014110636
  estimated relative force accuracy = 9.7992942e-05
  using double precision FFTW3
  3d grid and FFT values/proc = 9424 2880
Generated 0 of 1 mixed pair_coeff terms from geometric mixing rule
Neighbor list info ...
  update: every = 1 steps, delay = 0 steps, check = yes
  max neighbors/atom: 2000, page size: 100000
  master list distance cutoff = 12
  ghost atom cutoff = 12
  binsize = 6, bins = 6 6 6
  2 neighbor lists, perpetual/occasional/extra = 2 0 0
  (1) pair buck/coul/long, perpetual
      attributes: half, newton on
      pair build: half/bin/atomonly/newton
      stencil: half/bin/3d
      bin: standard
  (2) pair lj/cut, perpetual, trim from (1)
      attributes: half, newton on, cut 3.5
      pair build: trim
      stencil: none
      bin: none
Setting up Verlet run ...
  Unit style    : metal
  Current step  : 0
  Time step     : 0.001
Per MPI rank memory allocation (min/avg/max) = 5.13 | 5.145 | 5.161 Mbytes
   Step          Temp          Press          Volume        Density         PotEng         v_epa     
         0   300           -24618.753      32652.488      2.2000182     -41674.535     -19.293766    
      1000   293.94114      1484.4109      30661.832      2.3428499     -41691.38      -19.301565    
      2000   303.98207     -956.98082      30692.604      2.340501      -41691.303     -19.301529    
      3000   297.63226      184.63739      30701.492      2.3398234     -41694.28      -19.302907    
      4000   303.12531     -1701.501       30633.249      2.3450359     -41688.839     -19.300388    
      5000   297.34079     -150.26928      30681.614      2.3413393     -41692.269     -19.301977    
      6000   302.62555     -432.21399      30696.17       2.340229      -41692.981     -19.302306    
      7000   303.46727      3309.3467      30601.201      2.3474918     -41690.777     -19.301286    
      8000   298.58241     -519.9847       30802.465      2.3321533     -41691.032     -19.301404    
      9000   309.50098      846.16924      30680.971      2.3413884     -41688.436     -19.300202    
     10000   293.02267     -2473.4586      30756.946      2.3356047     -41689.294     -19.300599    
     11000   311.00101      23.888797      30746.115      2.3364275     -41688.421     -19.300195    
     12000   302.81747      1998.8518      30710.183      2.3391612     -41692.115     -19.301905    
     13000   300.53099     -1744.7632      30747.968      2.3362867     -41689.752     -19.300811    
     14000   303.83501      129.03776      30667.416      2.3424233     -41690.746     -19.301271    
     15000   302.93318      1925.8266      30588.861      2.3484388     -41693.544     -19.302567    
     16000   311.62954      131.67875      30645.939      2.3440649     -41693.53      -19.30256     
     17000   314.73341     -2322.8383      30733.805      2.3373634     -41691.184     -19.301474    
     18000   299.33453     -105.87352      30737.461      2.3370853     -41691.371     -19.301561    
     19000   305.2085       1931.2659      30701.637      2.3398123     -41687.193     -19.299626    
     20000   298.17246     -1372.8518      30725.322      2.3380086     -41692.426     -19.302049    
Loop time of 37.6832 on 6 procs for 20000 steps with 2160 atoms

Performance: 45.856 ns/day, 0.523 hours/ns, 530.740 timesteps/s, 1.146 Matom-step/s
98.0% CPU use with 6 MPI tasks x 1 OpenMP threads

MPI task timing breakdown:
Section |  min time  |  avg time  |  max time  |%varavg| %total
---------------------------------------------------------------
Pair    | 21.757     | 23.459     | 24.863     |  22.9 | 62.25
Kspace  | 7.4961     | 8.8916     | 10.605     |  37.4 | 23.60
Neigh   | 0.039723   | 0.041753   | 0.043237   |   0.6 |  0.11
Comm    | 1.0384     | 1.0581     | 1.079      |   1.3 |  2.81
Output  | 0.00058247 | 0.00061278 | 0.00075417 |   0.0 |  0.00
Modify  | 3.1875     | 3.7098     | 4.1449     |  21.3 |  9.84
Other   |            | 0.522      |            |       |  1.39

Nlocal:            360 ave         376 max         334 min
Histogram: 1 0 0 0 0 2 0 1 1 1
Nghost:        4908.33 ave        4943 max        4875 min
Histogram: 1 0 1 1 0 1 0 1 0 1
Neighs:        91391.7 ave       97414 max       83539 min
Histogram: 1 0 0 0 1 2 0 0 1 1

Total # of neighbors = 548350
Ave neighs/atom = 253.86574
Neighbor list builds = 26
Dangerous builds = 0
PPPM initialization ...
  using 12-bit tables for long-range coulomb (src/kspace.cpp:342)
  G vector (1/distance) = 0.29848732
  grid = 24 24 27
  stencil order = 5
  estimated absolute RMS force accuracy = 0.0013278585
  estimated relative force accuracy = 9.2214668e-05
  using double precision FFTW3
  3d grid and FFT values/proc = 9424 2880
Generated 0 of 1 mixed pair_coeff terms from geometric mixing rule
Setting up Verlet run ...
  Unit style    : metal
  Current step  : 0
  Time step     : 0.001
Per MPI rank memory allocation (min/avg/max) = 5.132 | 5.273 | 5.544 Mbytes
   Step          Temp          Press          Volume        Density         PotEng         v_epa     
         0   298.17246     -1376.4653      30725.322      2.3380086     -41692.436     -19.302054    
      1000   304.58703     -63.925315      30679.31       2.3415151     -41690.056     -19.300952    
      2000   310.12746      91.440414      30654.846      2.3433838     -41691.326     -19.30154     
      3000   288.39494     -311.18661      30641.523      2.3444027     -41688.623     -19.300288    
      4000   298.56547     -26.2969        30756.933      2.3356058     -41691.869     -19.301791    
      5000   304.87404      487.21963      30710.718      2.3391205     -41691.959     -19.301833    
      6000   293.3878       1574.2323      30709.316      2.3392273     -41690.001     -19.300927    
      7000   303.16224     -1951.9122      30724.331      2.3380841     -41691.602     -19.301668    
      8000   291.55984     -701.80482      30736.105      2.3371884     -41692.297     -19.301989    
      9000   300.47693      192.86843      30766.955      2.3348449     -41690.947     -19.301365    
     10000   306.07145      2541.2266      30645.945      2.3440645     -41693.322     -19.302464    
     11000   301.63418     -876.86513      30767.06       2.334837      -41690.733     -19.301265    
     12000   291.12868      3876.4796      30758.384      2.3354956     -41693.211     -19.302412    
     13000   295.99683     -1181.4318      30724.954      2.3380367     -41692.217     -19.301952    
     14000   302.84333      456.09791      30667.439      2.3424215     -41691.145     -19.301456    
     15000   299.28898      1279.8669      30771.549      2.3344964     -41691.727     -19.301726    
     16000   296.01119      1691.3398      30666.185      2.3425173     -41691.936     -19.301822    
     17000   303.87444      18.950327      30746.271      2.3364157     -41691.429     -19.301587    
     18000   292.97737      1435.5329      30750.507      2.3360938     -41691.521     -19.30163     
     19000   310.18969      227.59637      30716.796      2.3386576     -41689.592     -19.300737    
     20000   298.70229     -128.71298      30708.926      2.339257      -41690.067     -19.300957    
     21000   297.43792     -724.56385      30633.762      2.3449967     -41693.17      -19.302394    
     22000   302.13514      3637.3073      30670.829      2.3421627     -41690.699     -19.301249    
     23000   298.51627     -3697.2099      30842.717      2.3291096     -41691.97      -19.301838    
     24000   300.3248      -121.8536       30736.809      2.3371349     -41689.873     -19.300867    
     25000   296.8587       1317.4436      30646.889      2.3439922     -41691.034     -19.301405    
     26000   310.15413     -265.12394      30759.889      2.3353813     -41691.834     -19.301775    
     27000   299.78864     -1331.4955      30690.926      2.3406289     -41691.768     -19.301744    
     28000   299.79585     -573.65134      30585.215      2.3487188     -41690.986     -19.301382    
     29000   302.13606     -606.55311      30675.635      2.3417957     -41688.562     -19.30026     
     30000   296.32153     -283.02907      30604.719      2.347222      -41691.05      -19.301412    
     31000   304.34159     -4409.126       30834.41       2.3297371     -41689.428     -19.300661    
     32000   302.07175     -142.52829      30636.075      2.3448196     -41690.619     -19.301212    
     33000   311.79394     -176.06511      30767.963      2.3347685     -41689.733     -19.300802    
     34000   288.65095      2198.2369      30689.508      2.3407371     -41688.555     -19.300257    
     35000   308.57851     -1175.8358      30709.104      2.3392434     -41691.38      -19.301565    
     36000   292.92085     -889.47919      30694.073      2.3403889     -41690.935     -19.301359    
     37000   298.12334     -570.78088      30697.945      2.3400938     -41691.591     -19.301662    
     38000   302.99724     -1922.6268      30784.461      2.3335172     -41690.269     -19.30105     
     39000   295.49165     -3955.4018      30621.911      2.3459042     -41691.702     -19.301714    
     40000   305.45765     -219.2191       30771.409      2.334507      -41690.144     -19.300993    
     41000   293.46049     -3273.8142      30808.122      2.331725      -41690.527     -19.30117     
     42000   299.1155      -356.86422      30700.001      2.3399371     -41688.884     -19.300409    
     43000   293.83718     -1631.9286      30741.439      2.3367829     -41691.879     -19.301796    
     44000   294.38966     -2136.4041      30704.117      2.3396233     -41690.479     -19.301148    
     45000   307.02365      2135.8933      30558.881      2.3507428     -41690.767     -19.301281    
     46000   292.2122       450.00935      30628.941      2.3453658     -41690.712     -19.301256    
     47000   295.9916      -1385.0289      30719.653      2.3384401     -41689.695     -19.300785    
     48000   298.25738      1195.1081      30675.982      2.3417692     -41688.966     -19.300447    
     49000   303.73661      1850.0188      30667.11       2.3424467     -41687.704     -19.299863    
     50000   300.39248     -851.1867       30654.512      2.3434093     -41691.48      -19.301611    
     51000   298.0462       1386.7151      30535.55       2.3525389     -41688.843     -19.30039     
     52000   295.8672      -1960.9131      30774.06       2.3343059     -41691.899     -19.301805    
     53000   296.89463     -1557.0402      30801.8        2.3322036     -41688.66      -19.300306    
     54000   305.17796     -3274.6538      30670.029      2.3422238     -41689.984     -19.300918    
     55000   299.30045     -888.6237       30757.824      2.3355381     -41691.48      -19.301611    
     56000   304.46958     -398.74229      30552.104      2.3512642     -41692.102     -19.301899    
     57000   301.25383     -1407.145       30776.203      2.3341433     -41688.576     -19.300267    
     58000   299.6424      -187.44819      30676.671      2.3417166     -41690.81      -19.301301    
     59000   296.66826      221.77065      30641.295      2.3444201     -41689.128     -19.300522    
     60000   297.56716      281.18858      30668.641      2.3423297     -41693.207     -19.302411    
     61000   304.77157     -1439.5221      30746.818      2.3363741     -41691.415     -19.301581    
     62000   296.99705      102.12556      30672.194      2.3420584     -41692.79      -19.302218    
     63000   311.28054     -694.81436      30724.986      2.3380342     -41693.001     -19.302315    
     64000   293.42549     -2881.4898      30747.128      2.3363505     -41688.826     -19.300382    
     65000   308.85726      17.638569      30714.406      2.3388396     -41693.414     -19.302506    
     66000   304.9405       1010.7645      30759.416      2.3354172     -41689.88      -19.300871    
     67000   282.55785      426.29491      30619.063      2.3461224     -41692.997     -19.302313    
     68000   297.4876      -2352.4777      30661.284      2.3428918     -41689.892     -19.300876    
     69000   298.82047     -1093.4612      30685.742      2.3410243     -41691.071     -19.301422    
     70000   295.87261      1290.624       30680.975      2.3413881     -41688.095     -19.300044    
     71000   305.50763      1914.2494      30599.736      2.3476042     -41690.583     -19.301196    
     72000   299.49747     -3084.5362      30737.782      2.337061      -41690.818     -19.301305    
     73000   296.66016     -749.16542      30724.683      2.3380573     -41690.953     -19.301367    
     74000   296.3493      -663.3877       30625.578      2.3456233     -41691.891     -19.301802    
     75000   312.02439      3142.625       30640.41       2.3444879     -41691.72      -19.301722    
     76000   295.69948     -54.896272      30636.437      2.3447919     -41692.928     -19.302282    
     77000   302.65693      547.66573      30697.633      2.3401175     -41689.677     -19.300777    
     78000   300.78443     -645.45976      30680.26       2.3414427     -41691.181     -19.301473    
     79000   309.24202     -1747.2873      30799.26       2.332396      -41689.194     -19.300553    
     80000   298.81802      41.351819      30772.254      2.3344429     -41692.031     -19.301866    
     81000   312.13178     -3474.0119      30720.666      2.338363      -41690.057     -19.300952    
     82000   304.46797      1341.8749      30542.783      2.3519818     -41690.774     -19.301284    
     83000   300.07423     -1377.1553      30712.406      2.3389919     -41692.049     -19.301875    
     84000   308.19832     -2276.4457      30803.969      2.3320394     -41691.407     -19.301578    
     85000   291.99161      1821.0346      30697.805      2.3401044     -41690.209     -19.301023    
     86000   304.18712     -1052.8715      30721.282      2.3383161     -41691.99      -19.301847    
     87000   307.51257      269.69379      30704.281      2.3396108     -41692.68      -19.302167    
     88000   299.18634     -418.56317      30796.796      2.3325826     -41692.693     -19.302173    
     89000   305.06597      985.73899      30693.939      2.3403992     -41693         -19.302315    
     90000   308.30996     -1192.3177      30767.05       2.3348378     -41689.404     -19.30065     
     91000   304.71736     -449.65209      30727.189      2.3378666     -41692.315     -19.301998    
     92000   295.90111      2427.7994      30631.228      2.3451907     -41686.987     -19.299531    
     93000   301.96599     -2099.7528      30797.02       2.3325656     -41690.558     -19.301184    
     94000   295.23654     -1205.5752      30643.606      2.3442434     -41693.064     -19.302344    
     95000   303.7212      -3045.1705      30697.078      2.3401599     -41691.532     -19.301635    
     96000   299.37486     -3536.3343      30726.649      2.3379077     -41689.069     -19.300495    
     97000   301.27476     -2291.5848      30707.578      2.3393596     -41691.958     -19.301833    
     98000   301.23779      847.4515       30737.302      2.3370974     -41691.359     -19.301555    
     99000   303.12111      706.21943      30641.824      2.3443797     -41691.333     -19.301543    
    100000   293.02418      1702.367       30695.462      2.340283      -41690.972     -19.301376    
Loop time of 195.626 on 6 procs for 100000 steps with 2160 atoms

Performance: 44.166 ns/day, 0.543 hours/ns, 511.180 timesteps/s, 1.104 Matom-step/s
98.0% CPU use with 6 MPI tasks x 1 OpenMP threads

MPI task timing breakdown:
Section |  min time  |  avg time  |  max time  |%varavg| %total
---------------------------------------------------------------
Pair    | 114.44     | 123.24     | 129.88     |  50.4 | 63.00
Kspace  | 38.61      | 45.276     | 54.128     |  83.5 | 23.14
Neigh   | 0.16448    | 0.17232    | 0.17807    |   1.2 |  0.09
Comm    | 5.3664     | 5.4545     | 5.6116     |   3.4 |  2.79
Output  | 0.0018015  | 0.0019447  | 0.0026293  |   0.7 |  0.00
Modify  | 16.17      | 18.861     | 21.039     |  47.5 |  9.64
Other   |            | 2.617      |            |       |  1.34

Nlocal:            360 ave         372 max         343 min
Histogram: 1 0 0 0 1 0 1 2 0 1
Nghost:        4918.33 ave        4927 max        4911 min
Histogram: 1 0 2 0 0 1 0 1 0 1
Neighs:        91457.3 ave       97299 max       86562 min
Histogram: 1 1 0 2 0 0 0 0 0 2

Total # of neighbors = 548744
Ave neighs/atom = 254.04815
Neighbor list builds = 106
Dangerous builds = 0
System init for write_data ...
PPPM initialization ...
  using 12-bit tables for long-range coulomb (src/kspace.cpp:342)
  G vector (1/distance) = 0.29851161
  grid = 24 24 27
  stencil order = 5
  estimated absolute RMS force accuracy = 0.0013265706
  estimated relative force accuracy = 9.2125227e-05
  using double precision FFTW3
  3d grid and FFT values/proc = 9424 2880
Generated 0 of 1 mixed pair_coeff terms from geometric mixing rule
NPT_TAIL_DONE  final density = 2.3402830152731262103 g/cc   V = 30695.462467627097794 A^3
Total wall time: 0:03:53
