LAMMPS data file via write_data, version 2 Aug 2023, timestep = 2000, units = metal

2160 atoms
2 atom types

-0.13095198564362853 30.269865365641856 xlo xhi
-0.13140961780978877 30.375648137808874 ylo yhi
-0.15165527673719126 35.055480726733364 zlo zhi

Masses

1 15.9994
2 28.0855

Atoms # charge

1480 2 2.4 4.491041526265422 0.884483812014455 1.396994921594174 1 0 1
166 1 -1.2 3.483618312131187 0.6343447209440326 2.6532426057857066 0 0 0
1952 1 -1.2 3.920832682238356 0.5150337159121318 -0.03389924716775578 0 1 1
857 1 -1.2 4.533157047725176 2.5666371832365944 1.5373305378280886 0 2 0
1043 1 -1.2 5.924846058604891 0.2280818664637443 1.5526664899013543 0 0 1
1362 1 -1.2 8.75878953923501 2.0338994601097404 0.8617444709937856 1 0 1
1851 2 2.4 9.2458626137869 0.6197714026280167 0.10161464855855935 0 0 1
956 1 -1.2 12.686317020227627 2.367004190564983 0.9130789115135001 0 0 0
409 2 2.4 15.092794954641292 0.21028725683804692 1.502850363454793 0 1 0
2093 1 -1.2 16.18368375647658 1.254692745305423 0.7576144763838166 0 1 1
2145 1 -1.2 14.493549450325451 0.8892516040799989 2.8563968294481374 0 1 1
722 2 2.4 17.585558503527974 1.7997300983641784 0.21983451097152065 -1 0 0
503 1 -1.2 18.57954997107467 0.5648615243528108 35.012761202820364 0 0 -1
838 1 -1.2 18.226994008682002 2.906297897385888 1.3465888212557855 0 1 1
783 2 2.4 20.129592915085965 0.2589494750593398 0.31198067982239064 0 1 0
1187 1 -1.2 20.229651940387594 0.8012948374235005 1.8299547057105783 0 1 0
1125 1 -1.2 26.25863422258578 0.5737232743580546 0.6408801282823625 0 1 0
1919 1 -1.2 26.354917981142197 2.1788775464649777 2.6819077120220594 0 0 1
603 2 2.4 26.19383366158561 2.1196051613654467 1.0880311532306721 0 1 0
1954 1 -1.2 29.885313156663624 0.5431789024379319 1.6353723845098214 -1 0 1
891 2 2.4 4.62705191691293 3.945375967423145 2.2975821820293185 0 0 0
2157 1 -1.2 3.610416134906373 4.885766490927266 1.5220587943603998 1 0 1
1304 1 -1.2 6.182155950145168 4.413878899376239 2.1290285946662766 0 0 1
290 2 2.4 7.664061828982578 4.3408165354949375 2.7486093129276092 0 1 0
353 1 -1.2 8.506902113357159 4.471760957795957 1.3248829312659511 0 1 0
1586 2 2.4 8.306145793897478 3.4026319467577437 0.07862828377203102 0 1 1
1784 1 -1.2 11.72782120239242 4.7310268875441865 1.8144332238293404 0 0 1
15 2 2.4 12.981834283195411 3.7135723672260825 1.8177520122151705 0 0 0
750 1 -1.2 14.390238386450624 4.536731385495757 1.585493763319608 0 1 0
376 2 2.4 18.877447341992546 4.096401110557111 2.2554118087549857 0 1 0
1760 1 -1.2 19.27880902822726 5.296633815535172 1.2366794651667283 0 0 1
1560 1 -1.2 16.901386274309296 5.812884294845778 1.0634858250817207 0 1 1
1656 1 -1.2 22.663328957973786 3.364619018645559 1.7237664383256985 0 1 1
1490 2 2.4 23.48513306301194 3.6520788583210186 0.3508694183388807 0 1 0
68 1 -1.2 23.44431104672043 5.259930817040115 0.0943792871480247 0 0 0
1746 1 -1.2 27.048660714613145 5.368791666505653 1.0196151433419536 -1 0 1
261 1 -1.2 24.869333802673438 2.8570157425794385 0.4339111844592553 0 2 0
249 1 -1.2 27.461716321235397 2.866433785734292 0.3589239753925726 0 0 0
1657 2 2.4 27.82973631842824 4.401403475970968 -0.011642439473972208 -1 1 1
44 1 -1.2 29.367904513617567 4.781975228978274 34.956227963194706 -1 0 -1
848 1 -1.2 1.4342142209234847 5.485035223663449 0.08745246282192179 0 1 0
91 1 -1.2 2.292524359972406 7.060372345498393 2.1220535220132883 0 0 0
759 2 2.4 2.7584507439116877 6.066679726956786 0.9437598242809362 1 1 0
799 1 -1.2 3.6664137497321296 7.012667901007192 0.007762618196501243 -1 1 0
658 1 -1.2 6.42023711633059 7.34558797661197 -0.0351393361854898 0 1 0
1632 1 -1.2 10.55553765332069 6.694369198826975 0.7298963536521365 0 1 1
1167 2 2.4 9.738601871252715 7.905649696084495 0.09593778579817826 0 1 0
488 1 -1.2 8.542083027077892 8.442652392696234 1.1414553938273921 1 0 1
652 2 2.4 11.370637280002116 6.243068655041515 2.0546640682070243 0 0 0
96 1 -1.2 12.831972829594179 7.025350412428997 2.282499854801631 0 0 0
827 1 -1.2 14.746716131977049 6.828595142394403 0.16578165337284165 0 1 1
794 2 2.4 15.253861359515872 5.916047656420721 1.4504425859617207 -1 1 0
1937 1 -1.2 15.21388551750106 6.667469805354466 2.8788076557214133 0 0 1
817 2 2.4 18.176645070826975 5.986565623840107 0.15000782527243822 0 1 0
564 1 -1.2 18.563511518978395 7.534755093707507 35.037680421463214 0 0 -1
1408 2 2.4 21.857916514747668 7.108093841675009 2.6232605301134515 0 0 0
1330 1 -1.2 21.688423536778945 6.9972164104994885 0.9632813025751288 0 0 0
1918 1 -1.2 23.10179505003806 8.11005600565178 2.8227442619278587 -1 0 1
1228 2 2.4 26.90511440063239 5.768647936495786 2.5533412934397153 -1 1 1
331 1 -1.2 26.264145522246054 7.206636443526605 2.767805869366105 0 1 0
1810 1 -1.2 0.9910415708908854 9.182666079758954 -0.012189328724123745 0 0 1
2036 1 -1.2 0.6630376687508058 9.586908489304369 2.512354433891365 0 1 1
1021 2 2.4 1.5167144517076097 10.072718086504612 1.236273149114784 0 0 1
340 2 2.4 4.528337834028796 9.70581687824222 2.3243495297611005 1 1 0
741 1 -1.2 3.159600537786025 9.912286022863489 1.4454602710428333 -1 0 0
263 1 -1.2 5.829549417310034 9.274417498040819 1.5424278356214793 0 0 0
1432 2 2.4 6.995228442732284 8.748467602707667 0.5248849173166314 1 0 1
751 1 -1.2 10.627765066552664 9.234565292239333 34.913681204890224 0 0 -1
535 1 -1.2 12.814451753484295 10.609037553774021 1.9578614968049204 1 0 0
1050 1 -1.2 13.269235355072007 8.925119530134207 -0.06059787397637706 0 0 0
286 1 -1.2 15.618675537373715 9.328682947455215 1.001760984150377 0 0 0
73 2 2.4 15.9649982558186 10.87952548649853 1.5493425498732982 0 0 0
734 2 2.4 19.073154794518913 10.680868856465242 2.002260254013572 0 0 0
199 1 -1.2 17.474218345804832 10.961031703388802 1.9885182890507969 0 0 0
881 1 -1.2 19.51670437191715 9.815389366358074 0.7204335839084607 0 0 0
2100 1 -1.2 23.489266214587257 10.786982518301636 2.052032086179014 -1 0 1
1967 1 -1.2 26.731029909571788 10.572360654578178 0.7671905372743951 -1 0 1
384 1 -1.2 28.616900155717527 8.941111789927445 34.83515834305557 0 1 -1
1726 1 -1.2 1.1454116151621032 11.584720445326756 0.7446897652940829 1 1 1
1446 1 -1.2 4.758333839827932 12.756669769851301 1.0446770525180828 0 -1 1
1897 2 2.4 4.626651678125222 12.594468151363344 2.6959820739392306 1 0 0
1015 1 -1.2 8.666202779009955 12.231501355630575 0.27544290864918286 -1 1 1
1315 1 -1.2 8.618265892354897 13.243903736037044 2.8511823895938213 0 -1 1
495 2 2.4 9.422478139301735 13.150368209054848 1.4135087625708092 1 0 0
1055 1 -1.2 10.839929178042484 12.427897884481155 1.6090648991097558 0 0 0
580 2 2.4 12.219610609472355 11.859019241159247 0.9936453170871288 0 0 0
1774 1 -1.2 13.224069750464649 13.157109782530588 1.1610018265000037 1 -1 1
1079 1 -1.2 15.566261733874525 11.960356633609706 0.40375387952524144 0 0 1
1453 2 2.4 14.767440329774113 13.396375830725693 0.7087834338674119 0 0 0
886 1 -1.2 19.985776265903965 12.046399700439542 2.005759960274157 0 -1 1
1852 2 2.4 20.934149606318343 12.937819655453811 1.043378183705544 0 0 1
366 1 -1.2 22.07711192393979 12.076893639687537 0.2879013460200371 -1 0 0
1454 2 2.4 23.59624496330427 11.434186773839329 0.5972296098095056 -1 0 1
716 1 -1.2 24.52561941057949 12.758509785170125 0.3290455141869514 0 1 0
122 2 2.4 27.594826303852614 10.97847607954139 2.1434873218935957 0 0 0
567 2 2.4 30.055901632376003 12.30213793671363 0.7382851919419641 0 0 0
767 1 -1.2 28.984919049980853 11.71857030153584 1.830726098600793 -1 1 0
1754 2 2.4 0.8131073605273016 15.317817870773078 0.7945796051079349 0 0 1
776 1 -1.2 1.4878753714803241 15.30176832465215 2.3005696799999664 0 0 0
908 1 -1.2 -0.13048939729329945 13.98547068840945 0.8375920772762803 1 0 1
262 1 -1.2 9.547204608381486 14.697909434300191 0.9118727320546437 0 0 1
2078 2 2.4 10.269416973617165 16.08458142586922 0.40709106665197575 1 0 1
629 1 -1.2 15.504133034533679 14.262785814334547 1.7652581696379257 -1 0 0
673 2 2.4 15.506166524319788 15.807311873350324 2.4341320799483293 0 0 0
1578 1 -1.2 14.080573865228732 16.524749873036154 2.519925237230462 1 0 1
1436 1 -1.2 17.776405385666717 15.185292390243436 -0.11780864814931777 0 0 1
1577 1 -1.2 21.818173440556762 14.055426384357535 1.937675651354976 0 0 1
868 2 2.4 0.4994967272274044 18.433814179488362 0.6812814147935303 0 0 1
1667 1 -1.2 1.9775507889036075 18.62153295073461 1.3571114019921064 0 0 0
1794 1 -1.2 0.13063544512644545 16.8249836535692 0.5610199608680321 1 -1 1
610 1 -1.2 4.282189840678658 18.975730460514654 -0.03840242590121661 1 0 1
1275 2 2.4 3.5616650619156434 19.21689372914917 1.4304578158853691 0 0 1
405 1 -1.2 7.148406802415986 18.043059861650782 2.153481951719996 1 0 0
1528 2 2.4 8.267019676707129 18.643365996895774 1.0515332132087614 0 0 1
994 1 -1.2 9.245200022871119 17.332810484078433 0.7786128791710125 0 0 1
536 1 -1.2 11.688058301937268 16.26144437113618 1.3729483459122096 0 0 0
123 2 2.4 12.704120771787954 17.26955704739805 2.0704417356411113 0 0 0
372 1 -1.2 13.124334531937576 18.549049621655133 1.1205801766715429 -1 0 0
594 1 -1.2 16.52990006897188 16.77231727044023 1.614577076237286 0 0 0
1945 2 2.4 17.373791025115676 16.738248782783394 0.2940216859682513 0 0 1
702 1 -1.2 18.618653899796243 17.722993591443252 0.4069765567545825 0 0 0
1237 2 2.4 18.974124309009238 19.19314675430112 0.9556636388763193 0 -1 0
731 1 -1.2 21.33132420464341 16.762731783325727 2.042035783482206 -1 0 0
1035 2 2.4 21.313429321576617 18.369228983065934 2.2680530725642756 -1 0 0
977 1 -1.2 19.79911647707577 18.944757404928005 2.4323380188141877 0 -1 1
200 1 -1.2 22.015201306331143 18.973497208895203 0.9512957934682356 0 0 0
1583 1 -1.2 24.971950574327593 18.38481552863361 2.4881666520193213 0 0 1
1443 2 2.4 25.840633463581757 18.72032314667887 1.1530128373530086 -1 0 1
1327 1 -1.2 26.356022633478883 17.358196317592313 0.38060116815997663 -1 -1 1
1758 1 -1.2 29.700950035638012 19.08372340356575 1.5207626372099596 0 -1 1
1853 1 -1.2 3.3052966966745694 20.78405767628773 1.6373968226948445 1 -1 1
474 1 -1.2 5.7621433662590995 21.51569367049383 2.536580194304075 1 -1 0
1085 1 -1.2 9.165691094177937 19.728115117694912 1.7542661045105494 0 0 1
1229 1 -1.2 10.265473353844245 22.177731475960286 2.38643225446472 0 0 0
404 1 -1.2 12.534222914218132 21.10791262844694 1.6301451197895158 0 0 0
627 2 2.4 13.35184398882488 20.13640376532997 0.7165269541947276 0 0 0
1654 1 -1.2 14.898935799226283 20.545271876563156 0.9868335238769759 0 0 0
1382 2 2.4 16.414517149149777 21.0906931649348 1.0703126011090154 0 0 1
309 1 -1.2 17.592679954944153 19.92229138591811 1.3027038342820343 0 0 0
1303 1 -1.2 21.418820768643418 21.504334638941287 1.078641423490024 0 0 1
842 2 2.4 21.459462652007385 20.211351237665045 0.0640492586475142 0 0 0
322 1 -1.2 23.85142955957105 21.985549933299477 0.29109209586308143 0 0 0
1445 1 -1.2 27.150254581167257 19.56712115957208 1.7331283739022263 -1 0 1
1686 1 -1.2 24.91273334312365 19.574137257295284 0.07372477902644675 0 1 1
1105 2 2.4 28.523053079282132 19.44528394583028 2.5840365950798145 -1 0 1
1814 2 2.4 4.391214003292216 21.983732328052394 1.761273033189423 0 -1 1
1848 1 -1.2 4.889665598901491 22.358349923483605 0.26029286898259907 1 0 1
1511 1 -1.2 3.8681116546869734 23.271838748488488 2.5873268099575326 1 0 0
37 2 2.4 11.72516171541006 22.512691419653223 1.866924241197152 0 -1 0
1724 1 -1.2 11.775415916829493 23.318536188811876 0.42712300983685425 1 0 1
342 1 -1.2 12.568496133571477 23.39301430669796 2.9197099232450374 1 0 0
486 1 -1.2 16.764096028002797 22.078766914634976 2.3420385499910044 0 -1 0
291 2 2.4 22.635015802911244 22.581500848652453 1.1810192141070577 -1 0 0
1652 1 -1.2 22.463934875956394 24.13200640346101 0.634779645621102 1 1 1
1145 1 -1.2 23.0301991780492 22.458020229533794 2.7626462903761433 1 0 0
211 1 -1.2 25.436415299231843 23.976700176349194 0.682160203909459 0 -1 0
39 2 2.4 26.145199195455163 23.92775948874271 2.172634001248291 0 0 0
1700 1 -1.2 30.096576271275037 22.723628796020584 2.4006044205603363 -1 0 1
2001 1 -1.2 27.79474123579654 23.604857719502007 2.0521133567374448 0 0 1
220 2 2.4 29.33558438645915 23.733955772175797 1.4631019699255339 -1 0 0
2008 2 2.4 0.4519412234392524 25.912527392189016 2.640190482320873 1 0 1
2094 1 -1.2 0.8003179469494237 27.2764370288441 1.8942294332709797 0 0 1
1569 1 -1.2 3.554430450265239 25.575976787319032 1.5225642827399481 1 0 1
38 2 2.4 3.176680133712064 25.608944300579743 -0.07462028124915111 1 -1 0
1211 1 -1.2 6.363512468312567 25.68279174191727 1.6419399766577802 0 0 0
892 2 2.4 6.7857321207171415 27.012612193183948 0.8566037910639954 0 0 0
2021 1 -1.2 8.28263465337022 27.18116050433965 0.30505624289429967 0 0 1
1948 2 2.4 11.932705283944106 27.23153716207775 1.8481991628396433 0 0 1
1849 2 2.4 11.648905809391382 24.907404039225327 0.08970598802214129 0 -1 1
1999 1 -1.2 12.42784289759218 25.795121616032898 1.2288613833592985 0 0 1
1354 1 -1.2 15.476450496738327 26.674164238881577 1.6091762759236339 0 -1 0
271 1 -1.2 17.05732575388501 24.768344722138913 2.000033793368109 1 0 0
782 2 2.4 17.0965385679501 26.377687674168996 1.8016635331913728 0 0 0
22 1 -1.2 18.018511573552395 26.727435697744962 0.39874401070384874 0 0 0
1666 1 -1.2 20.470264791005768 24.969784860747367 1.9690551105142302 -1 0 1
1909 2 2.4 21.128184505921585 25.058125305798278 0.4185668120955397 0 0 1
617 1 -1.2 21.487490199598643 26.68857983652035 0.25656013298304947 0 0 1
1860 1 -1.2 25.786780284104843 25.406517314300476 2.7445665823905223 0 0 1
1386 1 -1.2 29.890841999838166 25.234940956349288 1.5235286624166726 -1 0 1
947 1 -1.2 0.6583291920792641 29.178333790983466 0.10869869265279103 0 -1 1
1646 2 2.4 1.6487041846935067 28.08303631604724 0.7952284703049896 1 -1 1
1570 1 -1.2 2.6899453460597096 28.86383995931825 1.7959315498980755 1 0 1
4 2 2.4 7.243832971263675 29.76419080592517 2.029520430317043 0 -1 0
1639 1 -1.2 6.731420615773149 28.23457481227876 2.016472841537211 0 0 1
1089 1 -1.2 8.703416100516547 30.025442256741954 1.1742260681473005 -1 -1 1
1329 1 -1.2 10.789902976374325 27.83927640904526 0.9363099762834971 1 0 1
456 1 -1.2 13.205547114647072 28.277232360569794 1.962019267859765 0 -1 0
1725 1 -1.2 13.950052212789627 30.296734211849532 0.4256277452165273 1 0 0
381 1 -1.2 15.610441059589382 29.288378758667662 2.0677790784585843 0 0 0
1 2 2.4 14.773631634662854 27.926842724443055 2.442832044108878 0 -1 0
163 1 -1.2 20.432727135883745 29.18017823911253 0.30188913638395565 0 0 0
1730 2 2.4 29.877902828205123 30.236285818514798 0.2781383230605268 -1 -1 1
169 2 2.4 8.302984367187507 2.0442795821432838 4.981099016749623 0 1 0
660 1 -1.2 9.396772042228525 0.9289387587808708 4.429101866249464 -1 1 0
319 1 -1.2 14.2328704959054 1.607709655279145 5.362945768710796 0 1 0
145 2 2.4 14.349640168340878 2.1305687812515015 3.8084203933519283 0 1 0
468 1 -1.2 15.84230837465007 2.800744977778858 3.7067915230584627 0 0 0
434 2 2.4 18.8399602882889 1.986364845263125 5.673508877653237 0 0 0
1649 1 -1.2 19.371800234941382 1.2059585879550996 4.322040185087034 0 1 0
1081 2 2.4 20.08328198571745 0.14064865960845985 3.2649506997343996 -1 0 1
1981 2 2.4 23.467163677302274 2.225769832282435 5.111240701394806 0 0 1
749 1 -1.2 23.689516975553083 0.6915140979676686 4.821123152236242 0 1 0
1360 2 2.4 29.89161923832432 0.13300734713464898 3.2491958703711252 0 0 1
1584 1 -1.2 29.743437722359637 1.5780254527701258 4.014607688496689 0 1 1
253 2 2.4 29.20927588864025 2.625657067238676 5.159904586468456 0 0 0
1342 1 -1.2 4.308233085339867 3.931089438322641 3.902855811166396 1 0 0
596 1 -1.2 7.882054343222907 2.9540292561801818 3.6674864609396467 0 0 0
368 1 -1.2 10.11791440100836 5.3546146636418195 5.392511670957928 -1 1 0
1387 1 -1.2 13.048792555185607 3.073889007837391 3.3826906181316603 0 0 1
588 1 -1.2 15.806952393734596 4.839466891663706 5.452508525469232 0 0 0
301 2 2.4 16.771208529525477 3.925128272368552 4.514512087684233 0 1 0
282 1 -1.2 17.81651252990114 4.575712791803024 3.44770330449894 1 0 0
1186 1 -1.2 17.770399623573727 3.1434794193805735 5.557363290869027 0 1 0
1374 1 -1.2 20.284264512596067 3.8758564294545854 3.0379017936768293 0 0 0
1984 2 2.4 21.946028440275974 4.037222255170384 2.990828455853236 0 0 1
706 1 -1.2 22.498694366150414 3.0630073653799346 4.179492344278091 0 0 0
1592 1 -1.2 24.965764116314443 2.78769192348946 4.953162556676004 0 1 1
21 1 -1.2 26.00103018801819 4.65817222873714 3.448624017634283 -1 0 1
2138 2 2.4 26.226453995409347 3.1471519081199375 4.0530688573139075 0 1 1
1512 1 -1.2 29.874096491834486 4.099222093066678 4.84470057347113 0 0 0
1978 1 -1.2 27.60627901264366 2.917748322101468 4.912163629519804 0 0 1
128 1 -1.2 28.415549319055266 5.5730129234088235 3.1692341872767975 0 0 0
1521 1 -1.2 0.4006380977157856 6.013948539768345 3.444422802174618 0 1 0
1732 2 2.4 1.7300563569842402 6.941309697079197 3.6470473173117792 0 -1 1
985 2 2.4 4.115113740909729 5.308293367229297 4.8504599644434006 1 0 1
800 1 -1.2 2.663505819837443 6.002307917705608 4.604436786062926 0 1 0
1456 2 2.4 5.203144372004674 7.918163790550224 4.619385461076042 0 0 1
1495 1 -1.2 5.412895214914649 6.280000537713897 4.392350766952892 1 0 1
909 1 -1.2 8.14531890058946 5.6263110981229305 3.651543996368666 0 0 0
728 1 -1.2 10.514426218301708 6.785775527042239 3.283123359780006 0 0 0
278 2 2.4 9.404775820730155 6.289119874191106 4.369464602557711 1 0 0
1206 1 -1.2 8.990553656196504 7.672370864938855 5.229396113930995 1 1 0
789 1 -1.2 13.625126126903195 6.467343171655286 4.963636394524927 0 1 1
866 2 2.4 13.837717202665027 7.326814036216236 3.5501206683236757 0 0 0
190 1 -1.2 18.311220879041873 8.314296095545178 5.02578854912596 0 1 0
1565 1 -1.2 20.467126266298237 7.631948713777632 3.2971582339728465 0 1 0
132 1 -1.2 22.27546458487115 5.6232855306199045 3.1542614647917064 0 0 0
125 1 -1.2 26.95347632946185 7.959139135910988 5.0974300948738405 0 0 0
410 2 2.4 29.538809239485136 5.617098802407342 4.327639587027832 0 1 0
2099 1 -1.2 29.3189051758965 6.654644150077676 5.523469597885423 -1 1 1
1661 1 -1.2 1.4067604896953725 8.260039187977679 4.496142701317337 1 0 0
1502 2 2.4 0.848889846620665 9.791455672443208 4.164645444212347 1 0 1
1821 1 -1.2 1.8842313973025648 11.055199532027016 4.317557558884036 0 0 1
1062 1 -1.2 4.250278534452629 8.505669931174543 3.4034672660593035 1 0 1
1207 1 -1.2 6.6539456119985525 8.801903397757908 4.598242624555811 0 1 0
578 2 2.4 8.041631029959872 8.923170196483746 5.54456893995989 0 0 0
654 1 -1.2 8.776359273394078 10.406367206900002 5.366324199140585 0 0 0
950 2 2.4 13.692414808789556 10.452485755602359 3.279797235365824 0 0 0
346 1 -1.2 13.738344096290334 8.881791898074594 3.7389324633428824 0 1 0
1470 1 -1.2 15.171153763589333 11.110199314293062 2.9450627644444793 0 0 1
1325 1 -1.2 20.73882604170158 8.973096986819014 5.6371745774778095 0 0 0
818 2 2.4 19.796789491947354 8.657110396017956 4.372260175376863 0 0 0
1872 1 -1.2 19.53249889489924 9.946149541633675 3.431721844537333 0 0 1
2125 2 2.4 23.662440744843316 9.568327317118493 3.2307841627792286 0 1 1
187 1 -1.2 22.949636895678335 10.00537662509792 4.5883820105775595 0 0 0
958 1 -1.2 25.181116054718505 9.4082449133915 3.629082500767735 -1 0 1
423 2 2.4 26.54675043277947 8.561829203216691 3.6375309285351523 0 1 0
1326 1 -1.2 27.672689032923124 9.557067728444634 3.011387306239198 -1 0 1
845 1 -1.2 29.82187252543147 10.152672263106904 4.921927807074028 0 1 0
1753 2 2.4 2.4257207089291333 12.587405836336503 4.6046579377374774 0 0 1
1604 1 -1.2 1.3644476088723987 13.874755560988941 4.628754542050812 0 0 1
1318 1 -1.2 3.1903791406514426 13.062048860454569 3.2804041641904456 0 0 0
1260 1 -1.2 4.832771613483727 11.034712436768897 3.1084727764277003 0 0 0
1714 1 -1.2 5.743326287622633 13.61179062173694 3.365996404324668 1 1 1
425 1 -1.2 8.492527022312483 13.033694255570168 5.563887028712667 1 1 0
703 1 -1.2 12.997884441772944 11.297115651283642 4.457571803520368 1 0 0
849 1 -1.2 25.242513410924378 13.486130312871886 4.658985488331675 0 1 0
1925 1 -1.2 26.447108561461867 11.407091771913587 5.390125283878876 0 0 1
1894 1 -1.2 26.65388328073823 12.131473562791411 2.79854098953567 0 0 1
208 2 2.4 26.599229750203865 12.661996335018891 4.3291632553366375 0 0 0
545 1 -1.2 27.975419846997813 13.48341805646994 4.6513553481563275 0 -1 1
613 2 2.4 0.8840560566691043 15.189864767972349 3.806082353374878 1 -1 0
2155 1 -1.2 5.08132273086613 15.010053971950905 5.599364301592318 1 1 0
284 1 -1.2 5.475713848083208 16.275143782133398 3.1905288258642868 1 0 0
1563 2 2.4 5.895120404850237 15.038634484923659 4.155682841108617 0 0 1
1990 1 -1.2 7.439671440928761 15.119156814586285 4.495572856196867 0 0 1
230 2 2.4 8.689766863757958 14.053218115178796 4.224366890840812 0 0 0
2016 1 -1.2 10.055740049159759 15.063888762526501 4.275307852481721 0 0 0
1009 2 2.4 10.590269919930881 16.104925395692113 5.412514354860602 0 0 0
152 1 -1.2 12.282116922389104 15.999393857869872 5.2952911703257435 0 0 0
1337 1 -1.2 16.250146623480614 15.420129993891445 3.8470805083151154 0 0 1
1611 2 2.4 16.285882460912728 15.632710259691146 5.473976000806669 0 0 0
161 1 -1.2 19.825870744883993 14.971807033290721 3.501028830650149 -1 0 0
373 2 2.4 21.29518530509738 15.344105096604874 2.7623223265070735 -1 0 0
432 1 -1.2 21.9761043687643 15.46379391063033 4.3392365899182455 0 0 0
2053 2 2.4 20.350373038235162 15.493423290485271 4.958247759890215 0 0 1
1997 1 -1.2 29.705659703120773 15.242292839577829 4.015974086778952 0 0 1
711 2 2.4 28.66422415091615 14.820929174064235 5.215650981754095 0 0 0
1391 1 -1.2 27.7289317993605 16.151661887366007 5.33575000183183 -1 0 1
624 1 -1.2 1.3940530491230931 16.569903044289685 4.557568389695914 1 0 0
2104 2 2.4 0.9586500603804045 17.887988473316117 5.5025902356073155 0 0 1
1748 1 -1.2 4.513221966905579 18.524230010436654 2.616948123489485 0 -1 1
1743 2 2.4 5.906488991114853 17.822215871911787 3.187457927778795 0 0 1
1892 1 -1.2 6.3248947746298 18.28911595112589 4.656076196280771 0 -1 1
237 1 -1.2 10.285426439523725 17.715859840122697 5.208739757357048 -1 0 0
2102 2 2.4 11.280249780553211 18.87391580812436 4.601753097740391 0 0 1
899 1 -1.2 12.135279795457196 18.031054508123397 3.4509226690993824 0 -1 0
1735 1 -1.2 17.216755454914367 16.978274612480423 5.69455891621759 0 -1 1
1703 1 -1.2 19.92750476058706 17.13809104267353 4.9960028609302904 0 0 0
1292 1 -1.2 22.444149008103327 18.64825713438644 3.413817919654632 0 0 0
412 2 2.4 24.02090992318109 18.865784622604057 3.7753135545444403 0 0 0
922 1 -1.2 24.139045068933306 17.723980205081848 5.003509180503168 0 -1 0
302 2 2.4 28.247683466982497 17.694083551705088 5.065503118069709 -1 0 0
966 1 -1.2 28.39690391230947 18.0923442895122 3.5251376325879122 0 0 0
1289 1 -1.2 29.737237574668544 17.977003291419567 5.692443022355963 0 0 0
898 1 -1.2 1.5685983505890924 19.29761207351244 5.062929496694807 0 0 1
841 2 2.4 1.705048829688006 20.844379224192064 5.395545610826452 1 0 0
2050 1 -1.2 0.6846860021486704 21.793583505035706 4.478399505842288 1 0 1
1280 1 -1.2 3.246416099228462 21.29317997977623 5.164563257277368 1 0 0
1904 1 -1.2 8.08267706241643 21.27925209897768 3.7736828686788524 0 0 1
595 1 -1.2 5.8949188857404415 22.055812409967576 4.9700743023281335 0 -1 0
2042 2 2.4 9.431808644973273 20.788284884490345 2.976795275226652 0 0 1
440 1 -1.2 10.500388885220024 20.067306956066066 3.950416205746918 0 -1 1
678 1 -1.2 18.361810774848905 19.31632676181962 5.462688611939746 0 0 0
418 1 -1.2 19.114743520050332 21.89512021274029 5.2612316401611405 0 0 0
115 1 -1.2 24.207279998710106 20.5139223082024 4.1088960003654895 0 0 0
1262 2 2.4 29.68008292013147 22.051804769402906 3.8274376575003237 -1 0 0
1916 1 -1.2 28.838273538114315 20.705334295886043 3.57427298022817 -1 0 1
1887 2 2.4 6.743419063197746 22.223080676226623 3.5936850514488765 0 0 1
1567 1 -1.2 7.329791787364778 23.708002239950435 3.2964189485031348 0 0 1
1157 1 -1.2 13.167610171752187 23.13050820624829 5.413302770653383 0 0 0
16 2 2.4 13.547149730171993 24.0032412704477 4.084761458366744 0 -1 0
2062 1 -1.2 15.111570088132972 23.845141650471565 3.6994201992302163 0 0 1
268 2 2.4 16.59802444674869 23.53718492196505 3.06361753337562 0 0 0
2072 1 -1.2 17.635924296397647 23.647339685434517 4.328553062019272 0 0 1
807 2 2.4 19.07399722674927 23.51456530962691 5.111672623676638 -1 0 0
1363 1 -1.2 20.333532658653326 24.187021154205596 4.325590501164333 0 -1 0
254 2 2.4 24.189867425798266 22.189606136111678 3.847641177364621 0 0 0
2143 1 -1.2 23.93167512004868 23.009942136013432 5.23202357066311 0 1 1
415 1 -1.2 25.595481993154202 22.654043506106234 3.107567417377466 0 0 0
1016 1 -1.2 28.858914555173463 22.957899594619725 4.848126536047434 -1 -1 1
1452 1 -1.2 1.7456148387067763 25.071900408967053 3.2402621188607874 0 -1 1
1668 1 -1.2 4.128038352604753 25.248695229534565 4.3431873865750035 1 0 0
422 2 2.4 3.3545027032480683 24.7811511758603 2.954299374627921 1 0 0
433 2 2.4 5.288923658766963 26.11150035911619 5.2145540727915645 1 -1 0
1170 1 -1.2 6.65498444340202 26.05086990382529 4.354866280229106 1 0 0
1213 2 2.4 7.319792286824118 25.3281130241557 2.9981764102848696 1 -1 1
1146 1 -1.2 8.77765237633122 26.08705304705623 2.786872177597923 1 0 0
379 1 -1.2 9.388984206120861 26.52369427038927 5.198188294885099 0 0 0
1684 2 2.4 9.751446328802983 27.06791201472379 3.7681467375486783 0 0 0
117 1 -1.2 11.25358627834559 26.88357188747429 3.2608690283787363 0 -1 0
1067 1 -1.2 13.066881217079473 25.475761820290515 4.422747091679568 0 -1 0
904 2 2.4 13.743842108963504 26.774412455047194 5.169593318951501 0 0 0
1151 1 -1.2 17.632621397002904 27.100152073199464 3.1041807429947985 0 0 0
2028 1 -1.2 20.0397327370121 26.8792181883877 3.715169819407655 0 0 0
481 2 2.4 20.766244709250458 25.496607967216036 3.4856321695925128 0 -1 0
141 1 -1.2 22.316334140285672 25.857535615595378 3.9154431176531537 0 0 0
1214 2 2.4 23.135243507096764 26.852450158545416 4.923495443113941 0 0 1
1344 1 -1.2 24.711212717693645 26.36334558972755 4.868762521034 -1 -1 1
53 1 -1.2 26.997818756455093 27.49702170923648 3.986045965918882 0 -1 -1
1251 2 2.4 26.105154327566865 26.072437329704997 4.219186296702594 -1 0 1
104 1 -1.2 26.96810709567499 24.999433494759753 5.08344378913581 0 -1 0
1807 1 -1.2 29.83012037234272 26.189846883667794 3.8702831011302306 -1 -1 1
397 2 2.4 30.004501649718627 26.515922983308503 5.43002429662944 0 0 0
1449 1 -1.2 0.9202906631832258 29.979433886076094 3.3878144868662625 0 0 1
1636 2 2.4 2.5664880687433937 29.911524572154626 3.099038786377485 1 0 0
192 1 -1.2 4.917817739996151 27.66029206337463 5.456803875615249 1 0 0
1065 1 -1.2 3.1601201429762256 29.328561609038523 4.498473001618581 1 -1 0
1162 1 -1.2 7.4729024188196185 30.090715939610124 3.676106751099497 1 0 0
1893 1 -1.2 9.682475382602721 28.682862309219047 3.7880296523984986 0 -1 1
650 2 2.4 8.852037375971062 29.885295702052094 4.5723410523303505 0 -1 1
2110 1 -1.2 14.5467938291998 27.637524742015632 4.074188845725381 0 1 1
390 1 -1.2 18.526535278722907 28.319615429172295 5.402517799653985 0 1 0
1837 2 2.4 18.8157261010348 27.922777993279862 3.8259589473977056 0 -1 1
1787 1 -1.2 19.091224522931387 29.354689095408546 3.1409534775353825 -1 -1 1
391 1 -1.2 21.534004513739966 30.199398457137928 3.6996018048050328 -1 0 0
1898 2 2.4 22.68008152288015 29.93213397196471 4.829642675647324 -1 -1 1
633 1 -1.2 23.217942216097832 28.441398246143986 4.484962264630873 0 -1 0
265 2 2.4 27.92906661821409 28.61274348818288 4.746198517630393 0 -1 0
1500 1 -1.2 28.753167291320608 29.578970262010937 3.7841172881026552 0 -1 1
2033 1 -1.2 5.010551945068751 30.268350354982854 6.132856950180658 0 0 1
507 2 2.4 5.767454931706543 1.0687351411324102 6.764264948072641 0 1 0
47 1 -1.2 6.2832396593007696 0.6094790040177782 8.260231621125323 1 0 0
551 1 -1.2 6.963104911344277 1.5383703005916214 5.705416771735913 0 0 0
150 1 -1.2 13.304388021517955 1.9132327939966776 7.894676451223096 0 0 0
245 1 -1.2 15.826389992945607 0.9294640747661594 7.395071367985725 0 1 -1
363 2 2.4 14.282642597065488 1.0176852569118475 6.853109839015905 0 1 0
663 2 2.4 17.287023540328125 0.22068735852381688 7.656239001332356 0 0 0
1222 1 -1.2 18.22350001533241 0.7114386061734209 6.452813400534885 1 0 0
670 1 -1.2 21.331525086790588 1.0391235952715394 8.257739998100755 0 1 0
1996 2 2.4 21.502466057378314 2.50957374959307 7.487605456801096 0 1 1
2048 1 -1.2 22.917825602859224 2.3883655364914835 6.708604841974367 0 1 1
780 1 -1.2 26.88158702567955 0.9757340388653232 7.220902445076319 1 1 0
1575 2 2.4 26.887131143683437 2.274020459761999 8.271771231177354 0 0 1
1863 2 2.4 30.07677290835822 2.1295683770198637 8.250379911446034 0 0 1
1197 1 -1.2 29.730423025388237 2.1320245840824077 6.6062236748891525 0 1 0
1483 1 -1.2 4.863751373195685 2.396839689297858 7.034953615616957 0 1 0
577 2 2.4 4.748288774687255 3.9170323828176836 7.65207600845694 0 0 0
618 1 -1.2 4.364010769425582 4.82591563396693 6.326628492535727 1 0 0
29 1 -1.2 6.115312016960225 4.610720757998631 8.176142450165587 0 0 0
1200 1 -1.2 8.747987137543205 5.048943164967489 7.649825455556193 0 0 0
532 2 2.4 9.734103225107246 4.267568996042688 6.60918763640076 0 0 0
334 1 -1.2 9.021379609544635 2.9308700050533103 6.136427927095895 1 1 0
1751 1 -1.2 11.277752351801357 4.008444821468697 7.12378902874529 0 0 0
638 2 2.4 12.210031387396556 3.112869072882304 8.248496056007733 1 0 0
655 1 -1.2 20.14106956575825 2.6309296822147967 6.550427092657821 0 0 0
1254 1 -1.2 26.488819774063195 3.758249589868155 7.644307913231212 -1 0 0
1847 1 -1.2 12.030473743466027 6.8214282983966745 8.465151607609119 0 0 0
984 1 -1.2 14.416283358826945 5.976187236310702 7.523742802933404 1 0 0
399 2 2.4 14.91958729236568 6.149328188978385 5.958523076696159 0 1 0
155 1 -1.2 15.859759031014864 7.4426913424540615 5.879869174830051 0 0 0
1388 1 -1.2 17.982140325266286 7.039838749023483 7.39777203452963 0 0 0
1334 2 2.4 17.373046308456512 8.03401253027496 6.305420423259262 0 0 0
1127 1 -1.2 22.24498646661029 6.144495205589199 8.172087946427752 0 0 0
352 2 2.4 23.57746224625918 7.0316553564869 7.7906880026221605 0 1 0
383 1 -1.2 23.185522892380362 7.849933061484356 6.375432816062466 -1 1 -1
457 2 2.4 26.212442042142488 5.332034177347071 8.01338045877627 0 0 0
2034 1 -1.2 24.81913273688813 5.9658185511559845 7.3676337296638055 -1 0 1
188 1 -1.2 27.37621817530467 6.288156177591456 7.2783007511584525 0 0 0
1084 2 2.4 27.966113449914577 7.382893580371748 6.215239877504971 -1 0 1
1037 1 -1.2 2.526316821680645 8.497114445350016 7.628204498784276 0 0 1
1526 2 2.4 1.188825038202554 9.115837757449878 8.411502408599222 0 0 1
875 1 -1.2 0.47565934627728884 10.122171834279944 7.410254612506831 0 -1 1
2075 1 -1.2 4.412855366731548 7.985095771227906 6.051615411241056 1 0 0
1272 1 -1.2 4.966298996572752 8.255646528637651 8.637162692646399 1 1 1
1070 2 2.4 4.122987856886016 8.844223905450173 7.394536120941364 1 0 0
729 1 -1.2 4.361786889067729 10.477492610799978 7.173718451097812 0 1 1
666 1 -1.2 7.5122029114780435 8.736012690708353 7.0478596718277045 0 0 0
871 1 -1.2 9.82704808432451 8.272418731493598 8.401579339162122 -1 0 0
159 2 2.4 8.206436348537274 8.436173676793313 8.55362062460065 0 0 0
1465 2 2.4 13.304619664033886 10.691592928996249 8.496567431857528 0 0 0
483 2 2.4 16.298428753160927 10.520537268779867 8.01304969271097 0 0 0
45 1 -1.2 14.813830180052145 10.14896939883954 8.46517898572511 1 0 0
725 1 -1.2 16.951042349609978 9.469494846322382 7.003871671000108 0 0 0
1165 2 2.4 22.366851849960657 9.236059824916731 5.915121063682854 -1 0 0
1524 1 -1.2 22.615197308438944 10.315421261443161 7.063210271848978 -1 0 1
485 1 -1.2 26.584190489500088 10.484185842385564 8.008732444018264 0 0 0
1123 1 -1.2 28.652542369027852 8.769071301265313 6.824304285306404 0 0 0
1647 2 2.4 29.458027232801758 10.216032505565993 6.566934736840835 0 0 1
1912 2 2.4 3.865238726657722 11.982639339633675 7.3544864051053755 1 0 1
228 1 -1.2 2.9884931276381845 12.52187683500246 6.130043845710757 0 0 0
667 1 -1.2 5.041452619064452 13.047688616769348 7.379138707072147 0 0 0
865 2 2.4 9.258132599629217 11.704182810933862 6.250168931584176 0 -1 0
396 1 -1.2 10.897163673729107 11.878420582003683 6.07904249443411 0 0 0
1052 1 -1.2 8.819005332154207 11.659897260408524 7.800082342872962 1 0 0
1426 1 -1.2 13.137009073230034 13.56211659867315 5.887042523811725 0 0 0
1959 2 2.4 12.514420541788834 12.043744012347858 5.823036267747282 0 0 0
1182 1 -1.2 13.134420563340012 11.179345426862477 7.024640801393933 0 0 0
281 1 -1.2 16.41378336958604 12.16103613609144 7.514917473594594 1 0 0
661 2 2.4 17.171306750724664 13.606509482563569 7.648440428174929 0 0 0
919 1 -1.2 18.733659647490146 13.142642715153219 7.8903006423436155 0 0 0
1434 1 -1.2 21.20316582290873 12.435224911692845 7.365520924548132 0 0 1
1659 2 2.4 22.71858153539594 11.853288684500416 7.555286464145636 0 1 0
643 1 -1.2 23.65324836522688 12.835035278770786 6.732752474358824 0 0 0
2061 1 -1.2 26.242813097670023 13.098297496401237 7.275105616567827 -1 0 0
218 2 2.4 26.912841622679448 11.618474368076095 6.942381140142386 -1 0 0
917 1 -1.2 28.619241721258224 11.563152813261977 6.894309108644269 0 -1 0
1301 1 -1.2 0.9426159054919624 15.32363727450884 8.328435089039735 0 -1 1
1083 2 2.4 2.2188360476498126 16.297299851683643 8.029904612912583 -1 0 0
1756 2 2.4 4.818183488240939 14.675647281922998 7.126570420992425 0 0 1
522 1 -1.2 3.351835537958317 15.165915414315135 7.517291597462294 1 0 0
888 1 -1.2 5.979362396024645 15.337496332581456 7.949637318625361 -1 -1 0
1261 2 2.4 10.000843463733096 16.257607924295733 8.359896196756345 0 1 0
972 1 -1.2 10.209270794729568 15.54037721191995 6.9408202109607435 0 0 0
5 1 -1.2 12.970685390594394 15.426201801839367 7.734027766814282 0 -1 -1
386 2 2.4 13.317231123633242 15.114831593904396 6.2164763732808535 -1 1 0
1698 1 -1.2 14.809331740412963 15.691217797960935 6.093309474575546 0 0 0
1896 1 -1.2 17.116429108869433 14.354930470738637 6.248888016133878 -1 0 1
876 1 -1.2 20.24772612843864 14.701561366020764 6.351123583394387 0 -1 0
1166 2 2.4 20.22353770798166 13.696785381403808 7.68813192067902 -1 0 0
1218 1 -1.2 24.6123784435847 15.27239897874869 6.413244146196913 0 0 0
1154 2 2.4 24.990193408764984 13.689960903600337 6.315070646692611 -1 0 0
2029 2 2.4 29.84482183402475 14.84953112581553 8.141462194263664 -1 0 1
451 1 -1.2 29.400166563012384 14.584650211408494 6.560319101776484 -1 -1 0
1625 1 -1.2 1.696418167177309 17.359919335271215 6.858426261213153 0 0 1
2009 1 -1.2 6.62930314429883 17.781403043318885 7.356893366599748 1 0 1
2090 2 2.4 6.479137119256218 18.890722070778885 6.242863542424939 0 0 1
748 2 2.4 6.930774651523147 16.552876097311724 8.408355008038875 0 0 0
978 1 -1.2 10.262568923544727 17.893373839493837 8.260120882416825 0 -1 0
690 1 -1.2 14.20305768262868 18.667323143922136 7.647743048970723 0 0 0
1683 2 2.4 18.63452774666104 17.739729719944584 5.865923807968949 -1 0 1
1193 1 -1.2 19.02644422077826 17.73784077161515 7.413472387536523 0 0 0
1674 1 -1.2 22.726167695609895 16.870798101693037 7.30408624124145 -1 0 1
1407 2 2.4 22.55732220216285 17.902932435956092 8.578557609788108 0 0 1
2005 2 2.4 24.150482505244867 16.894040613418955 6.380310852172152 1 0 1
1481 1 -1.2 25.29480844259457 17.627264967416973 7.243954066619628 0 0 1
1478 2 2.4 26.434855546376546 18.74745245423759 7.169089965761325 0 0 1
910 1 -1.2 27.213925743470515 18.821132380736636 5.684895995051632 -1 0 0
2070 1 -1.2 27.473911289176264 18.18112717632431 8.22255917745254 0 0 1
402 1 -1.2 1.1057452576632132 20.964788935123316 6.952855451835685 1 0 0
2092 2 2.4 0.594553471650672 21.932897544022286 8.268552314199372 0 0 1
1355 1 -1.2 5.163783530865578 19.862655148029116 6.261728966518591 0 0 0
316 2 2.4 4.7156944200377815 21.37585930750172 5.872441579323112 0 0 0
90 1 -1.2 7.733384886485338 20.011646372764442 6.473536506927805 0 -1 0
118 1 -1.2 6.92653181779229 21.584231819114706 8.466222927378976 0 0 0
1178 2 2.4 8.245171048100092 21.08276627880206 7.671817082159594 0 0 0
1986 1 -1.2 12.317712707455051 19.42540151872988 5.783800745292652 1 0 1
1532 1 -1.2 11.892386965602753 19.944714325641343 8.398227631345236 0 1 0
2030 2 2.4 12.998538564204997 19.847402496222347 7.261408874597777 0 0 0
395 1 -1.2 13.68388158385627 21.326978877751163 7.248581267977352 0 1 0
275 1 -1.2 18.477596166291963 20.830475602549434 7.663938323887832 0 -1 0
555 2 2.4 19.17587391452502 20.576133722320108 6.2410304083124615 0 0 0
1946 2 2.4 21.728207051473404 20.724233035549123 7.735875833851107 0 0 1
1796 1 -1.2 20.75479753921423 20.09089832829661 6.512695304232889 0 -1 1
1867 1 -1.2 22.631397934420168 19.414581706605944 8.089771968212398 0 0 1
1366 1 -1.2 25.789751366818415 20.154044663951467 7.686006570531014 0 -1 0
969 1 -1.2 1.3643566581830702 23.416968463158195 8.211205521475813 0 -1 0
607 1 -1.2 4.586982194323405 22.286587892949925 7.247746499626531 0 -1 0
918 1 -1.2 9.165181770624828 22.291543210957 7.113689592722567 1 0 0
733 2 2.4 10.076832685256308 23.52662097288377 7.818956847286066 0 0 0
1812 1 -1.2 9.824221358840864 24.870755346516045 7.047126655065947 0 -1 1
498 1 -1.2 11.656073057736453 23.109378458921434 7.50358650746078 1 0 0
351 2 2.4 13.149801770155618 22.826676590903325 6.984191371821742 1 1 0
499 1 -1.2 14.17491344110005 23.90434412507345 7.542538376089565 0 -1 0
1377 1 -1.2 19.07441820002389 24.13286617450557 6.6141021944076455 -1 -1 1
765 1 -1.2 16.688501654397058 24.737523949269512 7.10399478981403 0 0 0
1256 1 -1.2 22.523353686787463 22.09346493792737 7.319324520982956 0 0 0
279 2 2.4 23.6929214724025 23.12834371564493 6.85020962080951 0 0 0
1077 1 -1.2 23.442327958145952 24.631302996839885 7.378375537486734 0 0 1
343 1 -1.2 25.018643343611473 22.619655520788026 7.6750562767509765 0 -1 0
1336 2 2.4 28.25053947902415 24.16512107896614 5.782699212921723 0 -1 1
477 1 -1.2 29.43876401514718 22.264160082344436 8.2140618127654 0 -1 0
2113 2 2.4 28.041373151851715 23.072149815303124 8.640522734884039 -1 0 1
378 1 -1.2 27.53786922775851 23.709183581659204 7.155826985594349 0 0 -1
1820 1 -1.2 2.1463397339725927 26.030017866964535 8.105854513000654 0 -1 1
1444 2 2.4 1.7369410236331577 27.392063323359018 7.320573876911296 1 0 1
403 1 -1.2 1.0684580057808462 26.776950427115082 5.982497036338315 1 0 -1
528 1 -1.2 5.504409829247969 25.463151454375595 6.718629667878677 0 -1 0
160 2 2.4 6.417827728417796 25.852161638201597 8.027071385243184 0 0 0
8 1 -1.2 7.67620403255782 26.61824030306665 7.348802975734912 0 -1 0
1805 1 -1.2 10.117535857053799 27.433270260419597 7.580835793993133 0 -1 0
194 2 2.4 9.247567276384355 26.345883230499826 6.784442214130346 0 0 0
398 2 2.4 15.156400876330643 25.18420870408851 7.598688493863059 0 1 0
1409 1 -1.2 14.623164963566017 26.20238036651009 6.373354198312671 1 -1 1
2115 2 2.4 18.16892349788034 25.079617365054897 7.581274909732661 0 0 0
1602 1 -1.2 18.729990421169727 26.597484960527897 7.392000767989141 0 0 1
57 1 -1.2 22.492133464127413 26.810116627262193 6.424916171518162 0 0 0
784 2 2.4 22.992374172295044 26.139700718960118 7.82274036294319 0 0 0
549 1 -1.2 24.26501076159939 27.050999003981552 8.380529043317665 0 0 0
719 1 -1.2 29.404394255729095 25.191595418350403 6.225248915020909 0 -1 0
834 1 -1.2 0.5636487974164086 28.433894260501514 7.916942204679365 1 0 0
2041 2 2.4 4.00776911031782 28.975651513147334 5.801814861011444 1 0 1
1950 1 -1.2 2.9955105598635297 28.458205255827707 7.061537578529023 0 0 1
1172 1 -1.2 8.764441856142062 29.512886447224716 6.164210140045782 -1 0 0
700 2 2.4 9.780163915468554 29.064002100223078 7.493708712895116 1 0 0
1773 1 -1.2 11.305854822463855 29.562913297208585 7.3762599028265745 0 0 1
1029 1 -1.2 12.696212688187455 27.782338068577666 5.92940767609948 0 -1 0
1022 2 2.4 12.713664467625758 28.787629114150246 7.205094122142594 0 -1 0
54 1 -1.2 13.6295631483805 30.030357687123082 6.817323737434739 1 -1 0
2059 1 -1.2 17.283329348709536 29.082938262312144 7.56595275760774 0 0 0
1825 2 2.4 18.620988460601318 28.282983841695646 7.074911882732413 0 -1 1
1003 1 -1.2 21.892747349027445 29.97011508710697 6.273806499091492 1 -1 0
1561 2 2.4 21.36257560216591 29.94598157059987 7.80177053346437 0 -1 0
900 1 -1.2 20.002031212292607 28.922875477840613 7.748902646602106 0 -1 0
401 1 -1.2 22.459551753399918 29.063118694934364 8.645731741667264 0 0 0
1223 1 -1.2 26.95822425745299 29.577763176260138 5.612496878138939 0 0 0
713 1 -1.2 25.054542164465673 29.468914747018417 7.602621214380227 0 -1 0
63 2 2.4 26.655405219590445 29.88533229823086 7.236057459004813 0 -1 0
815 1 -1.2 27.418331177903237 28.900597461066827 8.330688679672484 -1 -1 0
2037 1 -1.2 28.98897272240551 27.782192650706225 5.682095316432063 -1 0 1
1806 1 -1.2 0.18441245863438377 0.6116627892922484 8.628645245582288 0 1 1
1163 1 -1.2 2.3433177366523923 2.221821266382957 10.522539547546073 0 0 0
572 1 -1.2 4.877213709742313 1.7053557033653692 10.249641026665989 1 0 0
229 2 2.4 3.5742722509141744 1.4707425898089879 11.341272690795153 0 1 0
1717 2 2.4 6.204466512370588 0.8932526396487677 9.844592956844837 1 1 0
1878 1 -1.2 7.386619107522607 1.8790673442475496 10.235872626760358 0 0 1
112 2 2.4 10.705179122198377 1.8505777141067052 10.680616559463724 1 0 0
310 1 -1.2 10.262076934022636 0.32858473947270744 10.601965791855076 0 1 0
1941 1 -1.2 9.544832725161164 2.7565119668147062 11.352038859167608 1 0 1
691 1 -1.2 11.073083461401307 2.3982359827491004 9.20004370940345 0 0 0
2106 1 -1.2 12.010347165378851 1.959435589482376 11.549871409234457 0 1 0
1340 1 -1.2 17.857004288618548 0.7366512258094788 9.085686541824431 0 0 1
1430 2 2.4 18.0692247882471 0.054208324272925254 10.611468918603096 0 0 0
930 1 -1.2 19.635757673995638 0.2508580750068902 10.957674133042552 1 0 0
295 1 -1.2 24.25918346704967 2.1823114384518822 11.542706147703349 -1 0 0
1183 1 -1.2 25.81819550088591 1.8592829066170322 9.338984490662428 0 0 0
1516 2 2.4 25.741475734622497 1.8086159537402813 10.957050620545825 0 0 0
1290 1 -1.2 26.115847505994875 0.38917969635955224 11.551747168714753 0 0 0
1678 1 -1.2 28.51026887322496 2.426481346580326 8.787768880170363 -1 1 0
3 2 2.4 2.246307848598629 3.580762006487527 9.62542738909377 0 0 0
140 1 -1.2 0.8473013075973715 3.1794276897805274 8.753333155513301 1 0 0
2158 1 -1.2 2.1520127822343507 4.9090920587278015 10.646574814386266 0 1 0
981 1 -1.2 3.5529160200497643 3.8996569293760386 8.681324439411943 0 0 0
1104 1 -1.2 4.77143681587852 4.974787340740066 11.576041404925077 0 0 0
579 2 2.4 7.594103616550275 5.3746620801494185 8.710763656586678 0 0 0
996 1 -1.2 7.911540788111219 4.500595075298582 9.999783282759857 0 0 0
709 2 2.4 8.001727229758167 3.1791350133614933 10.97790142247873 1 0 0
912 1 -1.2 12.978907792911835 4.286935902775949 9.03093326325823 1 0 0
777 1 -1.2 16.484342201210293 3.4877627471942896 10.698025232120973 0 1 0
1274 2 2.4 16.903595430349224 5.040220739839903 11.02949677127693 1 1 0
1545 1 -1.2 21.481203721773188 3.7082525164632743 8.547761699398382 0 1 0
100 2 2.4 21.317091146287062 5.243981065854438 9.170293821029937 -1 0 0
1221 1 -1.2 0.040030581628102996 8.096292751766518 9.093292332111549 1 0 0
864 1 -1.2 3.507907198269602 7.199515976926727 10.713514905217975 1 1 0
771 2 2.4 3.2909154745108085 5.793974603470529 11.561538926232604 1 1 0
414 1 -1.2 7.554797977613349 6.9827587356081455 9.020770340712186 1 1 0
1803 2 2.4 13.310760763864163 5.897653690576552 8.70490237501333 0 0 1
1074 1 -1.2 11.12519357283019 8.082996670874312 10.760779795267014 0 0 0
1828 2 2.4 11.319023899887101 8.235810274006319 9.11152862502167 0 0 1
489 1 -1.2 13.740552679438165 6.397062166262853 10.207600227337334 1 0 0
1629 1 -1.2 17.286805734525625 5.661433248981582 9.56045892854005 0 0 1
28 2 2.4 18.413981161292106 6.61126421830484 8.902857464595103 0 0 0
393 1 -1.2 18.532304152845423 8.065754656554354 9.645090133949687 0 1 0
341 1 -1.2 19.78958569883498 5.775757442889128 8.982769371410104 0 1 0
923 1 -1.2 21.849427018661352 5.3922794574099475 10.66469469011152 0 0 0
1691 1 -1.2 24.203306563785894 8.059960468880183 8.890204111812597 0 1 0
1040 1 -1.2 26.381104065051872 5.468841253529087 9.633097036756366 -1 0 1
1610 2 2.4 26.779296266918244 6.424238420007348 10.869700196328688 -1 0 0
1749 1 -1.2 25.42625775140236 7.30678511577986 11.141839718378542 -1 0 1
516 1 -1.2 28.1174669349607 7.20441125512195 10.461031637463188 -1 0 0
699 2 2.4 29.36647342847337 8.24708617769392 10.288259133657776 -1 1 0
1554 1 -1.2 1.7243534572708894 9.879785661355136 9.71352898571958 1 0 0
1033 2 2.4 4.582873109519809 8.379730046465674 10.259635643013947 0 0 0
653 1 -1.2 4.151249748352683 9.94090157505813 10.379470582904633 0 0 0
565 2 2.4 2.9052857175898397 10.91813285061102 10.033664202624328 1 0 0
2022 1 -1.2 6.026282785583699 8.28674490103052 11.128943812297312 0 0 1
30 1 -1.2 7.86184612611758 9.832159905379449 9.500110259175404 1 -1 0
167 1 -1.2 12.22593228261908 9.55715074132012 8.826581842428135 -1 0 0
1061 1 -1.2 17.16630606161217 10.40881514483762 9.355449357422238 1 0 0
1537 2 2.4 17.865061580227014 9.346943740666104 10.342243239521563 0 0 0
466 1 -1.2 19.156290935658294 10.249020977463395 10.994481193763116 0 0 0
1877 1 -1.2 16.90552350336563 8.669263567300067 11.428605791375684 -1 0 1
1134 1 -1.2 23.340126827244497 8.94224950639253 11.18008079597865 0 0 0
88 2 2.4 24.655308603793618 8.551130613797067 10.317921679217685 0 0 0
267 2 2.4 27.06741812183951 10.386984556698598 9.568175602897036 0 0 0
1558 1 -1.2 25.594140105088833 9.937267322797506 10.26887034673132 0 1 1
321 1 -1.2 28.496232048164853 9.666689320357202 9.923968459806371 0 0 0
1987 1 -1.2 2.630285411689018 11.731192821267614 11.398702372588735 0 1 0
238 1 -1.2 3.07578232523045 11.979874171118057 8.83703444709804 0 0 0
1124 1 -1.2 7.397011380061683 12.503284940288353 10.032951083671403 0 1 0
315 2 2.4 7.483435382234648 13.338833558510062 11.468414734519596 0 0 0
482 2 2.4 8.506161184800291 11.352574258033366 9.379041217062325 0 0 0
300 1 -1.2 9.887840185720783 11.448913048123972 10.310410898976253 0 0 0
146 2 2.4 10.37720111297041 12.21379896129968 11.650344140011562 0 0 0
621 1 -1.2 11.883161291892042 12.958134530154949 11.46353769818689 1 0 0
248 1 -1.2 13.054570011229508 11.977636088648913 9.429994717854992 0 0 0
952 2 2.4 13.23949983112433 12.962233555319616 10.600216113672774 0 0 0
69 1 -1.2 19.618052394964593 13.007572996392119 11.00841141663168 0 0 0
1266 1 -1.2 22.202290505265 13.603906853730397 11.041003842344828 0 1 0
1118 2 2.4 23.38291657378731 12.58194878790751 10.557883766128372 0 0 0
1158 1 -1.2 23.16078850904736 11.907134498254875 9.11453994545301 -1 0 0
1076 1 -1.2 24.701095248175108 13.604205981752507 10.58617489686722 0 0 0
2066 2 2.4 28.53729120539466 13.032218052249235 10.449059451980272 0 0 1
619 1 -1.2 29.45796727406712 13.581095202890577 9.173129092912479 0 0 0
1078 1 -1.2 27.56346448604645 11.90530845387883 9.999926708957366 0 0 0
1608 1 -1.2 7.236749918611109 14.992041802599088 11.252208993701725 0 0 0
992 1 -1.2 8.447334247694615 16.006172988018253 8.604428517456418 0 0 0
1233 1 -1.2 10.994825793010113 15.561850750925068 9.506032398473195 0 0 0
967 1 -1.2 13.45054232440225 14.544127440462765 10.231660647288141 0 -1 0
1130 2 2.4 12.680371648598161 15.683360273481673 9.297288127097303 0 0 0
1424 1 -1.2 16.53289262091341 15.893032824371547 11.144150892245673 0 -1 1
1234 1 -1.2 16.54322825927761 14.642716817636854 8.78908539575275 0 0 0
1094 2 2.4 16.918972947116085 16.061184892316074 9.615510570906032 -1 0 0
180 1 -1.2 20.799450987084068 14.52371680499908 9.037832031502978 0 0 0
651 2 2.4 20.707188941961892 14.16414441863945 10.66823993525063 -1 0 0
1594 1 -1.2 20.618430502413226 15.531401726996014 11.528210590063765 -1 -1 0
2020 2 2.4 26.05196067278763 14.032641869802786 11.424855937687468 -1 0 1
221 1 -1.2 28.78990135185356 15.991435776086847 8.587415286110433 -1 0 0
1589 1 -1.2 27.510284453074796 14.248143086147282 10.700000510071426 -1 0 0
647 1 -1.2 1.3439163157494545 18.85689564506937 11.01166566160692 1 0 0
852 1 -1.2 2.679292729459871 16.99335998476352 9.38003703555527 1 0 0
388 2 2.4 2.5656417235857707 17.795190154122047 10.745138723187303 0 1 0
173 1 -1.2 4.016988546611407 18.584177193443608 10.80104140679279 0 1 0
424 2 2.4 7.286841865361291 16.659622366424372 11.254943322585502 0 0 0
1433 1 -1.2 6.491542018430959 17.168125503630375 9.877818786190426 1 0 1
1876 2 2.4 10.598571003801245 19.27300873545274 9.058394886756794 0 0 1
1413 1 -1.2 10.703870995897129 19.077413307335476 10.66243849752095 0 0 0
787 1 -1.2 8.828747751789969 17.367346921287798 11.295859592513233 1 0 0
65 1 -1.2 13.263299990732245 17.113011388752284 9.734509041520047 1 -1 -1
546 1 -1.2 14.74995496429141 19.13885861490437 10.393933360323711 0 -1 -1
649 2 2.4 14.519607031473013 18.060162445750567 9.152241764016871 0 0 0
222 1 -1.2 15.793912530696245 17.093429094131018 8.94204033446726 0 0 0
143 1 -1.2 18.466365076637363 16.467396026373013 9.628095264896874 0 1 0
511 1 -1.2 18.98703187269614 19.098993497395757 9.565472499141043 0 -1 0
219 2 2.4 19.44620952751889 17.615222188235773 8.983888765755536 -1 0 0
2014 1 -1.2 21.047267411094996 17.50152779473745 9.175688760694461 0 0 1
907 1 -1.2 23.656082469560726 17.554679002007322 9.696467594676298 0 0 0
590 2 2.4 23.782515946498243 18.00287505247128 11.337368130978684 -1 0 0
737 1 -1.2 29.769448648132514 18.351533771467498 9.356264834784545 -1 0 0
1420 2 2.4 28.433584481797947 17.44627193706833 9.283473869862656 0 0 1
812 1 -1.2 27.649857372482582 17.32409385555837 10.701862258619546 -1 -1 0
682 1 -1.2 0.7060701510101136 20.829603083364162 9.494426771115403 0 0 0
628 2 2.4 0.010096482988960946 19.558667196354374 10.286486447780918 1 0 0
1713 1 -1.2 4.626667504599577 20.48342991840318 9.189698315385753 1 0 0
937 2 2.4 4.583294636584099 20.12477369475811 10.829429369678314 0 -1 0
592 2 2.4 5.32577142402006 21.78948617401897 8.604579051456005 0 0 0
1101 1 -1.2 6.029224095790238 20.620579047141206 11.380281110399846 0 0 0
773 1 -1.2 9.233554705157939 20.227353249396742 8.654523258709952 0 1 0
449 1 -1.2 8.456657305335275 20.16015451337187 11.50810037466013 1 -1 0
2076 1 -1.2 18.72876511109837 21.347022450900734 10.37572402891529 0 0 0
795 2 2.4 19.270452132050227 20.59093768416615 9.124567511404472 -1 0 0
1991 1 -1.2 20.79525210140501 21.05526761446134 9.02854871164456 0 0 1
170 2 2.4 23.996129493601273 20.973240516344454 11.422067583649032 -1 0 0
348 1 -1.2 24.635151814168296 21.022575866140315 9.929307301083643 0 0 0
109 2 2.4 25.583692490720527 21.441957898095076 8.710545314316553 0 0 0
858 1 -1.2 29.30323468335712 20.25483253323979 11.260314961079764 0 0 0
929 1 -1.2 4.966017689883685 22.938083028581 9.737931677829296 0 -1 0
350 2 2.4 4.151775263351649 23.972877923561278 10.761142673215202 1 0 0
1102 1 -1.2 2.7083764715582386 24.397823651873672 10.1519004246397 0 -1 0
2046 1 -1.2 7.662254212447659 22.743599277713834 10.966973146680584 0 0 1
270 1 -1.2 7.081076545408677 24.699801885094374 9.016913991578324 1 0 0
1161 1 -1.2 9.562133704388785 23.624554033574757 9.357585429605512 0 0 0
640 2 2.4 8.215497184837414 24.144783538760027 10.202119112938039 0 0 0
1075 1 -1.2 18.40116768298855 24.775044190795256 9.15199108396746 0 -1 0
299 1 -1.2 21.857100360753662 24.433591560127837 11.055849992054545 -1 -1 0
1607 1 -1.2 27.026101078733486 21.933930205199495 9.245494324233842 0 0 1
874 1 -1.2 28.17957725854862 24.179874299937623 9.843516824260812 -1 -1 1
1935 2 2.4 1.640859207606999 24.821265809669008 8.967227613027896 1 0 1
2010 1 -1.2 0.31735018858316427 25.436197047975707 9.745143136437791 1 0 0
476 1 -1.2 4.9420031377880385 25.37177188564322 11.226201063786228 1 -1 0
1250 2 2.4 5.177302630402859 26.892585135607156 10.60500311328348 0 0 0
214 1 -1.2 5.552667082032762 26.923051771282662 8.972229966605118 1 -1 0
1353 1 -1.2 6.362711885748349 27.59040930006193 11.486992587044057 0 -1 0
1352 1 -1.2 8.675972992837611 25.538907105535895 10.9464196090503 0 -1 0
766 1 -1.2 13.154870258028854 26.204170806842818 10.467739056834928 0 0 0
720 1 -1.2 15.172507883614893 25.973086461482314 9.011716485659461 1 0 0
469 2 2.4 14.12253826871913 27.083049385127314 9.569662257366952 0 -1 0
2119 1 -1.2 17.25519285800142 26.574754183865316 10.795778610762925 0 0 1
745 2 2.4 18.45441498374701 25.514893893229317 10.626022022055677 0 0 0
502 1 -1.2 19.849298246195197 26.379225396338427 10.638907556742614 0 -1 0
568 2 2.4 21.462592535441793 26.010665522526246 10.55007655834683 0 -1 0
2111 1 -1.2 21.909697751418168 26.103753154745046 9.003476425869179 -1 0 1
1173 1 -1.2 22.198396378958233 26.97551492772739 11.727922958589726 0 -1 0
247 1 -1.2 28.466130025753476 26.76226541909568 9.677597850987558 -1 0 0
1705 2 2.4 29.134205364375816 25.43960767812475 10.274821075971786 0 0 0
148 2 2.4 0.4725512841816737 29.579066143094312 9.116394026927562 1 0 0
869 1 -1.2 1.7183082466434818 29.21571345050565 10.101491634071571 0 -1 0
252 1 -1.2 3.8417059153246265 27.760437535204257 10.968845930169262 1 0 0
997 2 2.4 2.7428166842104678 28.906399528409224 11.29763948878135 1 -1 0
185 1 -1.2 5.93283892896014 30.0417857878207 10.693896453462642 1 -1 0
317 1 -1.2 9.001119869409306 29.507581447472504 8.814458003129817 1 0 0
1417 2 2.4 9.457318721189557 29.412052749352046 10.407314163746204 1 -1 0
156 1 -1.2 10.165256959915487 27.939317516303596 10.533091725080498 0 -1 0
1097 1 -1.2 8.306854508143333 29.438477872434753 11.579026663399194 0 0 0
960 1 -1.2 13.104536545653785 27.965451342124286 8.548035895733877 0 -1 0
144 1 -1.2 15.108720823505516 28.146042033741622 10.295779884681158 0 -1 0
1761 1 -1.2 17.704178534500947 29.008368217593326 10.698944904536079 0 -1 1
1971 2 2.4 16.514169146775703 28.045475948484988 11.093389262684898 0 0 0
639 2 2.4 24.11209801783736 28.78187109024208 8.711086820504955 0 -1 0
1783 1 -1.2 24.62141508230551 29.05459566327461 10.204237881732835 0 -1 0
1156 2 2.4 25.841191934087263 29.2739566968999 11.337755542602995 -1 -1 0
1530 1 -1.2 27.323206187385864 28.55180848254024 11.051946039531227 -1 0 0
198 1 -1.2 29.487778189146795 29.18354305653977 9.950397572241531 0 0 0
769 2 2.4 28.187033708166226 28.328287983652185 9.654705764158233 0 0 0
552 1 -1.2 3.374567279124724 -0.13095503713448206 11.63951964517182 1 0 0
80 1 -1.2 3.8091728774649987 2.274957770804772 12.857071220651031 0 0 0
1771 1 -1.2 10.497534317857992 1.6466257463842662 14.14816162584547 0 0 1
1309 2 2.4 11.747854789898224 2.60921047442758 14.402989633032794 0 0 0
467 1 -1.2 13.14892253014694 2.014156787854152 13.799898293845727 0 0 -1
986 2 2.4 13.265784316270052 1.2714046219741058 12.359053119104036 0 0 0
2144 1 -1.2 14.669084934417207 1.624038660921269 11.54793980185749 0 1 0
157 2 2.4 16.131328054841447 2.261630139269229 11.68862023391743 0 0 0
2160 1 -1.2 17.22437506580137 1.1064080467680897 11.526803682183738 1 1 1
1492 2 2.4 20.385373999080343 0.09685169595583487 12.472125280082393 0 0 0
408 1 -1.2 21.86817525610517 0.8397991091861712 12.337926261047459 0 1 0
10 1 -1.2 19.58571977821618 0.7951717455456889 13.703859617352636 0 0 0
1514 2 2.4 22.894233574552835 2.001739398593072 12.427299346749248 -1 1 0
2153 1 -1.2 23.362179410616456 2.133237502796411 13.947534081574844 0 1 0
355 1 -1.2 26.824138618115043 2.899388909877689 11.420486063595247 0 1 -1
873 1 -1.2 30.226850666021694 2.245706201166494 14.013586922152435 -1 0 0
1404 1 -1.2 1.0154085276831408 4.759472425078126 13.677132296483045 0 0 0
942 1 -1.2 5.537021546073187 5.07984583033757 14.09976846585348 0 0 1
1372 2 2.4 6.063966801894238 4.851209076338801 12.554022986152711 0 0 1
1929 1 -1.2 7.042242927157069 3.6069144557112 12.233820695339018 1 1 0
631 1 -1.2 11.608018078806879 4.034706441383078 13.643641327452164 0 0 0
113 1 -1.2 16.30403901258422 2.825224963968496 13.227943852046533 0 0 0
1983 2 2.4 17.297639434053572 3.316295574855187 14.352549392890438 0 1 1
174 1 -1.2 18.18633459068237 5.360975129386932 11.909548872957615 0 0 0
1100 1 -1.2 18.77555343027871 4.03501942049205 14.017242020713464 0 0 1
51 2 2.4 19.07794295440841 5.414778518830698 13.205256005018242 0 0 0
436 2 2.4 21.980588130308064 4.924275028698701 12.213686265364332 -1 -1 0
2063 1 -1.2 21.872149646942848 3.295093369818088 12.131536134490899 0 0 0
1429 2 2.4 27.520965516701068 3.9663790044976985 12.470756758261624 0 0 0
1339 1 -1.2 27.273372822853293 3.4066380569175236 14.027301882243753 0 0 0
533 1 -1.2 26.9640315603677 5.4469572067635506 12.15627802362761 0 0 0
1144 2 2.4 30.064990569593153 3.924774192966219 13.891288873822432 0 0 0
257 1 -1.2 29.15965168674638 4.0154689968123165 12.450783408201827 0 1 0
327 2 2.4 1.7379310367341314 6.131453200376936 14.220507864546615 1 1 0
743 1 -1.2 0.9135882571796341 7.488841760442161 13.885372333581067 0 0 0
1437 1 -1.2 2.9999232555088446 6.168767548946389 13.12845988896631 1 0 0
9 1 -1.2 7.083816039687216 6.082937643284267 12.31474036228007 0 0 0
1310 2 2.4 7.1311698604617355 7.65125308046896 12.169680685027929 0 0 0
571 1 -1.2 8.66880356033612 7.931057162346172 11.592606399416301 1 0 0
33 1 -1.2 10.598169857924157 6.180513797012042 12.473320473032551 0 0 0
1012 2 2.4 10.287456560363864 7.707561229957639 12.039439577155123 0 0 0
915 2 2.4 11.647460416181454 5.609116190686974 13.564449782955894 0 0 0
599 1 -1.2 13.08282181699112 6.124831179102696 12.849354104828915 0 0 0
675 2 2.4 14.241410987003635 6.549538812559513 11.753843974668456 0 0 0
1727 1 -1.2 15.580075083818466 5.559410444413293 11.76097629084672 0 1 0
103 1 -1.2 14.644430743004083 7.944650885644129 12.457458155411869 0 0 -1
429 1 -1.2 18.5883079058864 6.601641759397613 14.183690891057148 0 1 0
1259 1 -1.2 20.655762836230426 5.588784199053716 12.93635536285252 0 0 0
1121 1 -1.2 23.244663056391268 5.46799444269472 13.078375345036967 0 1 -1
189 1 -1.2 1.755289705145965 9.792135607244711 13.105029357943657 0 0 -1
1107 2 2.4 0.41241263354208846 8.86048551916955 13.108262390895339 0 0 0
1188 1 -1.2 6.900307268593055 8.424322218579784 13.580098625424599 0 0 0
231 2 2.4 10.337432517382137 10.108103546778231 13.984305638130893 0 0 -1
943 1 -1.2 10.783847053612016 8.609250094123482 13.262438687849679 -1 0 0
1529 1 -1.2 8.775827159124326 10.184149722061383 14.388334247030283 0 0 1
887 1 -1.2 15.347670847172981 10.438912354013576 12.7416116880705 -1 -1 0
940 2 2.4 15.920995655420153 8.889092859144226 12.70625908447281 0 0 0
259 1 -1.2 16.644905143367343 8.397635378346944 14.126978675698783 1 0 0
1882 1 -1.2 21.709069050477574 9.899029922560285 13.106713144340693 -1 0 0
1369 2 2.4 20.331277399515766 10.268643767379452 13.933416088110546 0 0 0
1018 1 -1.2 19.244907255606417 9.107945945488362 13.99561695481624 0 0 0
1839 2 2.4 23.139412164829245 10.05171385177775 12.373938634124299 0 0 1
2131 1 -1.2 24.529573469251794 9.789973980709224 13.234405998215307 0 1 0
785 1 -1.2 27.059339322661376 9.737197669361557 14.01994691945329 0 0 0
1331 1 -1.2 30.107658341321386 8.32884722366036 11.737001006357744 -1 0 0
1038 1 -1.2 29.65714788656169 9.606553442555711 13.975692165653259 0 0 0
1368 1 -1.2 1.216885106496938 12.289087933455079 13.460774441260561 1 0 1
1790 2 2.4 2.3977265498421643 11.277148786895836 12.907061537258297 1 0 0
1970 2 2.4 0.13470944723101766 13.294551238515103 12.80792226463427 0 0 0
883 1 -1.2 3.878611664864854 11.662132028299766 13.582317287759434 0 0 0
819 2 2.4 5.429159499127999 12.181248277614639 13.81255488764921 0 0 0
1665 1 -1.2 6.233500632793589 10.879883990138321 14.346783793432621 0 1 0
1027 1 -1.2 6.308152000164466 12.845254311584815 12.553846837475657 0 0 0
1056 1 -1.2 10.792693358512421 11.208009044277436 12.822054962288277 0 0 0
1398 1 -1.2 9.063669597234219 13.160525224614227 12.009678957485262 0 0 0
500 1 -1.2 15.3559239316298 12.764890212707313 13.82752939182092 0 0 0
615 2 2.4 15.723794439187223 12.023858150376357 12.456052523110362 0 0 0
1302 1 -1.2 14.556263593143242 12.59069419291188 11.382884088332181 0 0 0
1051 1 -1.2 17.27565806067887 12.044283538891925 11.894582962335834 0 0 0
614 2 2.4 18.95603085586364 11.660179655195883 11.708110262942675 0 0 0
714 1 -1.2 19.44834842827669 11.536168946729434 13.271150878990623 1 0 0
1637 1 -1.2 23.384324620580657 11.511585537500777 11.762280909014875 0 1 -1
586 1 -1.2 26.18992299140641 13.041248291743198 12.722466986861235 -1 0 0
421 2 2.4 25.801528591828507 13.18062943442769 14.26823391375933 0 0 0
2086 1 -1.2 29.567038979753995 12.606515508712171 11.6708649025024 0 0 0
1231 1 -1.2 29.51393581342254 13.631016695582762 14.079117862010468 -1 0 0
428 1 -1.2 0.8825694969804031 14.546341836095111 12.144459764679857 1 1 0
1755 2 2.4 1.333391804151278 15.905419403907047 12.938038995908748 0 0 1
437 1 -1.2 2.3929574022164806 15.389716024793834 14.136230199490186 0 0 0
775 1 -1.2 15.965312415230454 15.403219101153208 13.766152378266572 0 -1 0
542 2 2.4 21.407842854062096 16.302471722339 12.70018502352251 0 0 0
1675 1 -1.2 21.918376196462756 15.115190955846389 13.778172370877263 0 0 1
539 1 -1.2 24.42801946249031 14.16017033292387 14.29035328206367 0 0 0
1080 1 -1.2 25.78463027764345 15.58030101169972 11.947419488792578 1 -1 0
210 1 -1.2 2.336075851543161 16.803183195821624 11.974162979450394 1 0 0
2013 1 -1.2 -0.11366126231896512 16.55544738981243 13.205405283056992 1 0 1
1271 1 -1.2 4.883613731455013 16.514450964081732 14.220042473341408 1 1 0
524 1 -1.2 5.545755731097275 19.181605548335455 13.979504147244754 0 0 0
927 2 2.4 6.035904653938082 17.64831713990861 13.898703132226531 1 0 0
802 1 -1.2 6.359273442480593 17.25920654511826 12.403531512416407 0 0 0
225 1 -1.2 10.182092298868628 18.84992329831444 13.14470516934655 0 0 0
961 2 2.4 9.386686378071579 18.844758539368915 11.701951905520463 0 -1 0
701 1 -1.2 15.41768332849298 17.888205333097883 12.640363403890477 0 0 0
1093 2 2.4 16.42748045861554 16.53853939403064 12.635427659853582 0 1 0
859 1 -1.2 17.895812805877156 17.147017110298833 13.118862240687982 0 0 0
1792 2 2.4 19.107518031356165 18.228644144317855 13.525230683663983 0 -1 1
223 1 -1.2 20.442994928740188 17.31596343546719 13.511795267345166 -1 0 0
1966 1 -1.2 22.725174182714014 17.09879504751012 12.226344266552873 0 0 1
518 2 2.4 26.583917021347812 16.992313727496544 11.929809938414886 0 -1 0
1926 1 -1.2 25.34159204243549 18.092465956954275 11.83916050510412 0 0 1
1808 1 -1.2 27.566460550294487 16.956078646817975 13.220016484557222 -1 0 1
585 1 -1.2 29.529449594812974 18.94016209086212 13.499059488268784 -1 -1 0
903 2 2.4 29.086097563991714 17.40363783106023 13.799550721046437 0 -1 0
1199 1 -1.2 1.5672631610284928 21.89983219478547 13.09370973612102 0 0 0
2097 1 -1.2 3.7541037104667923 21.135540326036317 14.051986447725694 0 0 0
878 2 2.4 3.136386702589163 21.88670920513739 12.764895700079535 0 0 0
1786 1 -1.2 3.327901884745593 20.837287253849063 11.571074190942065 1 -1 0
521 1 -1.2 7.59843811097777 21.623752638403513 13.411036081863354 0 -1 0
735 2 2.4 7.348492403742659 21.352261845316697 11.86758051520235 0 0 0
1458 1 -1.2 12.208228796329244 20.086040745814486 14.202653037893452 0 1 0
1324 2 2.4 13.679395600006002 20.892697860583237 14.10012258747916 0 -1 0
939 2 2.4 15.290825080792581 19.323636224158836 11.87225896117068 -1 0 0
1653 1 -1.2 14.456680699958607 20.355822239968752 12.757553550965248 1 0 1
1596 1 -1.2 16.790756258874218 19.905572370203785 11.619804327397997 -1 0 0
2089 2 2.4 18.204032817158723 20.686411869105587 11.848368055442819 0 0 1
1138 1 -1.2 19.269124031382006 19.532404676622043 12.478157865937257 0 0 0
20 1 -1.2 18.128282292493726 21.934409838513286 12.850607495492195 -1 0 0
116 1 -1.2 22.72424805073211 22.015131604491852 11.614873914794886 0 -1 0
882 1 -1.2 23.25348862326089 19.55799135346374 11.544443193496349 0 0 0
1422 1 -1.2 25.08267695089506 21.303607491794757 12.621034098064259 1 0 0
1095 2 2.4 25.975354847554296 20.601100399858005 13.869143435858094 -1 0 0
1579 1 -1.2 27.275038232479208 19.995760096354914 13.03589352694029 0 0 0
443 1 -1.2 29.267031318041642 21.681816378573515 13.508565045616177 -1 -1 0
1645 2 2.4 28.799612154292152 20.254453250135313 12.783600522119741 0 0 1
1468 2 2.4 0.2762230048321809 22.36741886056377 13.958621204188965 1 0 0
1626 1 -1.2 0.17531407198545454 23.95354139969446 13.636016503875013 1 0 0
298 1 -1.2 3.8732333365315044 23.315957432484783 12.266958568406325 0 0 0
2121 1 -1.2 13.425218691797994 22.45089507281199 14.01505499834226 0 0 0
158 2 2.4 13.39719372439975 24.126512899493257 14.236489992324255 0 0 0
1049 1 -1.2 18.433690476290515 24.39957702982347 11.764587685149651 0 -1 0
111 2 2.4 19.010742261227872 23.388765222913943 12.940307371099978 0 0 0
1664 1 -1.2 18.49146226035876 23.908238827177918 14.34613746039017 -1 0 0
755 1 -1.2 20.627794439967328 23.159581389338175 12.896264064521423 0 0 0
243 2 2.4 22.07924003475351 23.39852393415528 12.17174793872602 0 0 0
693 1 -1.2 23.20667468272539 24.007243749420738 13.165314133659633 0 0 0
52 2 2.4 1.8529854389364266 27.513390634318004 14.001854410826434 1 -1 0
382 1 -1.2 0.8836990444956883 26.369457489752715 13.451322523480819 0 0 0
441 1 -1.2 9.13153530581804 27.35506209928186 12.951967906747933 0 -1 0
1455 2 2.4 9.717241055579093 26.679158904891274 11.544191125518317 0 0 1
1858 1 -1.2 13.50985943430636 24.82770504629857 12.736276149981435 1 0 1
764 1 -1.2 11.071644660982187 25.891042416132315 11.899531949985896 0 0 0
277 2 2.4 12.662689933359577 26.04895085859734 11.960694559299167 1 0 0
671 1 -1.2 13.175317276268705 27.472919302774372 12.607297451037022 0 -1 -1
1332 1 -1.2 20.76236823214603 26.696029180850235 13.989285601025667 -1 -1 0
1312 2 2.4 30.002176468419595 25.4078154048696 13.312475952839876 0 -1 0
1244 1 -1.2 29.297000341069857 25.419363064211634 11.858874164255763 -1 0 0
83 1 -1.2 2.1115435299179466 28.549476485527997 12.703974237859706 0 -1 0
1240 2 2.4 6.731209604294418 29.162501284938017 11.811664953370352 0 0 0
1115 1 -1.2 6.308233971140364 29.4789567077399 13.33743016478652 0 -1 1
1139 1 -1.2 9.185866530491936 29.99432026114491 14.074414553462718 0 -1 0
998 2 2.4 9.731097535647521 28.474962064863092 14.159520103291127 1 -1 0
884 1 -1.2 11.38184120297463 28.462445226260364 14.02365190573873 0 -1 0
1518 1 -1.2 12.984554689905451 30.230622246006906 12.572032951803187 0 -1 0
1347 2 2.4 12.88676413737096 28.790064619856402 13.415496435600987 0 -1 0
227 1 -1.2 14.17411867079878 29.006462176354496 14.356257256911448 0 -1 0
1276 2 2.4 15.709824714628109 28.312481420244648 14.26419051363939 1 0 0
102 1 -1.2 16.323938429788054 28.286334291784552 12.731878915583964 0 -1 0
1824 1 -1.2 20.576245883945464 29.02590985162897 12.85187115203832 -1 -1 1
2080 2 2.4 21.613771643843553 27.789436485717832 13.039669118173146 0 0 1
531 2 2.4 24.454310656331522 28.859953350137957 14.150113343401246 0 -1 0
905 1 -1.2 22.90778176840159 28.462526971054398 13.803546915603476 0 -1 0
645 1 -1.2 25.23915793443079 28.652598016644504 12.767271513431304 0 -1 0
763 1 -1.2 2.1621644819728374 1.4433860768319804 14.957047885796019 1 0 0
76 2 2.4 0.4890024449137539 1.3926984636996782 15.18980030554211 0 0 -1
1733 1 -1.2 0.11014419740277523 2.021564947706638 16.672645327706558 0 0 0
644 1 -1.2 0.14078861014926805 30.298283235917477 15.147697731039964 1 -1 0
448 2 2.4 3.692373344303969 1.813633979591563 14.416190523002044 0 -1 0
1248 1 -1.2 4.649337797688629 0.5704194425690629 14.84464152440538 0 0 0
1351 1 -1.2 7.408529078929102 0.8765818271394515 14.948603964144906 0 0 0
232 2 2.4 9.126266330573735 1.0251353997976604 14.997943218428595 0 0 0
1026 1 -1.2 9.781260876537969 0.2976210520002579 16.331789846849382 0 0 0
686 2 2.4 13.373912742675019 2.4375019179955775 16.858710273659145 0 1 -1
1269 1 -1.2 13.59893092236452 0.9136066221601846 16.561176753308814 0 1 0
2130 1 -1.2 17.734702234582194 2.0365168091134898 15.297427755754002 0 1 1
1023 2 2.4 19.102611224420535 1.0522456931234387 15.269676944290117 0 0 0
2098 1 -1.2 20.33878960900619 1.8634305419789592 16.010080957005965 -1 1 0
2002 1 -1.2 23.115273770107382 1.38294484204793 16.278433926788317 0 1 0
855 2 2.4 24.16694229888241 1.4142056802962832 15.076481768571567 0 1 0
606 1 -1.2 24.615987663206266 -0.05931670350418463 14.651066611394892 0 0 0
612 1 -1.2 25.516707567043063 2.224410726262656 15.59717919300031 0 0 -1
1467 2 2.4 5.179075440475246 4.341918016280335 15.470746450389745 0 0 0
1159 1 -1.2 4.192702124091988 3.108593014633381 15.318845118436014 0 0 0
186 1 -1.2 4.436726300398491 5.36963871235889 16.531820791754438 1 0 0
1690 1 -1.2 6.559914701248953 3.893590616702735 16.182494954330544 1 1 0
2019 2 2.4 8.174412960722588 3.869877222868694 16.356342367848416 0 1 1
727 1 -1.2 8.956750459673298 2.6559121387211015 15.533018228134685 0 0 0
1932 1 -1.2 8.855208282146567 5.3679056657536215 15.82788913985465 1 0 1
119 1 -1.2 11.96683959527438 2.7986896658808056 16.099009890305624 0 0 -1
591 2 2.4 15.759904547284627 4.371408201667462 16.69600010551276 0 1 0
744 1 -1.2 14.581375203331685 3.332151771470236 16.31175414336866 0 0 -1
1697 1 -1.2 16.646261951554578 4.509968743505315 15.326318485581666 0 1 0
786 1 -1.2 22.81357745693487 5.047893100948302 15.809797691660075 1 1 -1
1699 1 -1.2 25.204507382252068 4.718106810381485 14.71203774777627 0 1 0
505 2 2.4 26.251879517778285 3.626414820892611 15.302486402623641 0 0 0
1148 1 -1.2 27.238027697809112 4.026468004165528 16.555727622632325 0 1 0
416 1 -1.2 29.304263578982813 4.6330556208037565 15.122022592954709 0 1 0
1489 2 2.4 28.625617741597928 4.825557035751086 16.60064492933781 0 0 0
778 1 -1.2 2.1508571635031855 6.0775457908344785 15.797274916422412 1 0 0
843 2 2.4 2.9285947823152494 5.504231636504321 17.154088616978846 1 1 0
1393 2 2.4 10.097456337844347 6.2360994258711315 16.250738920331603 0 0 1
989 1 -1.2 9.6068141873665 7.830484711516963 16.531879417924326 0 0 0
540 1 -1.2 11.222837204958829 6.145303572338944 15.055768301561939 0 0 0
1185 1 -1.2 15.11180821774979 5.765525860617134 17.17051589756915 0 0 0
61 2 2.4 18.152079103957874 8.071147097242003 14.699673574594957 1 0 -1
1798 1 -1.2 18.26643930006274 8.041617118065062 16.29278826128965 1 0 1
1924 2 2.4 23.85135312363016 5.585515441897014 14.663371739909888 0 0 0
138 1 -1.2 24.1368502045473 7.149216675896185 14.969097651472971 0 0 0
135 2 2.4 24.80558633416066 7.918756287994213 16.265606801769213 0 0 0
1414 1 -1.2 26.284283285408343 7.270944742858138 16.60440611719631 0 0 0
1265 1 -1.2 28.586382424728065 6.366380406741689 17.0931061562572 0 1 0
1011 2 2.4 27.772643940198915 7.749472200282592 17.03343405022382 -1 0 0
203 1 -1.2 7.069990054216841 8.92292381344385 16.06139434115238 1 -1 0
1142 2 2.4 7.212223041555007 9.65115149991166 14.579336355845376 1 0 0
1501 2 2.4 8.311406451899801 8.76500708714489 17.14241445506076 1 0 0
1931 1 -1.2 11.480387201322914 10.325208350523951 15.122556098993739 1 -1 0
1313 1 -1.2 12.896215592709698 10.529920464981164 17.24528265564167 0 -1 0
1210 1 -1.2 20.941980983888584 10.84470372315515 15.355424954426947 1 0 0
86 2 2.4 25.53777936831187 10.178680908825486 14.489585592479838 -1 0 0
897 1 -1.2 25.107282642820675 9.465012532222788 15.855659087348304 -1 0 0
1473 1 -1.2 28.56021491887307 8.821508485226392 16.203088445488714 0 0 0
976 2 2.4 28.42779993207943 9.856215163662043 14.930705494131455 0 0 0
1242 1 -1.2 5.407852427148578 13.387628614004461 15.012565831967327 0 0 0
788 1 -1.2 10.521019923856993 12.009845206823755 17.10826882328474 1 0 0
1442 2 2.4 11.894504979204472 11.36308166529078 16.284074871414617 0 0 0
1590 1 -1.2 12.596348018079583 12.737135713115968 15.840988572491025 0 0 0
1515 2 2.4 18.312995118820485 13.749030032705079 16.69718008530519 -1 0 0
1564 2 2.4 21.021917466454603 12.267712877544495 16.22011567929999 0 0 0
1257 1 -1.2 19.75272633944983 13.166817646316167 16.208612566998948 -1 0 0
2133 1 -1.2 22.1823704670475 13.240689127379618 15.562906198226862 -1 0 0
752 1 -1.2 25.479345916132022 11.715588149114543 14.937642506569148 -1 1 1
1063 1 -1.2 28.58570236509996 11.442272469491327 15.338292091916502 0 0 0
1131 2 2.4 28.605136597281952 13.050740063698443 15.319615353106757 0 0 0
1008 1 -1.2 29.276501418359732 13.563169879928626 16.694393509513556 0 0 0
1345 2 2.4 3.491661053059173 16.14827357306261 15.06304403645471 1 -1 0
944 1 -1.2 3.933419381836077 15.175695228301791 16.269221639330038 0 0 1
808 2 2.4 5.330168144044884 14.31704613844857 16.285012921204316 0 0 0
2035 1 -1.2 6.663121212119577 15.265105852218111 16.314852524501397 1 0 0
130 1 -1.2 9.216204984439596 16.15911567053799 16.21545388113753 0 0 0
1658 2 2.4 10.866275587613629 16.632703329847235 16.288517500783865 0 0 1
1168 2 2.4 13.043866629393708 14.206311310987992 16.378375260340082 0 0 0
42 1 -1.2 11.891370964377048 15.336273077581179 15.980790144052552 0 -1 -1
1279 1 -1.2 14.49212517942604 14.46383775325102 15.7577334129123 1 1 0
1623 2 2.4 15.723030515623506 14.096741747949515 14.710146064118096 0 0 0
669 1 -1.2 17.201629910230697 13.814275617514976 15.488616369201836 0 0 0
935 1 -1.2 18.430061094793363 15.301919454152543 17.104280077659595 0 -1 0
1203 2 2.4 22.937035343934635 14.485112532436668 14.872251985083306 0 0 0
2147 1 -1.2 23.269819895771807 15.616663596016096 16.07227749299986 0 0 1
635 1 -1.2 27.097889418629325 13.707850512784592 15.150100377013025 0 0 0
1285 2 2.4 2.880902475438911 18.71329355584812 16.52359774026925 1 0 0
139 1 -1.2 2.6446471326396828 17.538998259939028 15.471833358234228 1 -1 0
632 1 -1.2 7.304036321985361 17.371446915940584 14.785973418146705 1 0 0
314 2 2.4 7.632140033757308 16.591947964882127 16.242863107974415 0 0 0
877 2 2.4 10.984654392307805 19.099100741920935 14.526963483703705 0 -1 0
1236 1 -1.2 11.312067754049696 17.603090195217018 15.062543301604697 0 0 0
2135 1 -1.2 14.140378616640604 18.984005759161725 17.517630275285565 0 0 0
1291 1 -1.2 16.573082561661366 19.09516214853797 16.469051840149643 1 0 0
1995 2 2.4 18.26113181934691 19.040945406189195 16.484311193466112 0 0 0
19 1 -1.2 18.827993431948393 17.927909308025658 17.531027724334717 0 0 -1
1488 1 -1.2 18.86034869728803 18.759562801868096 15.01180006294303 0 0 0
835 1 -1.2 20.889361192704357 16.557010356634514 16.796314010002213 1 0 0
602 2 2.4 22.45812215126012 16.834911635576052 16.864147604331457 0 0 0
1092 1 -1.2 22.895123470440794 18.11802210508444 15.941671590752346 -1 0 0
1439 1 -1.2 27.461046628180945 18.53057060756645 16.800205527124827 -1 -1 0
676 2 2.4 29.06109734735618 18.38072580735349 16.476028766797185 0 0 0
1296 1 -1.2 29.139611682524137 17.19153353124127 15.413233998070057 0 0 0
1039 1 -1.2 1.6894259613391487 19.769980581920283 16.544347330400527 0 0 0
999 2 2.4 0.44580895882100996 20.822253065444137 16.618942580803218 1 0 0
1976 1 -1.2 0.4409401079102493 22.111017632577774 15.640661696589932 0 0 1
774 1 -1.2 4.302683870503342 19.574773518346095 16.28874339027698 1 0 0
1034 2 2.4 4.827973150557925 20.336856825294262 14.96363001187096 1 0 0
1800 1 -1.2 5.939714628693298 21.388490813869158 15.499785547571639 1 -1 0
1670 2 2.4 7.265433224036817 22.1959270956308 14.909559154533849 0 0 0
1126 1 -1.2 9.914872656687463 19.566152910032994 15.71852754672761 0 0 0
460 2 2.4 9.373375286765832 20.74644801328071 16.686160730919465 0 -1 0
846 1 -1.2 8.609007207579578 21.89734127823263 15.798537372895401 1 1 0
1715 1 -1.2 8.14591611529385 20.0777712615333 17.522507877198564 0 1 0
1401 1 -1.2 14.544214071328353 20.482588288106857 15.403116641365996 0 0 0
508 2 2.4 15.223800887223451 19.99517860564826 16.76460437159656 0 0 0
101 1 -1.2 18.63911646393762 20.541997755416585 16.952777408296946 0 0 0
308 1 -1.2 20.84443839777226 21.963400113536125 16.669400036793952 -1 0 0
634 1 -1.2 23.242868396879302 20.815469044563113 16.200617812114523 1 0 0
758 2 2.4 24.02935241865251 19.34029453656014 15.945605895251063 0 0 0
1520 1 -1.2 25.013425009738913 19.46745618509974 14.640869751510907 0 0 1
708 1 -1.2 26.744674303137757 21.55058970041678 14.934404231569939 0 0 0
1580 1 -1.2 29.530869537676484 19.904040639466682 16.20835273735841 0 0 0
162 1 -1.2 7.041383464137313 23.710655894996794 14.652228304069377 0 -1 0
1890 1 -1.2 6.271949056392616 23.968050551359433 16.995031795543074 0 0 0
604 2 2.4 6.481846106290399 24.884043042404564 15.64415963608031 0 -1 0
1903 1 -1.2 11.956756966075321 24.73860008157437 14.853746806982498 0 0 1
1041 1 -1.2 14.509702301302422 24.512433341263993 15.325616060521662 0 0 0
517 2 2.4 18.370680495979226 24.4693313927587 15.815990367516624 -1 -1 0
1615 1 -1.2 18.651473341422815 23.223536163961764 16.87105563338746 0 0 1
1994 2 2.4 22.460240917917854 22.160897520921484 16.678841918839446 0 0 1
354 1 -1.2 22.721715938429394 23.437529779454152 15.659159799416695 0 0 0
458 2 2.4 23.819625520267827 24.089390159190636 14.675739579698574 0 -1 0
2083 1 -1.2 25.94573964775677 22.553241758793472 17.274174784392525 0 0 1
1381 2 2.4 26.48822324433732 22.90206003590195 15.779538773112494 0 -1 0
1462 1 -1.2 25.359265826347766 23.526801236847444 14.82491091803624 0 0 0
1989 1 -1.2 27.83796498345449 23.825424943280833 15.962129026401428 0 0 1
544 2 2.4 3.9073228379310514 26.33443665196521 15.918686530519581 1 -1 0
1508 1 -1.2 3.3237965165018917 26.986950716494654 14.592045283392892 0 -1 1
582 1 -1.2 2.903781655170317 25.353722177348782 16.81194886805536 0 -1 0
1617 1 -1.2 5.044903632084684 25.4236597582389 15.186013701380487 0 0 0
233 1 -1.2 4.5061307892138265 27.37455262094233 16.999714665320454 0 0 0
665 1 -1.2 7.38704345657536 26.179656963395193 15.859285913958702 0 -1 0
1963 1 -1.2 9.753651620332013 25.24074923750806 16.131958476363003 0 0 1
506 2 2.4 8.850824438517275 26.561263660688248 16.442803551511503 0 -1 0
770 2 2.4 11.34256691936829 25.054084351110966 16.366397851667806 0 0 0
1541 1 -1.2 12.090633868220948 26.29811070805242 17.17000935987867 0 0 0
269 1 -1.2 15.59007867151853 26.742796244162573 14.67036280905633 0 0 0
2114 2 2.4 15.474678209664766 25.671862996895403 15.898907152974662 0 0 0
329 1 -1.2 14.751603303223687 26.463841652518493 17.215515609467754 0 0 0
345 1 -1.2 16.927968624201522 24.997166928541336 16.283536795744897 0 0 0
1247 1 -1.2 19.660996386293686 25.471555323874554 16.089777808238168 -1 0 0
1695 2 2.4 20.038991692891337 26.98659787519939 15.437380269289518 0 0 0
828 1 -1.2 24.016439746342765 25.71280200186652 14.964579755726609 -1 0 0
687 2 2.4 25.116361539290654 26.48064898142737 15.91636479338062 0 0 0
2051 1 -1.2 26.6500671621309 26.058894919678078 15.537881671796379 -1 -1 1
1030 1 -1.2 28.918455424273738 25.751582939895698 14.445580074223235 -1 0 0
447 2 2.4 28.11178160895239 25.406412817393637 15.778730451050038 -1 -1 0
1243 1 -1.2 28.895449925349954 26.018842300242 17.08976564611601 -1 0 0
459 2 2.4 0.6933198454842057 29.216170267980925 16.267596517139783 0 0 0
234 1 -1.2 1.369533161459494 28.01339193449073 15.443838743519832 0 0 0
1977 1 -1.2 1.8079622915810714 29.954302551730354 17.185814186937662 1 -1 0
121 2 2.4 6.1380703299139885 -0.12402116588376172 14.721371998586019 1 0 0
1117 2 2.4 5.411958534216468 28.765456620497833 17.32140492674784 0 -1 0
609 1 -1.2 6.181659652986608 29.3569383404595 16.00952370475981 1 -1 0
803 1 -1.2 9.424719204581255 27.899958163194324 15.754236214928866 -1 0 0
330 1 -1.2 13.23601005892255 28.710400589766504 16.821857131167146 0 0 0
581 1 -1.2 16.506495992623357 29.081079261647435 15.574398959662483 -1 0 0
1737 1 -1.2 18.776217972858497 30.297219769169573 16.18094745319589 -1 -1 0
337 2 2.4 17.972251643501654 28.85816241030629 16.312346765496997 0 0 0
945 1 -1.2 18.56051973885457 27.646064218103056 15.375150374410495 -1 -1 0
77 1 -1.2 20.96296470773073 28.033015944523267 16.22473504001028 0 0 -1
1940 1 -1.2 25.021368875126395 28.042873693920566 15.451648846687547 0 0 1
1133 1 -1.2 29.785186368499765 28.56794213148964 16.988066345002867 0 0 0
1519 1 -1.2 3.0394031938633033 1.594172646827085 18.36392761307206 1 0 0
723 2 2.4 2.944590214637326 -0.04069009105970167 18.361915621951567 0 1 0
491 1 -1.2 7.978084010508943 2.5881499590274433 20.344159390203234 0 0 0
1772 1 -1.2 9.733888637924553 1.4078540122077114 18.838950266746156 1 0 1
1108 2 2.4 10.107309675901114 0.1538232957050615 17.914362469599112 0 1 0
973 2 2.4 13.6844949312955 2.5060217386786166 20.0762010704794 0 0 0
538 1 -1.2 14.97634059827897 1.4925366887044789 20.205343475267565 0 0 0
890 2 2.4 15.74695149274288 0.41203113469436975 19.2731933382179 0 0 0
1842 1 -1.2 16.842462635590728 1.1861848991447455 18.42484859719116 1 0 0
98 2 2.4 20.4900913956925 2.500402776242974 17.493172457113264 0 0 -1
2117 1 -1.2 21.349048636411485 1.4098193612449554 18.364025589706355 0 1 0
2044 2 2.4 22.79433165939847 0.7529739326519148 17.749389299560654 0 1 1
1410 1 -1.2 23.880993823461438 1.1820503462763765 18.89736554011083 0 0 0
1359 2 2.4 27.608390489834385 2.262630845361225 19.924407845602307 0 0 0
1364 1 -1.2 26.135644080866236 2.6219024947444 19.238012167518725 0 0 1
705 1 -1.2 28.54731760857903 1.8849834276683757 18.62684953951389 0 1 0
901 2 2.4 2.21240116023292 2.860650871798162 18.76805409656918 1 0 0
235 1 -1.2 2.2448199839914733 4.185036926385116 17.749736937194818 0 1 0
1548 1 -1.2 0.6762964483537669 2.5211245335781967 19.125411200425166 1 0 0
1881 1 -1.2 2.7548383285101257 3.5194561057609293 20.1641463493985 0 1 1
58 1 -1.2 8.450587217154867 3.672773420120069 17.973069498071993 1 0 0
637 2 2.4 9.084799201570831 2.8407285386099344 19.225544079914677 1 0 0
801 1 -1.2 10.376696555230165 3.7832456409041764 19.63393358045467 0 1 0
1533 1 -1.2 13.244790786179838 2.674788987688224 18.550588454673967 0 1 0
870 1 -1.2 16.688926362997364 3.863583378956289 17.890457127200012 -1 0 -1
566 2 2.4 17.484625641652862 2.701795903567924 18.658087678651455 0 0 0
1973 1 -1.2 17.377492071783895 3.2163777665470548 20.158722238231146 0 0 0
941 1 -1.2 19.027216020519592 2.6866322843325374 18.19045137279578 0 0 0
1314 1 -1.2 21.299088858416855 3.9988683680262147 17.448475866222385 -1 0 0
1624 2 2.4 22.73891862001604 4.61272205106068 17.33862595784585 0 0 1
980 1 -1.2 23.865420415883346 3.450963259892113 20.53023375756113 0 0 0
1868 1 -1.2 24.040708504090624 3.7526530354607064 17.863663199033688 0 0 1
1778 2 2.4 24.523913960808425 2.7197113722605617 19.068884271503702 0 0 0
1323 2 2.4 29.86769693614413 2.6099035112326514 18.04490896622307 0 0 0
575 1 -1.2 29.491443353040058 4.161532845391483 17.808929360541345 0 0 0
862 1 -1.2 2.805888263466674 6.602975586123962 18.44152797280794 1 1 0
1934 2 2.4 3.0586255080939915 6.8847131703487285 20.01931066665726 1 0 0
465 1 -1.2 7.819823011583402 8.022338984665124 18.558476817909472 0 0 0
1135 1 -1.2 9.532786198634115 6.30935907948373 19.777282343716067 0 1 0
916 2 2.4 8.629808976098149 7.627064547177248 19.926634035412345 1 0 0
914 2 2.4 10.688765383024528 5.36335792454664 19.198179655776332 1 0 0
359 1 -1.2 10.836030364333526 5.611576683415749 17.626412020845432 0 1 0
487 1 -1.2 12.03320425594921 5.838003809526037 19.951678412238216 0 0 0
680 1 -1.2 14.60827546453855 6.279237527788584 19.737405737539788 0 0 0
926 2 2.4 15.010587675512586 6.89403771881655 18.36175845969007 1 0 0
1175 1 -1.2 13.85173049730454 7.972106827040812 17.88383994807623 0 0 0
293 1 -1.2 16.50564412499055 7.732903318863617 18.39127324901826 0 0 0
1341 1 -1.2 21.865108326866277 7.965377565523344 19.30603359763738 0 0 0
2154 1 -1.2 19.13320587393822 7.8401993681847575 18.857889300784816 0 1 0
2139 2 2.4 20.316650147132776 8.000220177217056 19.924228446158768 0 1 0
413 1 -1.2 22.754966288769 5.863187063743061 18.337411361937935 0 1 0
1765 2 2.4 23.276817521588573 7.272657450914204 18.891263748924743 0 0 0
574 1 -1.2 24.498681983097494 7.220452838763842 19.988066151662753 1 0 0
226 1 -1.2 23.86396389839406 8.036263991800423 17.549719004060538 0 0 0
824 1 -1.2 3.822704782399975 8.33527843139047 20.274975186219574 0 1 0
1196 1 -1.2 8.696642813723976 10.29342632713491 17.553159779153308 0 1 0
902 2 2.4 10.74146772075353 9.98744494143189 20.196141332064876 0 0 0
70 1 -1.2 12.0282997544017 9.417357286826073 19.317694242825016 1 0 0
1358 2 2.4 13.316985198973999 9.419691348650296 18.37772634352416 0 0 0
2120 1 -1.2 14.536211758616977 9.904803170828982 19.29677251003579 0 1 0
949 2 2.4 15.056822856338671 11.030368052466264 20.325856876770317 0 0 0
1216 2 2.4 17.935929927383388 8.400535089787619 17.88162140534327 0 0 0
623 1 -1.2 17.834680706974577 10.015297156498288 17.890857892145934 1 0 0
1768 2 2.4 27.407641843555737 9.449881989694394 19.76759021547503 -1 0 0
1176 1 -1.2 26.25790731668729 10.53516115439562 19.39167450887208 0 1 0
24 1 -1.2 27.66282562966339 8.454193824560932 18.559459905992576 0 0 -1
537 1 -1.2 28.839051932480395 10.245793095406542 20.237678506543435 0 0 0
1785 1 -1.2 5.53829921813902 13.41966766560185 17.718067534202678 1 -1 0
1757 1 -1.2 6.057735453866059 12.680507971580182 20.057536413725526 0 0 0
1047 2 2.4 6.788827959653064 13.47631110354861 18.907421554789835 0 0 0
2134 1 -1.2 8.192571925050052 12.810701064209779 18.43870329772898 0 1 0
1263 2 2.4 9.375747296504617 11.64336996008902 18.134947328163797 1 0 0
394 1 -1.2 10.228845606521865 11.346464652877746 19.49660177500816 1 1 -1
1706 2 2.4 13.631057867507762 13.805473624357871 19.56722177646884 1 0 0
151 1 -1.2 14.170349897599989 12.262891283478394 19.809126325756633 -1 0 -1
1220 1 -1.2 16.56252040198654 11.381075880086321 19.949984233336455 1 0 0
760 2 2.4 17.762258773294572 11.412644774907848 18.8944972795496 0 0 0
1014 1 -1.2 17.677988633061908 12.802410908824818 17.93434394180936 0 0 0
814 1 -1.2 18.995085504209413 11.71819775712134 19.861203947967816 0 0 0
453 1 -1.2 21.666147489644228 11.844972820068485 17.660064419269766 -1 -1 0
1669 2 2.4 22.40611617865226 12.27603299491575 19.04375202473559 0 0 0
954 1 -1.2 23.9058655375629 11.687192780024997 19.215958578414305 0 0 0
2091 2 2.4 25.239984204965996 11.583938219485914 20.133112980973568 -1 1 0
1688 1 -1.2 29.511177383743668 12.687157803427775 19.24874729456023 -1 0 0
1915 1 -1.2 7.193326844909599 15.020810975287564 19.495541317983854 0 0 0
1053 1 -1.2 13.075071350376264 14.167669824182475 18.079169164294907 0 0 0
1400 1 -1.2 10.98460673056075 15.926048617703367 19.900461889680077 0 0 0
1830 1 -1.2 14.877912854818556 14.822948075390617 19.790412592646657 1 0 0
938 2 2.4 15.702074403168531 16.145845922960742 20.216987982031036 0 0 0
1147 1 -1.2 17.301696124003225 15.823571338439198 20.104590906688756 0 0 0
605 1 -1.2 19.896547228376626 16.168238192173366 19.15785961276032 -1 1 0
490 1 -1.2 22.403315147521074 13.909030204917666 18.951799397757128 0 0 0
1562 2 2.4 23.355277705366973 15.29028655709932 19.307788217918734 0 0 0
1412 1 -1.2 24.887660872578934 14.89554372173573 18.78445837928306 0 0 0
1415 1 -1.2 27.3546045147119 14.072882741953052 18.408162078776144 0 0 0
435 2 2.4 26.28093125728993 14.459125647964951 19.59216404294672 -1 0 0
136 2 2.4 29.007871319242714 13.923951909205371 18.27504421814644 0 -1 -1
371 1 -1.2 29.625774901482565 15.328959752772015 18.73221473659791 -1 0 0
375 2 2.4 2.3624228043520166 17.799396748460737 19.507205557823834 0 0 -1
1198 1 -1.2 1.066817819371822 16.900013088082584 19.728461503810408 1 0 0
1109 1 -1.2 1.898826750860043 19.31417302323129 19.927472851597514 0 0 0
1531 1 -1.2 3.037088759809049 18.062714800444237 18.01654597883015 0 0 0
1601 1 -1.2 3.5506341759328044 17.10825227580077 20.379524636413223 0 0 0
829 2 2.4 7.37260956464717 19.012595738751028 18.47751604339293 0 0 0
761 1 -1.2 7.3905196479577215 17.54984442057768 17.583137908233315 0 0 0
593 1 -1.2 7.922355297744184 19.006629430321862 19.941095782951358 0 0 -1
2082 1 -1.2 10.385830781859683 18.43584534330383 19.742025121556335 1 0 1
664 2 2.4 11.44793097685947 17.334386852315433 19.22447753401813 0 0 0
1759 1 -1.2 11.156226057333976 17.33962634762248 17.660298977616076 0 -1 0
821 1 -1.2 12.94424276220746 17.7864852957478 19.687794075759218 0 0 0
1191 2 2.4 14.312392128799614 18.536957907766404 19.081267497495972 0 0 0
509 1 -1.2 15.411125328998361 17.36592881655038 19.246590013031913 0 0 0
2079 2 2.4 19.46187985846176 16.440185733406672 17.5997816636234 0 0 0
933 1 -1.2 22.856371928024252 16.66619220994592 18.47408987714946 0 0 0
955 1 -1.2 24.858453567484247 18.844130315390828 17.26569071245006 -1 -1 0
1831 1 -1.2 26.485808508877543 17.693731291498022 18.974746588032378 0 0 0
49 2 2.4 26.362328823739436 18.850336581432714 17.920828726181174 0 -1 0
556 2 2.4 29.9610392243497 16.918502541187742 19.105288429512473 0 0 0
1651 1 -1.2 29.84253387344928 17.918822991785262 17.868852970712435 -1 0 0
850 1 -1.2 0.3643684518619513 21.357823183418912 18.091592917260385 1 0 0
1581 1 -1.2 1.6142567247847766 21.91565598789806 20.473920678803385 1 0 0
1662 1 -1.2 3.966569750916549 20.796966613886408 20.191311378068505 0 0 0
266 2 2.4 5.507617094803393 20.823521882140952 19.71976527609421 1 -1 -1
126 1 -1.2 5.811071320878021 19.541266255986763 18.81725638640492 1 -1 -1
1616 1 -1.2 10.432148926391486 21.44220240624012 17.660752012498204 0 0 0
1962 1 -1.2 14.887411594049755 19.864715420806892 19.95500937450027 0 0 0
1525 2 2.4 15.551933898911715 21.241699046446204 19.364504542811776 0 0 0
478 1 -1.2 15.503887358821867 21.317421140205752 17.72178712016859 0 -1 0
1184 1 -1.2 17.10234938848864 21.472377271969982 19.828786006161753 0 0 0
1927 1 -1.2 19.60803665147932 21.91266189695799 19.07294407123917 0 -1 0
1370 2 2.4 19.425892517499268 21.91366379837178 17.446574971512216 -1 0 0
153 1 -1.2 22.552399971690587 20.829698078078504 19.8835328192065 -1 0 0
1689 1 -1.2 26.663240501830202 20.26470285892466 18.716291721755677 -1 1 0
589 2 2.4 26.292941596797657 21.865844195442232 18.712759208006002 -1 0 0
1028 1 -1.2 25.009830396597575 22.084511086612295 19.69992120355404 -1 0 0
1777 2 2.4 0.928534398376599 22.51233732637803 19.09983834109658 1 -1 0
811 1 -1.2 1.8575116086953178 23.538053216889068 18.278573799438696 0 0 0
1613 1 -1.2 4.386074814660702 24.35897689331503 18.887836225617143 0 -1 0
494 2 2.4 2.9407720078791435 24.815772747333668 18.37924654868626 1 -1 0
1113 1 -1.2 5.875913333522411 22.16638180459449 18.889808808807945 0 0 0
2152 2 2.4 5.845535770029697 23.772247007421747 18.540894346662576 1 0 0
804 1 -1.2 6.9516872075736575 24.64288650231458 19.333680694558367 0 0 0
1119 2 2.4 10.815763484695587 22.829222352877856 18.360543317520886 0 0 0
1630 1 -1.2 9.416758015293379 23.424778654611703 18.935171253634135 0 0 0
1132 2 2.4 8.469497172324415 24.255830382600664 19.95231291585768 1 0 1
1423 1 -1.2 11.657054859163209 23.80935835968467 17.38331316058229 0 -1 0
420 1 -1.2 11.867662254679715 22.601964918989882 19.596715766932064 0 1 -1
611 1 -1.2 14.623154837205572 22.495114160153364 19.814665343778003 1 -1 0
1239 2 2.4 23.37452182574447 22.187292076313526 19.625738360536296 0 0 0
389 1 -1.2 22.977946049952912 22.575060905157052 18.14578235617422 0 0 0
296 1 -1.2 22.86764831780133 23.4000256253628 20.575689112506275 -1 0 0
176 1 -1.2 27.55803866324442 22.588702485224513 19.318917761098078 -1 0 0
1253 1 -1.2 29.975414740660007 23.222280385615246 19.75338888390248 0 0 0
1591 1 -1.2 2.208342029869978 25.788780638244553 19.42687380092325 0 0 0
925 2 2.4 0.9539721708756767 26.422530251390288 20.28381237853274 1 -1 0
1088 1 -1.2 8.786329665435055 26.83009148386135 18.052308583182988 0 -1 0
698 2 2.4 13.329551281762065 27.255897646013157 17.646622054418717 0 0 0
1385 1 -1.2 13.089067324751278 27.567300234208336 19.22864392926814 0 0 0
1001 1 -1.2 17.23028412002823 26.945708506224133 20.039653054462264 0 -1 0
1582 1 -1.2 22.83907421157773 27.024362397390533 17.7934976987452 0 0 0
641 1 -1.2 23.69403890941536 26.379159100712723 19.98759419184916 1 -1 -1
844 2 2.4 24.225077896462132 26.926433793683483 18.56749347269024 0 0 0
1031 1 -1.2 24.940734144654996 25.96211686593228 17.523932101992525 0 0 0
836 1 -1.2 26.576125930313147 26.457409550851256 20.10489188549198 0 0 0
1676 1 -1.2 30.055744692342035 26.984377089729552 19.276488122448047 -1 -1 0
205 2 2.4 29.16311188155592 27.40167079843208 17.971465748992813 0 -1 0
1942 1 -1.2 2.5111737557667846 29.952916504769938 19.90570640209875 1 -1 1
1641 1 -1.2 4.392912258468288 29.817662152893796 17.968371885192088 1 0 0
1349 1 -1.2 6.692452578210296 28.48061467980371 18.35402319094868 0 -1 0
1000 2 2.4 8.221845064491207 28.19205098113818 18.865463825752922 0 -1 0
597 1 -1.2 9.198601191751152 29.456923318006258 18.546331821066158 0 -1 -1
560 1 -1.2 8.266035985608182 27.936975880186445 20.47141056370014 1 -1 0
988 2 2.4 13.251237896512386 30.18198376024407 17.571026887333044 1 -1 0
1356 1 -1.2 11.678332195587181 30.295278077846845 18.119538651977383 0 -1 0
1835 1 -1.2 14.476628949255197 30.198615125803105 18.57850593267584 0 -1 0
695 1 -1.2 16.52061651942351 29.72746576862932 20.008586798335322 0 -1 0
554 2 2.4 17.653084137500183 28.538047053778826 19.58962511758079 0 -1 -1
694 1 -1.2 17.867512248040008 28.461446608100218 17.930532590252174 0 0 0
1911 2 2.4 21.825343327698295 28.296572944421168 17.57147766662757 0 0 0
1192 2 2.4 20.587796633252633 28.681469446532024 20.386237064308347 0 -1 0
2095 1 -1.2 20.851314754239606 28.483074032979065 18.73353398370559 0 0 0
461 1 -1.2 22.752105848049478 29.697740427145437 17.53604162054086 -1 -1 0
529 2 2.4 26.591943650929746 27.994647525013498 19.549422503150787 0 -1 0
1542 1 -1.2 25.161515644004318 28.242145656544746 18.862693454229245 -1 0 1
657 1 -1.2 27.632464413593162 27.901256253733713 18.329198931431158 -1 0 0
1951 1 -1.2 6.648678918845996 2.4005551070601334 22.63023521518469 0 1 1
1017 1 -1.2 6.0430015607507634 -0.0624771240886248 23.257468977888283 -1 0 0
715 1 -1.2 10.973744593085463 0.6732789043980076 22.652875302273316 1 1 0
171 2 2.4 12.427244340146197 0.48079355146477143 21.97473094289434 0 1 -1
1098 1 -1.2 12.607578047042026 1.7954545623490656 20.96648446534186 0 1 0
2118 1 -1.2 13.616847070755984 0.45571369247614235 23.067388283235957 0 1 0
1338 1 -1.2 18.115604359219567 1.748054045485322 22.07244229988416 0 0 0
1416 1 -1.2 21.89441983392665 2.0110135053658507 21.576102414519383 0 0 0
1693 2 2.4 21.569358976925965 0.52332960614069 22.03994804408815 -1 0 0
990 1 -1.2 20.2676759078944 0.4955744046634484 23.064951290320955 0 0 0
131 1 -1.2 22.907295854051767 -0.07386509870711595 22.81499918900181 0 0 -1
1846 1 -1.2 26.715877942294384 30.28515095564797 22.886126791343962 0 -1 0
2015 1 -1.2 27.841658913204796 1.0140702443602228 20.94661674029423 0 2 0
965 1 -1.2 1.265930744036166 5.171951202715116 22.96227832180655 0 0 0
1633 2 2.4 3.991498672784663 4.060596696984092 20.98273078094464 0 1 0
816 1 -1.2 3.570386632773747 3.838146927148013 22.615823761313834 0 0 0
1650 1 -1.2 5.4239488305358465 3.282871585995117 20.58259042466206 1 1 0
948 1 -1.2 7.34658673627687 4.794030257363192 21.53214413413575 0 0 -1
193 2 2.4 6.8738972303650305 3.2889557034793957 21.293198976392315 1 0 0
191 1 -1.2 13.955873807339348 4.052442763364842 20.769476383319297 0 0 -1
260 1 -1.2 16.58905485471147 4.000320397902368 22.54921849843278 0 0 -1
1600 2 2.4 17.85241975604797 3.3299619216705376 21.694765022284784 -1 1 0
1788 1 -1.2 19.172633043235024 4.287285095362478 21.626942179786237 0 0 0
2105 1 -1.2 21.88432518018682 4.7231375375698486 21.851317366905022 -1 1 0
951 2 2.4 20.414875246863243 5.409578710526419 21.896738699254076 0 0 0
256 2 2.4 22.8118929943095 3.3465381410761985 21.71504097921885 0 1 -1
1555 1 -1.2 23.8518834312399 3.3009916400359316 22.943990451143794 0 0 0
1209 1 -1.2 28.028050242025824 3.62175653681808 20.697503734121067 0 1 0
880 2 2.4 27.938193388527502 5.044142861379573 21.57093883502065 0 0 0
438 1 -1.2 27.798788843263385 4.675815060016195 23.18671300399051 -1 0 0
2017 2 2.4 0.5276533904240697 6.289530883218224 22.044087513206744 0 1 0
839 1 -1.2 1.5655031317209034 6.844686674540893 20.832763165039797 0 1 0
78 1 -1.2 0.13152446327119943 7.494825957491917 23.14411723578134 0 0 -1
1316 1 -1.2 4.015714434133584 5.6781782141489 20.598981159170926 0 0 0
1875 2 2.4 7.569006400730488 6.2136300109311655 22.246580155781416 0 0 0
1435 1 -1.2 7.674866006914483 7.510429272464129 21.206631188834624 1 0 0
1378 1 -1.2 6.456396981910651 6.49867194566147 23.3145198190563 -1 0 0
1884 1 -1.2 9.123620050413184 5.978994492303764 22.798089622178477 0 0 0
1208 1 -1.2 13.479143529657241 6.486031742935505 22.042345769794654 0 1 0
1311 2 2.4 13.492784113040203 5.611206012560806 20.695643701364784 0 0 0
318 1 -1.2 20.187294728835713 6.627004856720763 20.89156004082442 0 0 0
92 1 -1.2 24.948152161478898 7.71385171596269 22.574564559008845 -1 0 -1
1523 1 -1.2 26.592379482310427 5.968473286054096 21.19209771272752 0 0 0
805 2 2.4 25.6361971215245 7.328085192735676 21.141198371074506 0 1 0
911 1 -1.2 29.483429081641045 5.741312404237424 21.434262582641036 -1 0 0
1969 2 2.4 4.308058195594515 9.448171615897426 21.465878722513715 1 0 0
1745 1 -1.2 3.020031228671526 10.422313017706067 21.619542530481233 0 -1 0
1164 1 -1.2 4.710970704055429 8.539768995496408 22.74924447311237 -1 0 -1
1019 1 -1.2 5.613812637725192 10.376696496579667 21.366098237195544 0 0 0
1716 1 -1.2 9.537279432585498 8.914973604812289 20.4668423030314 1 1 0
492 1 -1.2 11.212002894735182 10.54757840891471 21.614309105654996 0 0 -1
975 2 2.4 11.650051517815976 10.335429537758342 23.131657949859612 0 0 0
430 1 -1.2 12.945636617379844 9.231276537016953 23.104960629896613 1 0 -1
1110 1 -1.2 14.951025513844655 10.412959177599793 21.794669596344914 0 0 0
1128 1 -1.2 20.154724772416785 9.476574670130631 20.65213567327 0 0 0
1007 1 -1.2 24.853552470827818 11.083427573203632 21.592475216894844 1 0 0
1556 1 -1.2 26.732157152716916 8.566463149040944 20.96156001519539 -1 0 0
1322 2 2.4 24.93636957559158 10.769369775700442 23.21304981273689 0 0 0
1297 2 2.4 1.9288963509268435 11.40253145817688 22.129866576894432 0 -1 0
717 1 -1.2 0.7381269218422759 11.617661506837324 21.07570174347882 1 1 0
2123 1 -1.2 2.6621111648750824 12.909490268850387 22.560626635153827 0 0 0
1621 2 2.4 4.0076275787597595 13.709769462946232 22.971607136903884 0 0 0
1294 1 -1.2 5.363732689658825 12.822458726276846 22.603885316965332 1 1 0
124 2 2.4 6.24062466186131 11.90881656110755 21.5167375467025 1 0 0
1809 1 -1.2 7.802965559475415 12.051738863696682 22.1110199905079 0 0 0
1766 2 2.4 8.587713648989034 13.437167782885169 22.561680860319633 0 0 0
2069 1 -1.2 21.556192438865313 11.62664436340578 20.189376592350705 0 1 0
385 2 2.4 20.14927045173307 11.049136326878351 20.778351725194845 0 1 0
454 1 -1.2 20.000399123731064 11.472640051323284 22.336628450813752 -1 0 0
2087 1 -1.2 25.993018248223997 13.035942869435505 20.367474684690464 0 0 0
168 1 -1.2 26.90517791684892 13.29388072330617 23.350819724490712 -1 0 -1
2045 1 -1.2 28.80902194047593 12.491223370477842 21.726504113679404 0 0 1
1371 2 2.4 29.5785991490103 11.686377336956411 20.53795903705244 -1 0 0
1731 2 2.4 28.397038851589507 12.652004477865066 23.25303723393647 -1 0 0
1979 1 -1.2 3.980423029673782 15.194121436920648 22.260078822790007 0 0 0
1811 1 -1.2 7.486596092591396 14.58953463954633 22.221144905220505 0 0 0
1789 2 2.4 7.315759872082088 15.719290272826981 21.03494705775167 1 -1 0
1448 1 -1.2 9.9841394779057 13.782819027665138 21.66259188910034 0 0 0
1538 2 2.4 11.27641633167899 14.802101731207115 21.178420812437746 0 0 0
894 1 -1.2 12.533957288790308 13.9188340465386 20.71345677947156 0 0 0
2136 1 -1.2 11.721070753749059 15.568354546887894 22.55154007361751 0 1 -1
1672 2 2.4 16.104143094969878 16.542636246347275 23.08064709959193 0 0 0
953 1 -1.2 15.314296522554468 16.539566316159643 21.739909170132282 0 0 0
1597 2 2.4 18.875313752366058 16.03498821429929 20.462194624801388 0 0 0
1300 2 2.4 18.817095585426074 14.869837763406162 23.002151928124192 0 0 0
959 1 -1.2 17.381563485727096 15.5564779947249 23.10871110252833 0 0 0
1770 1 -1.2 19.386173715520503 14.872610973818926 21.46594374960569 0 -1 0
1397 1 -1.2 23.193883562764906 15.661084244385139 20.929591885895913 0 0 0
1071 2 2.4 23.724261342430694 15.652489974265297 22.497055087109224 0 0 0
79 1 -1.2 24.71699375796364 14.420375014843206 22.70077702443945 -1 -1 0
1350 1 -1.2 26.75994179432106 15.657049717134113 20.630198705183922 1 -1 0
853 2 2.4 4.366352234328291 16.67499910153841 21.74514778581202 1 0 0
2156 1 -1.2 4.148424772185156 17.830692406814983 22.92436238371555 1 0 1
1721 1 -1.2 5.931389321328808 16.679504952556716 21.39008585385265 1 1 0
1838 2 2.4 9.141042138614152 18.28646202346971 20.792111506565245 1 0 0
696 1 -1.2 8.59214274099487 16.772140316442254 21.004430575352792 1 0 0
707 1 -1.2 9.712265939068567 19.03793850493707 22.126861730681743 0 0 -1
790 1 -1.2 19.107475379973128 17.474063192601772 21.227075488538226 0 0 0
813 1 -1.2 21.446103843422993 18.81011614714411 21.151946560848284 0 0 0
1155 2 2.4 19.91313889802071 18.894400328399563 21.592140071526295 -1 0 0
1217 1 -1.2 19.99196864587959 18.946898474960967 23.179890626137254 0 0 0
272 1 -1.2 24.187873308665733 19.11139796528124 21.132348735532773 0 0 -1
1701 1 -1.2 24.575133625718095 17.033879713992 22.88843382645228 0 1 0
1046 2 2.4 27.21595875244309 17.231884673394195 20.33820225034579 0 0 0
562 1 -1.2 26.634100457382395 18.17075915159468 21.53873272223873 0 0 0
2128 2 2.4 25.243724740299015 18.428652327833117 22.314766011799826 0 0 0
1493 1 -1.2 28.84249629457264 17.35315466797021 20.277309802347023 0 -1 0
1599 2 2.4 2.4864204391114626 20.561171223357423 20.773217370066575 0 0 0
1499 1 -1.2 2.544682892218387 20.061112373288804 22.383139778955222 0 0 0
1048 2 2.4 3.570406452747729 19.33457774895809 23.488052212487872 0 -1 0
1956 1 -1.2 6.283272223416374 21.048257030983915 21.098767733665177 0 0 0
470 2 2.4 6.1190090091145635 20.988566087994776 22.744543242901077 0 0 0
1390 1 -1.2 7.412912883246229 20.188938177841102 23.305995550725925 0 0 0
312 1 -1.2 12.937930231016068 22.1371997994162 21.876290451235295 0 0 -1
688 2 2.4 18.674823063133044 21.5360192413838 20.31410471378387 0 -1 0
209 1 -1.2 19.148681230772507 20.06853281973763 20.849178354067238 1 0 0
74 2 2.4 22.69605442890177 19.857881097157815 21.176395653486303 -1 -1 -1
1750 1 -1.2 22.527314769687788 20.858893293913788 22.523677961187865 -1 0 0
1722 1 -1.2 6.325889735538547 22.547761373423455 23.25397356853932 1 0 0
2058 1 -1.2 7.988438555118962 23.36377634273666 21.224560021071277 0 0 0
928 2 2.4 7.369035745300489 23.686293715901876 22.721559425910936 1 0 0
1477 2 2.4 13.179990728956597 22.93412473124017 20.488678721479086 0 0 0
306 1 -1.2 13.417908609216552 24.4727899772026 20.837127594514257 0 0 0
896 1 -1.2 18.755418951703977 22.520028157527925 21.54206157045159 0 -1 0
1840 2 2.4 18.014555182536018 23.432525826981706 22.632829629450224 0 -1 0
1866 1 -1.2 16.665510325731024 22.668424983582742 23.18181332378972 0 0 0
1143 2 2.4 23.678385454007614 24.156044618534334 21.684704632362322 0 0 0
1284 1 -1.2 23.785836908296506 23.2713115075305 23.020477398973114 0 0 0
1486 1 -1.2 25.21321268798145 24.470533274626646 21.28056209947279 0 0 0
1375 1 -1.2 28.45568250771746 22.104642731291957 21.79394741442023 -1 -1 0
374 2 2.4 28.557353369172056 23.07520135770968 20.475924655937806 0 0 0
1734 1 -1.2 29.90771712497942 23.543244749491983 23.29361592820895 -1 -1 0
1150 1 -1.2 27.929595682274122 24.526864552205208 21.061160068164522 0 0 0
64 2 2.4 28.565355483943588 22.561023474178562 23.359493493016735 0 -1 0
1293 1 -1.2 0.33463965721853167 25.355022313126643 21.3601569286594 1 0 0
1204 2 2.4 0.01933663772799095 25.068377313109924 22.952506562092964 1 0 0
1181 1 -1.2 6.608544073147548 25.071447478407553 22.8548775564164 0 0 0
730 1 -1.2 9.305948197773537 25.5437270575908 20.563332340103504 -1 -1 0
1682 2 2.4 9.462769420604689 27.055565006549532 21.21141753778738 0 0 0
1938 1 -1.2 9.561761935169828 27.072879058275145 22.832446198852345 1 -1 1
179 1 -1.2 10.824470020739513 27.63722477584449 20.54377786340782 0 -1 0
756 1 -1.2 13.082472696410166 27.00688053522894 21.786034850346837 0 0 0
1153 2 2.4 13.920209351457085 25.623756667819535 21.91733471068312 0 0 0
1642 1 -1.2 15.447216607805615 25.819599570726695 21.597230308237396 0 0 0
400 2 2.4 17.040259827971475 26.350997252298317 21.573052307613093 0 0 0
1505 1 -1.2 17.870103015310715 24.910816984772037 21.947730521981114 0 -1 0
1232 1 -1.2 17.34177392132 27.53159499906041 22.632104947110022 0 0 0
792 1 -1.2 21.330700561049024 27.476070938922625 21.154941126342464 0 0 0
2067 2 2.4 22.86446962061533 26.886190470185294 21.303217963101698 0 0 0
1245 1 -1.2 22.80662901171953 25.460331599564565 22.12394229301348 -1 0 0
1064 1 -1.2 26.653491838317382 26.2579061400633 22.600327757396983 0 0 0
2065 2 2.4 26.62582733288214 25.335089438459264 21.25168168140183 0 0 1
1829 1 -1.2 1.3856635953916092 30.04143367752068 22.331748161331813 1 -1 0
1802 2 2.4 2.398971997294707 29.128721743332644 21.40178972534097 0 -1 0
1833 1 -1.2 1.7591042998632938 27.6288543690699 21.189543650146646 1 0 0
1780 2 2.4 -0.10674354160889804 29.975727449290684 23.18328664625047 1 -1 0
274 1 -1.2 3.8864742479355705 29.23722453907236 22.102355060253455 1 -1 0
962 2 2.4 5.106275351755932 29.093601035650828 23.259922666822128 0 -1 0
127 1 -1.2 5.990381351259165 27.839250218769752 22.9386930725559 1 -1 -1
2023 1 -1.2 12.610715939163653 29.541320459142035 21.15732855023987 0 0 1
1383 2 2.4 12.39142251375287 28.00531042446856 20.665720247188442 0 -1 0
1603 1 -1.2 18.99269250062787 28.832089385163496 20.491573760882666 0 0 0
885 1 -1.2 21.235479281357346 30.12070651054668 20.713096081212157 0 -1 -1
1403 1 -1.2 23.738319100893438 28.02163051423258 22.061199105120252 0 -1 0
283 1 -1.2 27.013013935049706 28.97844389140469 20.690207872449978 0 0 -1
1286 2 2.4 27.72552027732076 30.07026207425552 21.60576564619821 0 0 0
1090 1 -1.2 29.24677855882677 29.514786848274678 22.004014727112814 -2 0 0
847 1 -1.2 6.5628180442143735 1.9904586179232862 25.11316535913518 1 1 0
1177 2 2.4 6.998786812691409 1.199265609481059 23.708967137964688 0 1 0
2043 2 2.4 10.126104667638723 1.7158558822234176 23.699309567944674 0 1 0
1411 1 -1.2 8.650765498668218 0.9546136939639437 23.799329258307797 0 1 0
1704 1 -1.2 10.9867934248294 1.725055917561154 25.115894136421606 0 1 0
251 1 -1.2 13.612824524897873 2.4330582500444273 25.622762107112155 0 0 -1
1246 1 -1.2 15.382780684183615 0.7510034942643579 25.1991538959014 -1 1 0
1441 2 2.4 15.209219698913353 2.2812652178807125 25.81532480444144 0 0 0
1288 2 2.4 18.639537387358775 0.826642866345361 23.343014027150048 0 1 0
273 1 -1.2 18.405322765191265 1.809214210553017 24.646741316322952 0 1 0
496 2 2.4 19.36162409113231 2.435753742097988 25.791462679032122 0 0 0
1799 1 -1.2 24.160529879441807 2.030564346895279 25.29212695913909 0 0 0
1939 1 -1.2 26.80340949721608 -0.10619029420278636 25.471160186682965 0 0 1
1112 1 -1.2 30.02556751443092 1.0094665019707474 23.778530197097112 -1 1 0
1264 2 2.4 29.605735148967273 1.9728424175666617 25.002339593846557 -1 1 0
1396 2 2.4 1.8037814020001526 3.338353122136634 25.98704118874941 1 0 0
264 1 -1.2 0.4706867004728322 3.0405743938024274 25.150028645801516 0 1 -1
1739 1 -1.2 2.6353839611871157 4.314504850666372 25.08746773246366 0 0 0
520 2 2.4 2.829218751634619 4.940575802587149 23.559207315912644 0 0 0
1025 1 -1.2 9.946336273066265 3.33364043653139 23.178940236454057 0 1 0
1464 1 -1.2 9.745140624397102 5.114964993019762 25.254428632905004 0 0 0
1573 2 2.4 10.055358205980287 4.906582714123158 23.672667950054503 1 0 0
1535 1 -1.2 11.670040506712162 5.121439365094165 23.447249465606134 0 0 0
154 1 -1.2 16.033632609585588 3.470923123267475 25.014597108884846 -1 0 -1
14 2 2.4 15.978658172298335 4.675404144856103 23.909979305197176 0 0 -1
1212 1 -1.2 14.363173875652608 4.964027882306695 23.810167790376326 0 1 0
305 1 -1.2 20.26316831220269 3.70835211943166 25.24891015783331 -1 0 -1
1767 2 2.4 21.55473511756357 4.567587502031318 25.821914119721896 -1 0 0
444 1 -1.2 22.960032887603784 4.28871313878021 25.097893804972653 0 -1 0
1719 2 2.4 24.24179875629859 3.39618849504642 24.512764008216344 0 1 0
1944 1 -1.2 25.733087045578927 3.9692890065712714 24.699916801814847 0 0 0
1106 2 2.4 27.335917237669303 4.143661800217451 24.581724317712315 -1 0 -1
1775 1 -1.2 27.729121262170366 5.185105764181282 25.82193035788564 0 0 0
2141 1 -1.2 28.128856796293178 2.723874744157344 24.81257554061621 -1 1 0
349 2 2.4 5.012135716309697 7.246787648114484 23.69949688702213 1 0 0
921 1 -1.2 3.723595686866389 6.280905699970037 23.559573727180286 1 0 0
2026 1 -1.2 5.095498319431311 7.753689441514447 25.197253801366003 0 0 0
1013 1 -1.2 9.92806903467903 7.784161262480624 25.60259961296987 0 0 0
620 1 -1.2 13.001037230563337 6.988982867390523 24.84582671509666 0 0 0
820 2 2.4 13.08710100680188 5.86459377758225 23.59692691669332 0 1 -1
1346 2 2.4 16.20709262572343 7.615474920486385 24.894439054393786 0 0 0
67 1 -1.2 16.577571972333004 6.1308800956326195 24.360681285021556 0 0 0
1547 1 -1.2 21.57444705011711 6.329833094994993 25.593136607641135 -1 0 0
1861 2 2.4 20.929022958917706 7.2674814675740365 24.2444649328922 0 0 0
2108 1 -1.2 20.132201333825886 6.129534448827833 23.35185660149517 -1 1 1
1793 1 -1.2 23.973344197752123 7.468401520116385 25.048781353108918 1 0 0
679 1 -1.2 22.211897517827214 7.76948377902014 23.353053678416675 0 0 0
1720 2 2.4 23.8106208008363 8.230131830651871 23.637144902177216 0 1 1
1160 1 -1.2 29.838739052354672 6.709451367631603 25.6352012719162 -1 0 0
280 2 2.4 30.01063025342348 7.946053267796785 24.594836107105778 0 0 0
133 2 2.4 1.6621583454422522 10.195561847319057 24.911863284984065 1 0 0
324 1 -1.2 0.6454101177042741 9.001337668876992 25.31288468823741 1 1 0
2129 1 -1.2 1.15198051850488 10.71364302366935 23.412357991506394 1 1 0
55 1 -1.2 3.142347682510103 9.654592908444924 25.05284515654359 0 0 -1
1059 2 2.4 4.4343954514642485 9.085733726518342 25.853757073024322 1 0 0
1270 1 -1.2 5.656143883248751 10.199586063188812 25.892113631799283 1 0 0
1685 1 -1.2 8.374426180844614 9.873749201453162 25.71087894208554 0 1 0
497 1 -1.2 10.347437111506988 9.738324025828923 23.86809793608741 0 0 0
1479 2 2.4 9.886567535841705 9.405312634060683 25.398545623793133 0 0 0
2032 2 2.4 14.521552639911896 9.697951127724322 23.238463222350283 0 1 0
462 1 -1.2 15.502574163464537 8.512614884819452 23.673256786179394 0 0 -1
527 1 -1.2 14.632885282999718 10.925715526366657 24.3534594748843 0 0 -1
569 1 -1.2 17.53636154683489 8.427055188275355 25.366129115192678 0 0 0
573 1 -1.2 18.671365084413466 10.702775079530412 24.472618731202253 1 0 0
2126 2 2.4 18.865869075593483 9.334194174961361 25.4780841330226 0 1 0
968 1 -1.2 20.135072344348647 8.485159914666598 24.86991973990225 0 0 0
561 1 -1.2 23.729920569438683 9.822742599807901 23.69301340908259 0 0 0
1004 1 -1.2 26.286425085097992 10.05007847762644 23.68948488213288 0 0 0
1692 1 -1.2 27.014409642094904 10.330918141245196 26.113838386884968 -1 1 0
1392 1 -1.2 28.474976467488542 8.632335879203936 24.410441639783528 -1 0 0
1179 2 2.4 27.620713110606644 10.012739198016924 24.62479031419228 -1 0 0
81 1 -1.2 1.6005481644264228 11.490584393385792 25.837753120843185 0 0 0
12 1 -1.2 8.814325825823143 13.403888289092194 24.269435643610805 0 0 -1
1769 1 -1.2 12.135006451490709 11.775764423330019 23.865856787488994 0 0 0
2073 1 -1.2 13.126143022722385 11.811983008607417 26.31651064390615 0 1 0
1190 2 2.4 13.51041148982249 12.002074985154733 24.724905069324148 0 -1 0
32 1 -1.2 14.082607884581863 13.502079847154398 24.592188297015262 0 -1 -1
1099 1 -1.2 18.40528767010349 13.27899785051613 23.297267664308578 -1 0 0
1227 2 2.4 19.317056094637834 11.992509157754814 23.688830135617085 -1 1 0
479 1 -1.2 20.27157824037125 12.762598475848725 24.802761426855454 0 0 0
548 1 -1.2 24.60267991235153 12.189791777166578 24.113823632634723 0 0 0
1431 2 2.4 25.37197002070913 13.549328380072163 23.898254525200237 0 0 0
129 1 -1.2 28.57736064090347 11.26695902949043 24.19039673262825 0 -1 0
108 1 -1.2 29.329711810239573 13.704307758467886 23.99173402653703 0 0 -1
1321 2 2.4 0.9571372588897354 16.3998976688554 25.995804192309517 0 -1 0
1568 1 -1.2 2.413043637112478 15.797400952592831 25.495207996010702 0 0 0
347 1 -1.2 4.034537889395965 14.056693458264943 24.558710717906184 1 0 -1
2124 1 -1.2 4.951648317107633 16.45325492339766 25.689457800675463 0 0 0
1622 2 2.4 3.8911413425820705 15.241329766731486 25.71751469148358 0 0 0
970 1 -1.2 7.29466984945531 15.480039574855953 25.49827559351383 0 0 0
181 2 2.4 8.75551065106232 14.822431176365178 25.207218092309585 1 0 -1
2122 1 -1.2 9.468144924169412 16.002096227418832 24.234419298819244 0 0 0
207 2 2.4 11.086506036153855 16.264663289693814 23.94744473158218 1 0 -1
1308 1 -1.2 11.89368076007985 15.56053699891872 25.18955615813755 0 -1 0
2127 2 2.4 14.884095261893618 14.742896710073113 25.221695259671897 0 0 0
1974 1 -1.2 15.014788194210466 16.03016054074501 24.169141156058036 0 0 1
1544 1 -1.2 16.435274902446867 14.531451373655157 25.712594031549436 0 1 0
860 1 -1.2 21.449774518722492 14.648307033760204 26.04085236912178 0 1 0
1474 1 -1.2 19.903678663219488 15.512360868041942 24.054637983274407 -1 0 0
1298 2 2.4 21.40696365236634 15.643599953122292 24.748541460280954 0 0 0
1494 1 -1.2 22.511788901962486 15.589481867283174 23.535426494619347 0 0 0
2003 1 -1.2 25.262072785672093 14.474141619772801 25.205329843532528 0 0 0
1174 1 -1.2 30.132770281797264 15.522788883276988 25.417857864616394 -1 0 0
1576 2 2.4 29.36099388674339 14.122214213741582 25.56157979928775 0 0 0
833 1 -1.2 27.737019268440445 14.110252161079018 26.08672640813742 -1 1 -1
1527 2 2.4 1.868773068083669 19.04393728846635 26.144527096008023 1 0 0
1949 1 -1.2 0.908161025091704 17.943175831659712 25.500384407651506 0 0 0
1406 2 2.4 6.585086984179108 16.935020884529774 25.86791244111587 0 0 0
1460 1 -1.2 7.1130218352535355 18.21229230927645 24.942326402938775 0 0 0
2103 2 2.4 10.54136279299196 19.26944345705875 23.53288624129174 0 0 0
1546 1 -1.2 11.276909443469993 17.84422586375409 23.870248761834304 0 0 0
224 1 -1.2 16.123901972531282 18.158813210409495 26.182549826951714 -1 0 -1
2096 1 -1.2 16.664483916692657 18.014504460605806 23.500228578530766 0 0 0
1225 2 2.4 16.934668710137174 18.74036516509894 24.917639366779206 -1 0 0
369 1 -1.2 18.521218828127438 18.656055328762665 25.333145040707713 -1 0 -1
971 1 -1.2 21.81146359884671 17.106565227375313 25.44028688641062 0 0 0
1238 2 2.4 22.358578656263994 18.500182940917497 25.995552515744595 0 1 0
1845 1 -1.2 23.965661168240903 18.69708189034975 25.54932625589271 0 0 0
1073 1 -1.2 27.852516611660025 18.708443461731544 25.57020906046272 0 0 0
2146 1 -1.2 1.0287169424435338 20.417462363159302 26.378791171780577 1 0 0
2039 1 -1.2 2.9756486968348477 19.33146655648174 24.938364666194158 0 0 0
452 1 -1.2 4.873758473603315 20.331736899503085 23.490122185856215 0 -1 0
1273 2 2.4 7.865062104963692 19.672040487456314 24.747931403563594 0 0 0
1747 1 -1.2 7.469901412713328 20.69350257549936 25.92698862697117 0 -1 0
204 1 -1.2 9.473341141922193 19.582009545976135 24.743494960927087 0 0 -1
830 2 2.4 12.84485518680167 21.64717808134858 23.378464855592775 0 0 -1
515 1 -1.2 11.760232324951765 20.335461937370567 23.401375267474297 0 -1 -1
1082 2 2.4 15.945051780749337 21.761643724708236 24.359913660008512 -1 0 0
1687 1 -1.2 14.385168190579998 21.34089541232305 23.9248680983934 0 0 0
1628 1 -1.2 16.599209248374102 20.281666812320466 24.66008319059218 0 -1 0
177 1 -1.2 21.170601770582543 19.556862478326263 25.409118779578012 0 0 0
1510 1 -1.2 19.399701789606148 21.11025534402616 24.270702866645344 1 0 0
1827 2 2.4 19.68938855947839 19.568923835449322 24.61415690096163 0 0 0
472 2 2.4 22.91314467094687 22.03369852440934 23.594515814049103 0 -1 -1
1476 1 -1.2 23.682316620267375 21.27732904839855 24.76605717019927 0 0 0
1550 2 2.4 24.784395800060825 19.995907314881972 24.944928848847244 0 0 0
285 1 -1.2 26.152608810637147 20.57618914071815 25.61678641029844 0 0 -1
718 1 -1.2 25.51997096813269 19.509734771869706 23.56556580443748 0 0 0
287 1 -1.2 28.42931316158922 21.11878164212455 24.18052678755012 0 0 -1
75 2 2.4 27.825544391301122 20.395091732762 25.482426711548317 -1 -1 -1
1614 1 -1.2 3.1665492535291344 23.554856866664608 24.141735120909434 1 0 0
1834 1 -1.2 7.722273928627768 23.640425129990938 26.13570493019893 1 0 0
1988 1 -1.2 8.74030458411085 23.691457681045335 23.653760865650955 0 0 0
557 1 -1.2 10.147732744892728 23.18473455147875 25.852361615202728 0 -1 -1
1466 2 2.4 8.923536176015624 24.136048021598302 25.186975156246792 0 0 0
107 1 -1.2 12.113574366707606 22.797108971748802 24.186451704528142 -1 0 -1
674 2 2.4 11.774917611301364 23.22422497277108 25.70179420846702 0 0 -1
1255 1 -1.2 12.578446015025708 24.63437959957854 25.97679525091254 0 0 0
1968 1 -1.2 16.365730052613102 22.533310853363467 25.712897923529678 0 0 0
1571 1 -1.2 19.108025976494986 23.60388436688446 23.92295117169556 0 0 0
736 2 2.4 20.073432120779604 22.608489328240907 24.810089663311786 0 0 -1
1943 1 -1.2 21.64755848038143 22.810786155348953 24.318895985366375 0 0 0
946 1 -1.2 27.305397933485022 23.351591942139205 24.08269982355836 0 0 0
616 2 2.4 27.313774212402006 24.24682450079299 25.43401278637648 0 0 0
1267 1 -1.2 28.844287013836503 24.183290936090433 26.049913730941412 0 0 0
1619 1 -1.2 1.3812290922773758 25.464767049283594 23.70647428781944 0 0 0
936 1 -1.2 4.208997221315774 25.94234023220743 23.57228292089942 1 -1 0
1461 1 -1.2 2.8925186933000235 25.46653671803706 25.91521115889683 0 0 0
2006 2 2.4 2.9069292869311525 25.13856531799986 24.33883767095578 1 0 0
325 2 2.4 5.773974895644563 26.288153774973466 23.60605609176834 0 0 -1
1566 1 -1.2 6.385534942466583 26.4281785059557 25.192754006010876 1 0 0
1299 2 2.4 9.685505106333377 27.090656929628736 24.46475294636005 0 0 0
2038 1 -1.2 9.610530991809028 25.649529423017235 25.251886782345558 0 0 0
1736 1 -1.2 13.71373455429091 27.021396849433614 25.222408571429533 0 0 0
704 1 -1.2 13.727355281207926 25.057291953756 23.478303617877387 0 0 0
1141 2 2.4 13.778720217901279 25.380399470363415 25.114139895301367 0 0 0
1116 1 -1.2 15.16490548927461 24.826834394405882 25.71958963134243 1 0 0
2000 1 -1.2 27.096730471174084 25.829963895970096 25.105678379402548 0 0 0
445 2 2.4 27.715864184629385 26.524975134654767 23.757287943869276 -1 -1 0
1282 1 -1.2 29.776798331754062 26.62464686972956 25.975572705078477 0 0 0
60 1 -1.2 29.269526334344263 26.128202015597306 23.456647015079668 0 -1 -1
1120 2 2.4 0.04454749725150391 28.078685965909933 25.812691581640866 0 0 0
1149 1 -1.2 30.195108335890477 28.88605886438262 24.45363542399425 0 0 0
2004 1 -1.2 1.7216498827321098 27.899690635401978 26.113435655757787 1 0 1
6 1 -1.2 4.293463001546164 29.150708107572616 24.70516568941069 -1 -1 -1
1096 2 2.4 4.725812756310924 29.048486701586356 26.282489255462387 0 -1 0
471 2 2.4 7.1738023974210465 27.50149332432233 26.0500591605945 0 -1 0
1618 1 -1.2 6.347101483455598 28.89428267666339 26.44182758372866 0 0 0
1702 1 -1.2 8.446513227815178 27.9595932125502 25.089547372606106 0 0 0
2071 1 -1.2 11.142757353212234 27.859046101888282 24.745944795098133 0 0 0
1180 2 2.4 12.548239716837939 28.15310933495176 25.513597350512867 0 0 0
307 1 -1.2 13.138004782874495 29.60658160328114 25.061482866694902 0 0 -1
1574 2 2.4 14.44374783953749 30.206378138174927 24.299242263248818 0 0 0
2057 1 -1.2 15.505651889459557 29.135129120231813 23.731969237878435 0 0 0
114 1 -1.2 17.47775544181925 27.80033867328253 25.18354566200104 0 -1 0
2054 2 2.4 17.04888932649739 28.62551990823251 23.79620469932551 1 0 0
1320 1 -1.2 18.045625698065127 29.868820075211108 23.707096182669027 0 -1 0
832 2 2.4 21.720466551296617 28.336452827258405 25.641135623861118 0 0 0
201 1 -1.2 20.124660119683995 28.126421514461583 25.86115398423595 0 0 -1
1718 2 2.4 23.402263894145953 28.962364223372454 23.335632623619063 0 0 0
1317 1 -1.2 22.189287154247356 28.290649913028293 24.044250574049105 0 -1 0
810 1 -1.2 22.20508008233694 29.721475567406376 26.249224899302234 -1 0 -1
1832 1 -1.2 27.412662550327077 28.087136741954826 24.11195081226263 0 0 0
1249 2 2.4 26.375551011081086 29.40584377699728 24.157561508901356 -1 0 0
17 1 -1.2 24.816022475862223 28.916783063082285 24.11446166227792 -1 -1 0
1427 1 -1.2 2.7348446368316464 1.991145672843548 26.173501569623422 0 0 0
1343 1 -1.2 1.7656213912535177 0.005646128627891062 27.842532806933566 0 0 0
1862 2 2.4 3.0305344164036763 0.9262961549299457 27.400719894775484 1 0 0
1681 2 2.4 4.83221621069518 2.630834642911786 28.882404423333035 0 1 0
1953 1 -1.2 3.507606356380525 1.751083154359126 28.68427292590277 0 1 0
480 1 -1.2 4.188136410534454 -0.09014007678201433 26.909821156696896 0 0 -1
931 1 -1.2 5.712264728213957 2.16048282500047 27.583970645768826 1 0 0
625 2 2.4 6.937263423698899 2.008631658426395 26.60711369407162 1 0 0
1306 1 -1.2 7.797372600972249 0.6463599661142205 26.85832041568541 1 1 0
1612 2 2.4 8.493336005445242 0.24139292829153805 28.352041674528945 1 1 0
797 1 -1.2 8.340695069665209 1.584352247518531 29.261519261771653 -1 1 -1
1707 2 2.4 12.100998200750244 2.2672951861595245 26.169651867761235 1 1 0
1921 2 2.4 11.417450520255986 0.402619634937265 28.629963815034326 1 0 0
1328 1 -1.2 12.000979241517008 1.193896508706024 27.348634999911614 0 0 0
1068 1 -1.2 15.811914851159955 2.4971004670871486 27.32594239593879 0 0 0
339 2 2.4 17.326183331924096 2.6074184354876744 28.087347004238982 0 1 -1
1836 1 -1.2 17.676286716692665 1.0855595487274883 28.68746134871503 0 0 0
344 1 -1.2 20.19649483042007 1.198779187369642 26.45751933027502 0 1 -1
1694 2 2.4 21.37396116706193 0.38776115370219444 27.11787859145554 0 1 0
822 1 -1.2 22.58140506499381 1.488464563197154 27.29156087301249 0 1 -1
831 2 2.4 24.061023047520692 1.9229979107956685 26.945297246028943 0 1 -1
1503 2 2.4 26.56718467232739 0.1536813627106072 27.042748795431372 0 1 0
798 1 -1.2 25.129193644787396 0.7832796966187797 27.374384021052656 -1 1 -1
240 1 -1.2 29.67745675409535 0.13316868181524247 29.018663140214073 -1 1 -1
1763 1 -1.2 29.704347989847715 1.1963046173264003 26.435359022260556 -1 0 0
304 2 2.4 29.09384519437265 1.389558215026419 27.915142815053777 -1 0 0
1998 1 -1.2 27.494668553933675 1.2926483374452025 27.817561017795438 0 1 0
1930 1 -1.2 1.325574676582702 3.887399378260892 27.463692505021246 1 1 0
1057 2 2.4 0.10502662450199807 4.079167740604476 28.534402980469544 0 1 0
1534 1 -1.2 4.541552036647366 4.249806342632826 28.90843520631552 0 0 0
82 1 -1.2 7.925029806066224 3.206033636173291 27.2512073465637 0 0 -1
1961 1 -1.2 9.794056587316549 3.8096050523368796 29.01454274819594 0 1 0
1540 2 2.4 8.335855100464446 3.1643028932243102 28.790334913965857 0 0 0
1606 1 -1.2 11.729326016603249 3.7582121381719413 26.60931517103707 0 1 0
1850 2 2.4 12.078598626990908 4.943615433216219 27.672914744040394 0 0 0
906 1 -1.2 18.475631656407874 3.062570799729762 27.060100009683026 0 0 -1
241 2 2.4 21.257902779225283 4.110958680287073 29.097573046990604 0 0 -1
1230 1 -1.2 21.42581928331308 4.442441532803535 27.428342885350638 -1 1 -1
747 2 2.4 24.05883625569475 4.719367339379888 28.39675609317513 0 0 0
1380 1 -1.2 24.33970382166138 3.3334318894275974 27.658958058512574 -1 0 0
1631 1 -1.2 29.49155095161033 2.7913966371528582 28.570464086821207 -1 1 0
1472 1 -1.2 3.5323637803972736 6.747454355245439 28.96991805306474 0 0 0
1936 2 2.4 3.279542360841996 8.341385912862878 28.837392319788094 1 0 0
473 1 -1.2 6.138387179242967 6.26804493046294 28.327772314168048 1 0 0
27 2 2.4 7.419572531201693 7.20798293135291 28.00312697100852 0 0 -1
362 2 2.4 9.719348184270986 6.311448627121906 26.298759430805593 -1 1 -1
1928 1 -1.2 8.153409887728204 6.291485379340171 26.821228448087723 1 0 0
431 1 -1.2 10.857080712050786 6.058928789520952 27.383733427989103 0 1 -1
1797 1 -1.2 13.436096949833967 5.66261652546234 27.21868745558611 0 0 0
1791 2 2.4 13.553289282858916 7.115571710620853 26.432749308692447 0 0 0
550 1 -1.2 15.119495141325416 7.570021205920172 26.147486395625435 0 0 0
1933 2 2.4 23.11956670567445 7.012990527308514 26.38669801673317 0 0 0
175 1 -1.2 23.887861056378245 5.822632249611902 27.059633203469186 0 0 -1
1543 1 -1.2 25.37038060018092 5.4146774845582 28.992103496734156 0 0 0
576 1 -1.2 29.568730706493433 5.277928933610353 27.916310824738886 0 0 -1
1405 2 2.4 28.781824272033624 6.087826563470072 26.634987298735172 -1 0 0
583 1 -1.2 27.93319858656048 7.348368731022876 27.262288197459505 -1 0 -1
1729 2 2.4 27.923044964293958 8.11455076145969 28.732208524187097 -1 0 0
360 1 -1.2 1.7064557937209623 8.720114201149674 28.753021228413115 1 1 -1
294 1 -1.2 0.17983349351459857 10.817810291194293 27.902171307800394 0 1 -1
1813 2 2.4 0.3585126231432902 9.583831714906266 28.98943129681249 0 0 0
762 1 -1.2 3.873248604809476 8.644668296681726 27.27685958941744 1 1 0
2148 1 -1.2 6.940241983498605 8.67473502510459 27.57461574031463 1 1 0
1660 2 2.4 7.070107299111305 10.039019138243512 26.69289055631408 0 0 0
983 1 -1.2 10.927605099989451 10.207326509034802 26.254022993393306 0 -1 0
683 1 -1.2 10.666920990958173 8.462509397636152 28.907081191614914 0 0 -1
1379 1 -1.2 13.016495349611544 8.292641707636202 27.472915438526904 -1 -1 0
1648 2 2.4 12.191976419200355 9.035043758259746 28.702805593260702 1 0 0
672 1 -1.2 12.188117322109525 10.669573815931866 28.49599862599862 0 1 -1
1865 1 -1.2 19.28007351425733 9.618093923252536 27.035214706432573 0 0 1
626 2 2.4 19.022949472297817 9.898474293808027 28.591012207467024 0 0 -1
2049 1 -1.2 22.68454480917673 8.22553100879845 27.386319191746605 -1 1 0
987 2 2.4 23.342067068576583 9.497108079687044 28.09415497894459 0 0 0
1235 1 -1.2 24.763551375352396 9.550825015374151 27.35156861463819 -1 1 0
1376 1 -1.2 26.993850886710984 9.431094037907686 28.609114972524228 0 0 0
1587 2 2.4 26.2210358646696 10.316297216043624 27.469285125553693 -1 1 0
1762 1 -1.2 29.4512928369287 8.604768537486617 28.98038310644896 -1 0 0
710 2 2.4 0.8502130805541687 12.073661800146759 27.128829608450584 1 0 -1
1913 1 -1.2 1.93404559750548 12.75144647407439 28.037077015359824 1 0 0
239 1 -1.2 4.553023762540758 12.21623647724427 28.284452215314708 0 0 -1
196 2 2.4 3.4898561226511506 13.463455223762917 28.308011498707888 1 0 -1
543 2 2.4 6.10717421647457 12.031918644367401 28.654399739730284 1 0 -1
1136 1 -1.2 7.083767021478109 11.515270163409747 27.448044663372695 0 0 0
872 1 -1.2 10.687363908817835 12.472299756676179 27.50762335518844 0 0 0
195 2 2.4 11.761213579913159 11.355103203942244 27.016741276195027 0 0 -1
23 1 -1.2 16.899745830934304 13.358400249842136 27.936000369402947 0 0 0
1870 1 -1.2 17.755729412450343 10.938263949778255 28.815805625801854 0 0 0
1539 2 2.4 20.2335552247983 13.579738143764278 26.221019510043302 -1 0 0
236 1 -1.2 20.43393348959401 12.47516635085469 27.372478758649503 -1 0 0
856 2 2.4 21.37278022262018 11.602177844683617 28.374900614507567 0 0 0
1421 1 -1.2 22.471787359964026 10.790519638280951 27.584525280371665 0 0 0
380 1 -1.2 25.787864576837872 11.861421492462979 27.91981911723655 -1 1 -1
1060 2 2.4 26.09117538770315 13.223166878877437 28.743294088719004 0 0 0
1438 1 -1.2 30.00709596469588 13.112578743528514 26.644675544012095 0 0 0
648 1 -1.2 0.9002548668437524 16.256618395725777 27.60617588183241 1 -1 0
523 1 -1.2 3.97137263196008 14.424635261222276 27.153711021065835 0 0 0
2011 1 -1.2 9.333266476085596 14.59171643604594 26.699703325053534 0 0 0
721 2 2.4 10.431992455441918 14.03385917128341 27.7579063291638 -1 0 -1
1559 1 -1.2 9.851807916335744 14.468789387841793 29.288951103478396 0 0 0
1205 1 -1.2 11.915607295955834 14.752212267217674 27.75589005559931 0 0 0
1923 2 2.4 12.600803186345031 15.725422684420561 26.64878903467909 1 0 0
215 1 -1.2 14.087612650188042 15.205660365077442 26.60172022405607 0 0 -1
601 2 2.4 17.324840683031876 14.689405707405514 27.085681741247836 0 0 -1
1823 1 -1.2 18.94251977997104 14.48091301091062 26.730315954655353 0 0 0
1985 1 -1.2 16.986437377927945 16.147174373667557 27.82170255843873 1 0 0
504 1 -1.2 26.796269823037438 16.436277747957117 26.144387149904865 0 -1 -1
1663 1 -1.2 25.69724920304496 14.502495354206669 27.774181860239203 -1 0 0
2151 2 2.4 26.384122954570067 14.917688056591045 26.303926906997717 0 1 0
732 1 -1.2 29.033762878710714 15.101770555347613 28.497989616554097 -1 0 -1
806 2 2.4 29.87270150212519 16.455706222978485 28.411850377625477 -1 0 -1
1593 1 -1.2 2.6367133675789245 18.65080117358339 27.569002395823002 0 0 0
642 1 -1.2 4.984657080192091 18.356344316987364 28.837219039309517 0 0 -1
1609 2 2.4 3.6730450684471427 19.302589636910295 28.659332600638464 1 0 0
313 2 2.4 6.409203305719948 17.56948366826786 28.939729776905867 0 1 -1
646 1 -1.2 6.915616129663012 17.328529675018647 27.410362855516293 0 1 -1
1152 1 -1.2 12.393005441195877 17.178891491365153 27.313820256783416 1 -1 -1
1551 2 2.4 13.194100249448946 18.2384080525147 28.24729133677943 0 0 0
320 1 -1.2 14.77889361407016 17.95581859792424 28.392457349310526 0 1 -1
1873 2 2.4 16.315505054023724 17.69663027423215 27.708117435698284 0 0 0
1451 1 -1.2 17.199286710788886 18.850516979969484 28.437426764003778 -1 0 0
7 1 -1.2 22.60606384630107 18.811309147651958 27.534729947365328 0 -1 -1
1895 1 -1.2 26.40542240654524 18.187328656543187 27.91180595326281 -1 1 0
1856 1 -1.2 28.964728141093097 17.509336427167067 27.588001567920255 0 -1 0
1634 2 2.4 27.519987911982973 17.69906203108979 26.773601391210406 -1 0 0
1268 1 -1.2 30.23650862383379 19.9371663194233 28.70794076342169 -1 0 0
1905 1 -1.2 4.086764892777638 20.77696492993269 28.391757638283913 -1 0 0
1281 1 -1.2 8.084958672014851 22.03245096630164 28.06380400707824 1 0 0
1044 1 -1.2 10.65457248215221 21.111706698913952 28.36939402484489 0 0 0
1045 2 2.4 9.347057653568958 21.79162165737892 29.055551871426097 1 0 0
1680 1 -1.2 12.347784712817612 21.979956896579157 26.622069971672634 0 0 0
1357 2 2.4 12.232743742785038 21.1247265072042 27.94073130290147 1 0 0
1857 1 -1.2 12.775127551688358 19.68459014405557 27.62599367843547 0 0 0
809 1 -1.2 13.201954433286655 21.689092952562824 29.1574263610444 0 0 0
1752 1 -1.2 15.774023363752052 21.03385632079682 29.103099075904304 0 0 0
1482 1 -1.2 18.1827093237384 21.289865911291393 28.091659269589773 0 0 0
1069 2 2.4 17.228763433047845 20.369906874515596 29.03377701513285 0 0 0
1389 1 -1.2 20.68163283894651 20.65549099889842 28.29734265156083 0 1 0
1922 2 2.4 21.910195096600656 19.741627392880883 28.71060015394398 0 0 0
1779 2 2.4 19.718912447053192 21.960002443862454 27.973970423323085 0 0 0
1054 1 -1.2 22.877706458288426 20.889319763773933 29.3739405312617 0 0 0
712 2 2.4 30.222132625776702 20.975339796283496 27.36972864309883 0 0 0
1319 1 -1.2 28.627324469919692 21.043944735470873 26.809849740485713 -1 -1 0
142 1 -1.2 0.20630437701845195 22.415757722574106 27.760990318812514 1 -1 0
2149 2 2.4 1.3463629906098444 23.482964656891287 28.123787944386958 0 0 0
753 1 -1.2 0.7411762429963589 24.753071670915855 27.28185996320149 0 0 -1
1816 2 2.4 4.3666734713145035 22.31599982346333 27.909136642234266 0 0 0
1871 1 -1.2 2.8285751673469055 22.903902947800123 27.711821735789247 1 -1 1
11 1 -1.2 5.587609843904386 22.35614426820047 26.670509773546822 -1 -1 -1
2031 2 2.4 7.239502210990699 22.164841290635735 26.6710011755793 0 0 0
1122 1 -1.2 14.82898181588922 23.1422692053219 27.69043908617641 0 0 0
1215 2 2.4 15.89505690118842 23.76445379192816 26.679068934552063 0 0 0
183 2 2.4 14.709080887210161 22.25143887525092 29.103355406931833 0 0 -1
1195 1 -1.2 17.211643819542992 24.48213898486033 27.443083391017698 0 0 0
1066 1 -1.2 20.016633350475413 22.63558296358037 26.474976792010306 0 0 0
48 1 -1.2 20.062598371180226 23.02126800582826 29.106018809602915 0 -1 -1
406 1 -1.2 24.162139344748905 25.129263316522945 27.23287316977307 0 0 0
2159 1 -1.2 24.705946726180635 22.69351878029432 28.441529129786044 0 0 0
120 1 -1.2 26.222133862278216 23.69394502326632 26.5318400260049 0 -1 -1
1394 2 2.4 25.3138515246884 24.077935723853777 27.840727514392164 0 0 0
1258 1 -1.2 2.449706374678139 26.76752609615456 28.392805820985185 1 0 0
541 2 2.4 2.8025131924371336 26.84896814379375 26.757110948981296 1 -1 0
1605 1 -1.2 5.8809719623904995 25.230897718200538 28.825575683552078 0 0 0
2150 2 2.4 7.187840404690196 26.236213819274845 28.92415481774453 1 0 -1
1365 1 -1.2 7.802184923425942 26.715757766048196 27.40931068528537 0 -1 0
659 1 -1.2 11.618909690514574 27.111874831274207 29.289112223048043 -1 -1 -1
677 1 -1.2 16.317558337014265 26.545392713210642 29.010159921979948 0 0 -1
326 2 2.4 17.635759875609757 25.73982704909992 28.371440563360544 0 0 -1
94 1 -1.2 18.378866762516292 26.807072885922015 27.33182597665808 0 -1 -1
202 1 -1.2 22.60011333151019 27.063937968901694 26.355859414972645 0 0 -1
1764 1 -1.2 23.11785296984783 26.890033573004104 28.889494062419455 0 0 0
87 2 2.4 23.80817400592734 26.691005681550212 27.44232985970923 -1 0 -1
982 1 -1.2 26.30621143470338 24.976203195277776 28.90605670289449 0 0 0
1283 1 -1.2 25.017401170050125 27.639189431381144 27.387222463016524 0 0 -1
1728 1 -1.2 28.737183102068503 25.64957901945989 28.22650357625375 0 0 0
1635 2 2.4 29.661947936473897 25.297404149498853 26.870250052110183 0 0 0
662 2 2.4 0.4729896782980258 29.604172619219504 28.25339495287242 0 0 -1
1506 1 -1.2 4.17585233336517 27.671579394370283 26.865527208512226 0 -1 0
1869 1 -1.2 10.001907793833674 30.2881448601351 28.028154353520634 1 0 0
276 1 -1.2 12.171541752838458 28.260215217965847 27.057172517350917 0 0 -1
1888 2 2.4 12.506274122978377 28.237973347419672 28.635819341723042 0 0 0
559 1 -1.2 16.178770952744053 29.311345600939944 28.97387874666807 0 -1 0
558 1 -1.2 14.055700981105687 27.853290701392748 28.791292995643232 0 -1 0
217 2 2.4 18.499651521260407 28.029689692631365 26.37853794432773 0 -1 -1
446 2 2.4 17.645436770560426 29.947864753027304 28.697160078735298 0 -1 0
475 1 -1.2 18.178704875078243 29.32630344641591 27.324284506590992 0 -1 -1
1005 1 -1.2 20.952521945888364 30.186930949685326 28.412635113909168 1 -1 0
1841 1 -1.2 24.42287269378072 29.482879363751575 29.21732862937109 0 -1 0
1226 2 2.4 25.57345110484974 28.519751395389303 28.6232940508327 -1 1 0
1278 1 -1.2 26.801023298911705 29.36902311068314 28.002599111502818 0 0 0
991 1 -1.2 29.930483012170427 29.097702965309086 27.047318686174837 0 0 -1
656 1 -1.2 0.1448894984646681 30.259823113700257 31.736973012972896 0 0 0
1295 1 -1.2 5.546551834511791 2.1320083504497034 30.3345255005879 0 1 -1
1509 1 -1.2 7.88624300975097 1.3751029530249212 31.729813814363617 0 0 0
35 1 -1.2 11.443839066840033 1.586915327334548 29.807904885279857 0 0 -1
2088 1 -1.2 21.31824042895907 2.5250127854795714 29.58840451010462 0 1 -1
781 2 2.4 21.728620168478294 1.3313887975059107 30.721493291646393 0 0 -1
1507 1 -1.2 21.67337072436495 2.0938023516284643 32.13960748662775 0 1 0
1002 1 -1.2 20.79389795480556 0.047913394431256834 30.888734544737737 1 1 0
365 1 -1.2 23.26547253782287 0.9403254018034635 30.421991708886374 -1 1 -1
2137 2 2.4 26.81337744640964 1.0413909531729697 31.965078308526614 0 1 0
370 1 -1.2 25.620788854941175 0.3601000573083017 31.08566380209671 0 1 0
1889 1 -1.2 28.225199803316197 0.8245123093422717 31.094747962239556 0 1 0
1305 1 -1.2 0.4596986425299715 4.259574611243745 30.139285801969642 -1 0 0
2024 1 -1.2 7.409944224819725 3.7084963149313284 30.029978888543905 0 1 0
1744 2 2.4 6.939677835050293 2.5763288712336694 31.137563927654337 0 0 0
1859 1 -1.2 10.7925577138861 3.302852796117072 31.52908280239088 0 0 0
1202 2 2.4 11.025313114557749 3.176315282557854 29.903788754043692 0 1 0
18 1 -1.2 12.188458497285382 4.256211192259542 29.179213397886432 0 0 0
754 1 -1.2 17.322998623738076 3.706068178545268 29.29556607682839 0 1 0
1843 1 -1.2 18.397402147695015 3.8343663660548235 31.767053270375584 0 1 0
50 2 2.4 18.35524079790231 4.560029103726137 30.29870269648255 0 0 -1
89 1 -1.2 19.87811468604719 4.687106544949914 29.630874120315607 0 0 -1
1795 1 -1.2 22.78305914506205 4.680621117062405 29.441360536846737 0 0 0
41 1 -1.2 26.53801660098298 2.5750803775064273 32.119787316239965 0 0 -1
689 1 -1.2 26.21785864526452 5.2945894119392705 31.460603259064722 0 1 -1
1972 2 2.4 30.16822935783809 3.9698490850412207 31.621640820068478 0 1 0
1782 1 -1.2 28.55174345327824 4.158522889317447 31.597946183856603 0 1 0
1864 2 2.4 4.885825431928161 5.804930442691541 29.208052985928806 1 0 0
1497 1 -1.2 5.257990635099994 5.957749977523824 30.78852281226003 1 0 0
2018 2 2.4 6.2331378413535905 6.9149711092435515 31.662554696456585 0 0 0
510 1 -1.2 8.346725482927567 7.455853706064406 29.311854828669503 0 0 -1
1738 1 -1.2 9.881349987634566 7.613390767131051 31.405759564672994 -1 0 0
333 1 -1.2 17.727514529749435 6.089909974846739 30.345190187467406 0 1 -1
1815 2 2.4 18.311167014092053 7.579452375390564 30.72181668011611 0 0 0
1498 1 -1.2 19.59985526929131 7.159580935710275 31.686759659289926 0 0 0
1740 1 -1.2 24.707952608628105 7.3091979707859815 30.797874255464002 -1 0 0
377 1 -1.2 22.12961681857642 7.871604301684775 31.57126160994091 0 1 -1
206 2 2.4 25.895103643453044 6.308690988294012 30.254085429357694 0 0 -1
1819 1 -1.2 27.180526419088935 7.175956700142061 29.93052206158388 0 0 0
1475 1 -1.2 0.5413362044089074 10.213885644268771 30.464920091126867 0 0 0
1504 2 2.4 0.9697827168472164 10.434316182271463 32.01882954302879 1 0 0
392 1 -1.2 4.0728342868991305 9.332873441085418 29.820208861770713 0 1 -1
630 1 -1.2 5.168796373956953 10.251298115356317 32.098358747232176 1 0 -1
1024 2 2.4 5.481181499379291 9.727767389012575 30.60016809686505 0 0 0
1471 1 -1.2 6.179075138497538 10.952915336252431 29.806991012711418 0 0 0
1032 1 -1.2 6.329588216708382 8.292126746598898 30.751818044704088 0 0 0
1910 2 2.4 9.475825881473263 8.434528595157158 30.01695272031603 0 0 0
1723 1 -1.2 8.883001382920849 9.869014661777493 30.456526204076482 0 0 0
1348 2 2.4 12.433026574205353 10.170918991383422 31.34218613554654 0 0 0
1880 1 -1.2 12.836360375350056 9.003873960908702 30.192992629614494 -1 0 0
668 1 -1.2 17.22865302311735 8.315599986086509 31.58451762989264 0 1 0
1883 1 -1.2 18.758196983439806 8.49028011194703 29.39838956904711 -1 0 0
1137 1 -1.2 20.455131815720915 10.466768722719243 29.112192097026586 0 0 0
1447 1 -1.2 23.323114317183688 9.285179070067398 29.682906268104777 0 0 0
484 2 2.4 23.621978821777482 8.446487569134836 31.1101936304149 0 0 -1
563 1 -1.2 3.4731272134383353 12.155652849597054 31.305283688881083 1 0 -1
106 1 -1.2 6.614473043425949 13.487804724422533 29.22832146138289 1 0 -1
1522 1 -1.2 9.043359685878897 12.54249359396957 30.791226975413394 -1 0 0
361 2 2.4 9.41047523058319 11.112598389629174 31.466960677467444 -1 1 -1
46 1 -1.2 11.00880851631654 10.833547676307324 31.248520289270264 0 0 -1
1992 1 -1.2 13.659138441074541 11.324890384301373 31.46409434024975 1 0 0
99 2 2.4 15.168797389382414 11.887754304298982 31.426571150925206 0 0 -1
598 1 -1.2 15.609460002777872 12.03898061050621 29.869857042477488 0 0 0
1673 1 -1.2 15.208842094554267 13.310032444620465 32.22829391777071 0 1 0
963 2 2.4 17.09815354937471 12.394360722562643 29.276918758409217 0 0 0
1450 1 -1.2 18.01627982840623 13.262043033149071 30.435228629848396 0 0 0
1822 1 -1.2 21.970638449452963 12.831126339091014 29.33576281915476 0 0 0
1655 1 -1.2 25.079729888666208 13.009900601068107 30.115664177496203 0 0 1
1399 1 -1.2 27.550547266061276 13.311918300798741 29.324522434462548 0 0 0
840 1 -1.2 29.98298857407713 13.529210555110588 30.50110025281885 -1 0 -1
2 2 2.4 29.914925594398095 13.07776390338623 32.080521170704 -1 0 -1
974 2 2.4 3.6591639554402615 13.793745630577286 31.267386468234253 0 0 0
636 1 -1.2 3.2649282784929947 14.196097017000438 29.730950376649073 1 0 -1
1818 1 -1.2 5.301954034704782 14.257917265732594 31.384252722571524 0 -1 0
1955 1 -1.2 7.825457733170857 14.8607650113857 31.040113148584084 0 0 0
1395 2 2.4 6.434163823499313 14.689430158737236 30.27536067688078 0 0 0
1440 1 -1.2 6.1283907428229165 16.193603844878954 29.64790621142862 1 1 0
2068 2 2.4 9.27480270203133 14.155294849771822 30.756529201577948 1 0 0
740 1 -1.2 10.388753140521562 14.610814601477875 31.92897483653883 0 0 -1
1588 2 2.4 18.90132703592035 14.098183424241649 31.42655314727276 -1 0 0
993 1 -1.2 18.747077520389233 15.759512644312116 31.197328721240737 0 0 0
1886 2 2.4 21.911417581095588 14.096911673866135 30.310417941877773 0 0 0
1917 1 -1.2 20.509979238394802 13.854222187401469 31.194516457885722 0 0 0
43 1 -1.2 21.898805396471847 15.67188238078699 29.714171131854762 0 0 -1
964 2 2.4 24.693278082974878 13.850757793199662 31.41329874981655 0 0 0
920 1 -1.2 23.08664722653063 14.059026071659211 31.434010403840464 0 -1 0
93 1 -1.2 25.38777241877177 15.36894405443055 31.356836106757598 -1 0 -1
464 1 -1.2 28.0787910823938 15.191596683098307 31.118904879618864 -1 0 0
2101 2 2.4 28.72116108950473 14.272853494745627 29.893663859421626 -1 0 0
2107 1 -1.2 1.5768962289483772 17.789825036316667 31.70993217366774 1 0 0
854 2 2.4 0.05733544215679469 17.59428590878113 31.31710750177887 1 0 0
439 1 -1.2 0.021903902832917765 16.84115910516778 29.898466638234467 0 -1 -1
62 2 2.4 2.3382981322150305 19.277126335146274 31.61448966213188 1 -1 -1
1980 1 -1.2 7.6502527737661925 18.44961058719654 29.634919287490515 0 0 0
1036 2 2.4 8.560607877614002 19.243017225639786 30.712603347802837 0 0 0
1006 1 -1.2 9.999366053795118 18.54230000105051 30.805560175030468 0 0 0
1335 2 2.4 11.552145101348044 18.342761555069952 31.074309158150385 0 0 0
1891 1 -1.2 11.6973483805627 16.924659805017246 31.821382669156694 0 0 0
924 1 -1.2 12.443981108503129 18.3466682539611 29.7488310320568 0 0 0
2081 1 -1.2 16.371760396911633 18.254563956578075 31.747161221550165 0 0 0
587 1 -1.2 18.983006922591542 18.249305027601398 32.07054870835345 -1 0 -1
212 1 -1.2 21.092423957848812 17.026281556299274 31.7931769401667 1 0 -1
1484 1 -1.2 21.432830793347794 18.499713838520478 29.738480944458647 0 0 0
2140 2 2.4 21.99409127364522 17.12191655344017 30.464066033934646 0 1 0
1557 1 -1.2 23.58870037171452 17.30901601505605 30.93786436378798 0 0 0
178 1 -1.2 26.208598286035752 17.847225393930515 30.43921877491012 0 0 -1
1947 2 2.4 25.11701423208753 16.982460436371838 31.42467317991786 -1 0 0
772 2 2.4 26.332972733843214 19.045893327213022 29.321070712138265 0 1 0
514 1 -1.2 29.58121022966078 18.957402711562718 31.074936677467495 0 0 0
367 1 -1.2 2.8879360688400633 19.440815605014514 30.15577282476659 0 1 -1
2025 1 -1.2 8.705618216080639 20.784167029624363 30.1687898288063 0 0 0
1709 1 -1.2 14.113358118378494 21.249238104013745 32.10570480560316 0 1 0
1129 2 2.4 17.71508152369133 19.229023584826514 31.82559712349626 0 0 0
513 1 -1.2 17.841786355169873 20.11309203395444 30.507305851977467 0 1 -1
244 2 2.4 24.329677018482815 21.581649201078548 29.580769838718375 0 0 -1
332 1 -1.2 25.18166898739469 20.2262259439079 29.36113286137066 0 0 -1
932 1 -1.2 29.356233817418374 21.536385315934584 30.795391685042095 0 0 0
97 2 2.4 29.202096604735583 20.122761021664513 29.998940714488192 0 0 -1
1817 1 -1.2 27.655494568557355 19.970884795242945 29.53022193851517 -1 0 0
2112 1 -1.2 1.3428033008692897 23.709479445836187 29.750488665902544 -1 0 0
1801 2 2.4 2.095828798766155 24.689485206951375 30.829233256773858 0 -1 0
246 1 -1.2 4.958826044291124 22.917710128773486 29.324754388613563 0 0 -1
1384 2 2.4 5.093313584715007 24.399562247574732 29.906146279025297 0 0 0
1920 1 -1.2 3.671827736607273 24.982083036264687 30.396631561376235 0 -1 0
2109 1 -1.2 5.988267888856196 24.17276132562313 31.26797335655587 0 0 0
570 1 -1.2 9.777687637537591 23.16438915397956 29.81200142887571 1 -1 -1
1513 2 2.4 9.224970023087732 24.48692969072835 30.62867838254679 0 -1 0
893 1 -1.2 8.473716784090234 24.186476884858624 32.026223176884095 -1 -1 0
1874 2 2.4 14.869202282384672 22.688672089125564 31.91516535229673 -1 0 0
1428 1 -1.2 15.025873337777737 23.161627397419075 30.370686609115005 1 -1 0
726 1 -1.2 19.917830877894705 24.192933748727295 31.63062912527176 -1 0 -1
1552 2 2.4 19.933917200184368 24.377928012921277 30.01903016846213 0 0 0
1367 1 -1.2 24.33987100175078 22.419677162091165 30.945593010416523 0 -1 0
258 1 -1.2 26.846282212726347 22.236347688597903 31.703613713006927 0 0 -1
1708 2 2.4 28.3557382016549 22.78685641580834 31.180183423423827 0 0 0
455 1 -1.2 28.367391741775336 23.64080158436157 29.834910655972628 -1 -1 0
1553 1 -1.2 1.49894236141281 26.329584947730314 30.82937784291718 0 0 0
757 2 2.4 2.073711009770441 27.50957702372549 29.805870444444423 1 0 0
692 1 -1.2 6.754557284618732 27.428782481572817 29.99950971798118 0 -1 0
600 1 -1.2 8.437527641851293 25.361691249428226 29.49943309504269 0 0 -1
837 1 -1.2 10.451645659601523 25.418659705307423 31.085786097629512 0 0 0
1958 2 2.4 11.54434352057294 26.531445233611525 30.802354102636908 0 0 0
419 1 -1.2 12.951896925198929 25.908501525572106 31.321582607155317 0 0 -1
335 1 -1.2 18.49214592825361 25.165232257848086 29.64834331549137 0 0 -1
1496 1 -1.2 21.255120703196035 25.307645534705447 29.7963981387867 0 -1 0
913 2 2.4 21.964698385768084 26.731794508004633 29.997423768831727 0 -1 -1
59 1 -1.2 22.583262388742067 26.82887243386434 31.51934527058342 0 -1 -1
56 1 -1.2 27.988239824074654 26.044981484282975 30.721191716656183 -1 -1 -1
1585 2 2.4 27.851084876589272 25.109746711349864 29.4046654311734 -1 0 0
1459 1 -1.2 0.7431235918835212 28.498663441848983 29.35737668636995 1 -1 -1
149 1 -1.2 5.37447084686477 29.582293526371604 30.344393129392948 0 -1 -1
2056 2 2.4 4.3728640515485955 29.067913263519348 31.52072484750188 0 0 0
84 1 -1.2 3.1392442289472062 28.474142671226176 30.61735049970022 0 -1 -1
137 1 -1.2 7.709503365521105 29.618669215582692 29.10739363803504 1 0 0
426 1 -1.2 7.694131009770286 29.236169369256316 31.803787013302564 1 0 -1
1287 2 2.4 6.873540256382708 29.02408238459958 30.34319014686292 1 0 -1
1241 1 -1.2 11.289179628081845 27.84847271063145 31.61821902225575 0 0 0
1091 1 -1.2 12.354478051554713 29.768390235237288 29.24777121750476 -1 0 0
216 1 -1.2 15.420305150894082 28.020023947506644 31.032660321160208 0 0 -1
328 2 2.4 15.519472980899431 27.898009691427045 29.41121089603596 0 0 -1
1844 1 -1.2 18.6807919953525 29.51147028672955 29.827909648603733 0 -1 0
85 2 2.4 20.353550370334723 29.51938444351366 29.716612358230762 0 0 -1
825 1 -1.2 20.97851507573442 27.992649121059397 29.941324142518106 0 0 -1
2074 1 -1.2 23.73764090244082 29.183211191742735 31.768507719367705 0 0 0
364 2 2.4 24.24886980086978 30.191834525782017 30.656755470731444 -1 0 -1
493 2 2.4 27.406250666888223 27.558767123116848 30.94827247227651 0 -1 0
36 1 -1.2 26.16926469012511 27.678996305444006 29.93477051941229 -1 -1 -1
697 2 2.4 29.240820380159164 30.05979167898496 30.776535579822642 0 0 -1
684 1 -1.2 28.68013745393106 28.557339891808912 30.618452607500064 -1 -1 -1
863 1 -1.2 0.221405073046534 2.363347644611245 32.08341361993955 1 1 -1
463 1 -1.2 2.099476190214188 0.811982633412834 33.30215833104032 0 0 0
1418 2 2.4 0.5293753278291858 0.95908930655204 32.83715625361142 1 1 0
147 2 2.4 3.659271489528799 0.9042551342289805 33.67826027263004 0 1 -1
851 1 -1.2 4.330163186211283 2.398492140452318 33.56461028240575 0 1 -1
1711 1 -1.2 10.817526857373519 0.9114880658063637 34.945117634047335 0 1 -1
357 1 -1.2 8.481093915196373 0.25680168979723983 33.96647397408337 1 1 -1
13 2 2.4 8.494979377170255 0.002109769323478989 32.388571550117014 0 0 -1
553 2 2.4 12.07660783375253 2.0080631605421857 34.64889979889059 1 1 -1
450 1 -1.2 13.12353942005006 1.2070268119497556 33.690052796353086 0 0 -1
164 1 -1.2 17.40634651210581 2.7264142567738103 34.07082851319097 0 1 -1
292 2 2.4 21.38190052949588 2.361677101128462 33.66571229221909 -1 1 -1
407 1 -1.2 21.158280623538715 1.0003656846461753 34.552753638283384 0 1 -1
2040 1 -1.2 26.904587593998407 0.10485708909220522 33.348741486147055 -1 1 0
1020 1 -1.2 30.01535449919461 0.8079605797377379 34.22690753301391 0 0 0
584 1 -1.2 0.5084608186606319 4.828207796308256 32.83539219229866 0 0 -1
1103 1 -1.2 5.128151871208767 5.02409023363489 34.16689277557953 0 0 0
1072 2 2.4 5.584634519199623 3.4939167539695233 33.73517186811223 1 0 0
534 1 -1.2 6.463175455362115 3.4141650675996864 32.39286125778778 0 0 -1
525 1 -1.2 6.736307747665987 3.159736892636446 34.88325683333668 0 1 -1
889 2 2.4 10.4283691124163 3.9104372566655936 32.970862341701846 0 0 0
1908 1 -1.2 9.095400712829365 3.519101821223252 33.88577102500495 0 0 0
31 1 -1.2 11.665057205335009 3.4124694766993695 33.94150180285681 0 0 -1
427 1 -1.2 18.168583189261447 5.230547856382029 33.93930901626248 0 1 -1
2116 2 2.4 18.531072301406 3.726764468797386 33.40257202251498 0 1 0
1964 1 -1.2 20.029668146994148 3.366064416396495 33.78280780945348 -1 1 0
995 1 -1.2 22.720296457116795 3.0464831724503654 34.2332014293818 0 0 -1
134 2 2.4 27.05485914688777 4.13303942036162 32.208036341538836 0 0 -1
95 1 -1.2 27.1411138281368 4.641708780958703 33.75500092974438 -1 0 -1
879 2 2.4 0.2028013505973313 5.611577516472532 34.192381102005655 0 0 -1
1982 2 2.4 5.12411717507374 6.718976497256689 34.47354817437599 0 0 0
1572 1 -1.2 5.296910251388912 7.275345899674749 32.95907123803357 0 0 0
1169 1 -1.2 7.687930286766763 6.302010687498975 31.97542242146635 0 0 0
213 1 -1.2 10.313083774005541 5.513056855597659 32.777186725122924 1 1 -1
1549 2 2.4 9.189545437760554 6.679121614699859 32.570661921696335 0 0 0
1906 1 -1.2 8.94288793843747 7.4916487163749155 33.93477546442796 0 0 0
1140 1 -1.2 21.31843210367003 6.39779928704705 33.59296386019374 0 1 0
1696 2 2.4 20.889167140785453 7.566993539657581 32.62893847999444 0 1 0
1189 2 2.4 22.47707364169594 6.550936136530686 34.805112547057696 0 0 -1
1487 1 -1.2 23.60607172617351 7.662315704587857 34.37429648977817 0 0 0
1469 1 -1.2 30.15512766290794 7.170882226020174 33.84230976065523 0 1 0
2052 1 -1.2 2.477957437633818 10.056631697361698 32.428906347716 0 0 0
1373 1 -1.2 -0.03926183836936776 9.438970147021411 32.75078064314347 0 0 0
1277 1 -1.2 7.128849144154082 9.985104217393001 34.64398512204636 1 1 -1
289 2 2.4 12.056251692253536 9.672029808048537 34.347416756641316 0 0 -1
1712 1 -1.2 12.338790071380942 9.46504599036368 32.83801586318744 0 1 0
724 2 2.4 14.780902373191406 8.436089370267192 -0.14379324670293478 0 0 1
1171 1 -1.2 15.421052861655223 8.685405237506487 33.58639418213972 0 1 -1
1640 1 -1.2 16.145209942226384 10.75756771635841 32.1203163412931 0 1 0
1804 2 2.4 16.650631369183646 9.39883230857291 32.786801206525105 0 0 0
1907 1 -1.2 17.843287634551956 9.730655303737327 33.8154038692859 0 0 0
1960 2 2.4 19.09089037309001 8.954851385589468 34.605897343407875 0 0 0
501 1 -1.2 20.356889251635145 8.908614041351118 33.56407766922177 0 0 0
40 2 2.4 24.395654688973504 8.98008915071434 33.923884263691306 0 -1 -1
1595 1 -1.2 23.916439747768113 10.237333262480242 34.78293936412702 -1 0 0
336 1 -1.2 24.0778506359824 9.341317936800689 32.40313246402357 0 0 0
1457 1 -1.2 25.95707834820517 8.51346575553493 34.300712872744235 -1 1 0
861 1 -1.2 27.234595623324626 10.65241918370238 33.359424021981404 0 0 -1
685 2 2.4 27.132540831864922 9.617159395267256 34.645605035821404 0 0 -1
1899 2 2.4 30.171428002485722 8.698853629610952 34.2334628397758 0 0 0
288 1 -1.2 0.8007346237207097 12.082834680007203 32.41223798538227 1 0 -1
1671 2 2.4 3.7754368109136 11.051743344768733 32.47594166492412 0 0 0
1879 1 -1.2 3.9714816210034316 11.66359387516792 33.93016187136789 0 0 0
1900 2 2.4 4.960254742771737 12.760956213348926 34.68038340468787 0 0 0
1826 2 2.4 7.7988416377454195 11.49865367229397 34.292797527412574 0 0 0
934 1 -1.2 6.462882556282439 12.353800430323822 34.057198681527524 1 0 0
1965 1 -1.2 8.752794674728136 11.231855923431567 32.99706340970258 0 0 1
1638 1 -1.2 12.193833117252472 11.313014215594919 34.668783806372865 0 0 0
826 1 -1.2 25.006557791614163 13.088324536990488 32.79326814261859 0 1 -1
34 1 -1.2 26.98453162008668 13.048803540581684 34.573143139779475 0 0 -1
2055 2 2.4 25.458483586974655 13.53296490656968 34.31209987562966 0 0 0
1425 1 -1.2 29.332776600984573 11.881286272375197 34.529129308342526 0 0 0
2007 2 2.4 27.97932567133079 12.094751968164267 33.65611823919404 0 0 0
1643 1 -1.2 28.38827730596214 12.452341443939986 32.196924664865506 0 0 0
681 1 -1.2 2.0254090313732296 15.130603626333244 34.867987341619006 1 0 0
66 1 -1.2 4.490587165352852 14.257037615848578 34.15943230483805 1 0 -1
1219 1 -1.2 2.724610657776236 14.747540185003745 32.2339468168304 1 0 0
1333 2 2.4 3.2116562655293794 15.205574323261958 33.808334178386495 0 0 0
105 1 -1.2 10.999353729796306 16.002386127959856 34.19253081663794 0 0 -1
1901 1 -1.2 12.81694678134791 14.534988388328454 32.769880544740886 0 0 0
1885 2 2.4 11.49720693321663 15.508461986474043 32.642143848136335 0 0 0
742 1 -1.2 14.732105403325512 14.281077994414046 34.55596934777116 0 0 -1
1491 2 2.4 14.503394277012667 14.542030939466029 32.96463708118316 0 1 0
622 1 -1.2 15.02341918737478 16.044373335261994 32.43334020331474 0 0 -1
71 1 -1.2 18.58388645627248 13.632147871433094 32.931923697679316 0 0 -1
182 2 2.4 19.02857218323502 14.619287054704508 34.22407240325253 0 0 -1
1975 1 -1.2 19.961802528258236 13.799187846352924 0.007655669750998234 0 0 1
1087 1 -1.2 19.77166813533607 15.958182630787222 33.62433611720807 -1 0 -1
1402 1 -1.2 25.28916415675662 15.126433148428363 34.661362264091686 0 0 0
1201 2 2.4 26.10300864153819 16.523691040438536 34.2123912019182 0 0 0
1710 1 -1.2 29.79479681588061 14.349084399564056 33.040795906682234 0 1 0
1194 1 -1.2 27.499178123077026 15.851256306304546 33.57236900084014 0 0 -1
1058 2 2.4 28.757725036311054 15.56009047367072 32.55741840087057 0 0 0
1781 1 -1.2 0.45742944769416566 19.18797839361485 34.404880030363174 1 0 0
1855 1 -1.2 3.559119120948607 19.274911822509598 32.68017440802783 1 0 0
1741 2 2.4 4.206346052816758 18.278343829380137 33.717771293815 0 -1 0
1485 1 -1.2 3.633348100195995 16.74742082329546 33.76142478964035 0 0 0
1627 1 -1.2 5.768277432792243 18.093524266473203 33.27599106383216 0 1 0
1620 1 -1.2 7.791250204985852 19.199553846111336 32.17897530092018 -1 0 0
1536 1 -1.2 16.34847240509341 17.294423726667354 34.3229477676327 0 0 -1
1517 1 -1.2 14.366214959442823 18.708644815013905 33.14715115748726 -1 0 0
25 2 2.4 15.51207795422753 17.507565284716218 32.90689138202678 0 0 -1
1419 2 2.4 19.60640214779201 16.74710044044606 32.22701749102222 0 0 -1
608 1 -1.2 25.32583245159649 17.39485882664489 33.02492081734427 -1 0 0
297 1 -1.2 29.760874812478257 16.815554414122023 32.497794800132034 -1 0 -1
323 1 -1.2 1.1408930361500507 20.312479388696463 32.08913016255281 0 0 -1
356 1 -1.2 1.3293154336360966 21.950712580780124 33.91582596822501 1 0 0
867 2 2.4 0.49364975062468197 20.566472861224735 33.59200014168489 0 -1 -1
358 1 -1.2 7.598839881278512 19.239608116399456 34.92532298267607 1 0 -1
547 1 -1.2 5.998265386278458 20.71348768968716 33.499874864148566 0 -1 0
1010 2 2.4 6.858511992643825 19.312284219853368 33.43471035339476 -1 0 0
2064 1 -1.2 12.034869151906895 19.544093432161713 32.04329630295573 0 0 -1
242 2 2.4 13.399876006604597 19.939486171142462 32.82678528326696 0 0 -1
2060 1 -1.2 12.989054963707513 20.419835354024947 34.372256183811025 0 0 0
1677 1 -1.2 16.863662018852533 21.96486343666604 34.948682200247745 0 0 -1
746 2 2.4 17.478707126830532 21.81692568880213 33.4024011514944 0 0 -1
2047 1 -1.2 17.609312054705455 20.21448340439259 33.0991033014343 0 0 0
779 1 -1.2 19.93174644048958 19.952841249909607 35.02199202002234 0 0 -1
1111 1 -1.2 22.53974135125638 20.359594900014894 34.02127228112657 -1 0 -1
172 2 2.4 24.048696104800193 20.766102949763976 34.52590382885803 0 0 -1
738 1 -1.2 24.919110817584176 21.26462878502183 33.269516488811 -1 0 -1
72 1 -1.2 29.336416514530615 21.127204805051157 33.68405251358089 0 0 -1
1742 2 2.4 2.3261222861784625 23.210040528271385 33.51557460321454 0 -1 0
1914 1 -1.2 1.7405373794957553 24.103683749231053 32.28096657089398 0 0 0
442 1 -1.2 2.3547469287130385 24.17569939346644 34.84889072832793 0 -1 -1
1854 1 -1.2 3.87154888372595 22.534404459727728 33.09596118535409 1 0 0
530 2 2.4 5.262114192534525 22.162420175649252 33.87686810179008 0 0 -1
823 1 -1.2 6.4414131997878705 23.274854432571637 33.58612129741336 0 0 -1
255 2 2.4 6.978276574087122 24.36924968887662 32.54534373340959 0 0 -1
2132 1 -1.2 14.166811762472623 23.95715497144094 32.610741932164956 0 0 0
957 1 -1.2 16.468175432085623 22.539406383911363 32.29668011565745 -1 -1 -1
197 1 -1.2 18.877119705683366 22.648432998965056 33.401806566367426 0 -1 -1
2142 1 -1.2 20.30161200334877 24.50870341174443 34.357861029539336 0 0 0
26 2 2.4 19.236715760489275 24.2368139482917 33.17793423329493 0 0 -1
2077 2 2.4 25.307002420735742 22.506961173348238 32.21987375687872 0 0 0
512 1 -1.2 25.15511533476451 23.840028672078226 33.130730026051076 0 0 -1
1252 2 2.4 26.12006197058429 24.162363910794063 34.40571563148466 0 0 -1
250 1 -1.2 27.22243011189733 22.997071684525398 34.34710475159665 0 0 -1
1776 1 -1.2 29.69774076316634 23.33343932566421 -0.14647588557696511 0 0 1
1644 1 -1.2 28.94788613879732 23.559140980273213 32.522665912269616 0 0 0
1957 2 2.4 28.767406230383163 22.682706597880685 33.92104717071994 -1 0 0
1224 1 -1.2 2.326929798282959 27.048674454441542 34.94355571976618 1 0 -1
2084 1 -1.2 4.321399072079968 25.66702468737261 33.9196739870076 0 0 0
1598 2 2.4 5.43844797906893 26.72357077742901 33.537074179194775 0 0 0
791 1 -1.2 5.8027437939325335 27.549132653442854 34.936793682044886 1 0 -1
165 1 -1.2 6.747064927543318 25.94538738753068 32.99739360404539 0 0 -1
1086 1 -1.2 10.127220305662743 25.378161469204894 0.004659890538262522 0 0 0
793 2 2.4 9.819426214249994 26.990774901050365 -0.0773622473249933 0 0 0
526 1 -1.2 12.341057056916657 25.296325329218124 33.88686290143042 0 -1 -1
110 2 2.4 13.503758088366231 25.409192586620648 32.7108726460281 0 -1 -1
311 1 -1.2 14.622995072032898 26.57396967108732 33.16153223114133 -1 0 -1
303 2 2.4 18.11884203022587 26.798965832658137 33.98260139705669 0 0 -1
2012 1 -1.2 18.07616302041894 25.32514732934044 33.29853173165444 1 -1 0
979 1 -1.2 24.55421803794621 27.09765772940737 33.26263958218716 0 0 0
387 2 2.4 26.081157797298207 27.21636848818041 33.83121807993429 -1 0 -1
1679 1 -1.2 26.542042517821834 25.777991765624357 34.429118001587064 -1 1 0
1463 1 -1.2 27.006247280962672 27.635897094465623 32.520702934748826 0 0 0
2027 1 -1.2 4.3448741816062375 30.372797158974752 32.54527678323926 0 0 0
1902 1 -1.2 4.911124270653261 27.861483892873153 32.483104912879604 0 0 -1
768 1 -1.2 10.066500619397939 30.085948533895614 32.0755625714877 0 0 -1
417 1 -1.2 9.985513546949782 27.745433670985197 33.64306222068476 0 0 -1
519 2 2.4 10.871653471488957 28.819831059707113 32.80148706052025 0 -1 -1
1042 1 -1.2 12.205890247679985 29.2668544315409 33.58685509654928 0 0 -1
796 2 2.4 13.59678290410622 30.154722682183813 34.0886489770982 0 0 -1
411 2 2.4 15.42241041020763 27.976768102563387 32.678010406276925 0 0 -1
739 1 -1.2 14.79147601101218 29.347710375862263 33.342083325387016 0 0 -1
2085 1 -1.2 16.981893607350113 27.744074622589537 33.23919477915298 0 0 0
1114 1 -1.2 19.610245780674326 27.514777694195523 33.668043684949325 -1 0 0
184 2 2.4 20.957102663632895 27.95633974021092 34.51133318450832 0 -1 -1
1361 1 -1.2 22.204661964642874 28.471652274693433 33.62700818049435 0 -1 0
1993 2 2.4 23.2125783829681 27.82216893782382 32.59678123476016 0 0 0
1307 1 -1.2 26.12204245386076 28.488843353050587 34.882566786928464 -1 -1 0
338 2 2.4 26.89451517476592 29.97115262838084 34.86308459601513 0 0 -1
895 1 -1.2 28.409268150348094 29.54723727723062 0.2197078399411614 -1 -1 1

Velocities

1480 2.516307039647936 0.928120307294239 3.6008738052888534
166 6.014626015246223 -5.422071782792082 0.25482612519526227
1952 4.202639836043392 -4.669555738145479 4.724912211459658
857 -4.484196737035139 0.9057017307833396 4.229270312509447
1043 2.0618436537155485 -0.5709622966457353 1.3165348368942416
1362 -3.6652643249886947 0.37694583301810924 -9.517261898087694
1851 -4.365427376270289 3.4534041734102527 -2.226720029334262
956 9.714447279172658 0.12085054594567807 -1.557424253090209
409 -1.4998356466298528 1.31798283214213 1.2528403043150436
2093 -0.18298152865408823 -2.570782969469727 -2.150027118710113
2145 1.7047405036972778 -4.210620796740686 -2.1879826025412363
722 -0.25768079575066527 -0.19699696515365203 2.1504904128212003
503 -2.030491526138444 -4.8390443208091 4.507261658773097
838 1.4462008894728953 -0.17868363464902567 2.6065445894586667
783 -2.2784841944447236 -2.365392532789022 0.15527873108439208
1187 -1.7462061504355058 5.84451891592231 1.423368137428961
1125 -4.070624475759285 4.841579013687158 1.0989601016540411
1919 -7.006426046189349 1.9567612377865709 -6.557099636735393
603 -1.8875471718328958 -2.9221590438370053 -1.6082048311035826
1954 0.43944233658478526 -2.6342276934651045 6.867867696829456
891 2.332049093759612 -0.7073845084087916 1.5478668621556249
2157 7.467507629051366 3.3219652911913973 1.506871348430823
1304 6.778149258525389 -1.4710195379757094 -0.5308883050842106
290 -1.2282898790894616 -2.195828497879537 9.005436417011728
353 -6.614505370961374 2.0318312939966656 -4.948606418582426
1586 1.6334512882353578 -0.7712859863861139 1.5514993712218832
1784 -0.21183108925999627 -5.545238783557644 -5.853947639943345
15 1.0289673863212587 -0.22529017824271239 0.6282159059732911
750 -4.187875552089212 -0.22079425235650138 3.5746683769094507
376 0.47038374571628755 4.206808707831561 -2.7414435355937616
1760 3.649167889235268 -1.723716943059662 -1.029837334080329
1560 3.548144952450592 1.238632260970297 3.761428199936808
1656 -0.8346227371607149 3.978629448410426 -0.6480799074129093
1490 -7.221693144832035 1.2032945734978675 -2.9182474913278806
68 0.5035078497031134 -0.15041438352153727 3.6083537422616985
1746 -8.738607533368244 -2.3650064448240395 1.739296948751353
261 4.286623360138056 -0.5138172363343326 0.6654614444233636
249 -0.8710159160028637 -3.673977424454897 -0.45179252579562257
1657 -3.5778621910551736 3.9645285715888066 -0.9451392708176714
44 1.343652241515062 1.5385928770373716 -0.9629595734143678
848 0.6092739827087976 -1.5163562553264618 -3.209780760107476
91 -3.607730240000256 1.8511777105359242 -1.6599515324642733
759 2.2370854292839595 5.085849068875042 3.8507067602699547
799 -4.290394869654629 -7.873638914588343 -8.035505466719057
658 -0.995435863205539 1.4275990152560383 1.48073923394673
1632 1.5959338665048208 -1.0166642129280155 5.746443359717348
1167 -1.496454920053535 4.625995870284639 1.5417902858054078
488 0.8278960064714816 -0.3957765686286261 -0.2961324214735922
652 3.7249549995392575 -4.146645409889225 0.36511587868301626
96 0.7566845863985125 6.473802688816548 1.785374172292497
827 1.4139430490775857 2.468295778041024 -1.1674452232374948
794 -2.8312946377307635 -5.052074779090498 -1.0187951307058365
1937 3.120846830618743 -5.2223993891766005 0.8083489672380896
817 0.7523255806469474 -2.15450576423124 1.052179296711107
564 0.7585173322369022 -5.907894794563605 -1.6545443034179776
1408 1.832000296137173 1.0224917775524076 -4.3727838835928035
1330 -1.503947674981699 -1.5399887012316422 -4.273227561157914
1918 2.394633950995818 -0.4632448470872498 0.5342507263326123
1228 5.378815701764764 -1.4968110211298105 -8.849529230981963
331 -0.4211541326851145 -2.659544195679273 -6.06664435250832
1810 -4.850849511881968 -1.52550064605492 -0.20715758778943455
2036 -5.894912641970392 4.747783805653825 -4.700208268270833
1021 -1.2949813114437916 -0.7290284496877222 -5.797892839271295
340 1.4740426695714188 -2.0877276821379347 2.190083583134153
741 -0.16469618575546252 -3.3646104156802927 -1.5466210810589247
263 1.2955837652165532 0.6732960913023238 1.0020591680302444
1432 -2.8806045141490655 0.68658803419316 1.47321545338235
751 7.222651395376859 3.846131363457302 -0.33424923006067053
535 -0.14649868203922214 5.5691512717349045 3.9009977532369526
1050 -8.597173602969507 -1.8969072099929565 6.602824284292021
286 -0.42589204534002667 4.33768001272875 -5.04793666426109
73 -5.964171992141813 -2.3028745644966833 -1.7440559859102236
734 4.048747434547019 0.04966571051093184 1.7619352022449775
199 3.7116635408835306 -4.786493270026308 -3.2570541934587
881 -2.9134135651994244 4.478296882547682 -4.139850455352495
2100 -1.3750278754740992 -3.3318735269751785 3.6225683385790735
1967 -0.9668648846518112 -1.2937701237199781 1.3726745960498834
384 1.4327419823850438 -4.1674007421154435 5.574494121234322
1726 2.3539373332025675 3.4548433149638194 -4.031512917666258
1446 -1.675456113691471 -1.3503339318533536 3.745018571883176
1897 -4.524020637378624 -6.210600250923736 -4.936246148343722
1015 2.6357155723113808 5.174224892985392 -0.760632457604538
1315 -3.9380774082930445 -1.9295928894866665 0.8079522638252662
495 -0.11244236146082591 2.1439887223838925 0.15368440352917523
1055 -0.2493132237738933 -4.388904884880179 -4.319629288353548
580 -3.506522698306758 4.646505091731763 4.070184419484383
1774 3.37316708728035 0.1492710359686804 1.563049910046185
1079 -9.977114425806654 1.960052806710916 2.065359290272083
1453 -7.707239633536947 1.1343171664674152 -8.358394112132672
886 -2.208412095800761 -5.364520842096294 4.895415862439735
1852 4.154508347734372 -4.367966221644506 0.6160813631462049
366 -3.785311056609438 -2.1668477925302305 1.3354955936799373
1454 4.2498886212635565 -0.9430917170630547 -7.0170610218709415
716 -3.67639700913527 -2.37639237955326 9.800541162279112
122 -0.5753792997214765 3.482962680829471 2.836331036439529
567 -2.054159400479343 -2.149123481807352 -5.031268843396819
767 1.3953759683107494 0.22609055515596302 -4.160690143006505
1754 -1.0715947861394395 0.31619799515439373 -1.6390552539427126
776 8.631574349056418 -1.9546486348612573 -0.9262464138288787
908 3.904346355891877 2.6577607826566223 -9.527615696508482
262 1.1311960756177128 7.094253402660752 4.455629846504371
2078 1.606904850638802 0.44740349979485705 1.4174580251047797
629 1.6408905801234908 2.6232227017742993 4.591436810202201
673 1.3423814591803818 -1.3664200065430674 2.4968460475999996
1578 5.0250441646522885 -1.243070863392529 0.9404464750980008
1436 -4.690083004825773 4.523723470852279 -3.3209427239309095
1577 -5.376097463110119 6.730319438811017 -6.341396371585155
868 2.0689710893143323 4.102737788490996 -3.3665146769260934
1667 -4.382084593940311 13.796756704986434 2.030057147030213
1794 -5.015842877588236 -2.3464606727560344 -0.9787386784324527
610 0.6035624478179705 -5.611877412685557 6.522189915393524
1275 -0.15491671511647437 -1.6656121063468134 -7.971689957118302
405 5.5521030392515325 -3.7805776480983995 2.827366647790294
1528 1.3229788820385515 -5.615017067212705 -0.8354866680166588
994 2.086527972654231 -5.466537258495598 5.580491391403453
536 -0.007444071049875104 -1.6993894495032031 -5.475576615187505
123 2.660114473338476 0.5933610314987605 -2.8548966252237733
372 3.0440865498420426 -1.998592084221357 -4.432426858500108
594 -1.443497591677156 -6.185467863837473 -3.8416472875933905
1945 2.651496703832461 -3.3407920669730995 3.4092786428915893
702 0.4260735996174543 4.028472533159742 -1.5436596847624289
1237 2.468568889483622 -2.8135715483054424 -2.0557508018798414
731 3.573525280074354 1.2183610070053055 0.7199498802750933
1035 -4.413311409972707 -0.24309547393007422 1.701278038960389
977 1.4116100177431934 -1.9681134823689332 7.071071772570111
200 -6.478350476072516 2.3727312842646118 3.3806077036332387
1583 3.8077997361901676 -8.344847744707911 1.4553109144648857
1443 0.7731142501284998 0.23716967119039867 2.8143586006557824
1327 2.331064335505452 -0.9279209778478135 -5.3686057670384
1758 -2.664834602687585 -1.3662644109050601 -7.184502026634685
1853 0.2284101855356507 2.610487771822985 5.342323205087687
474 1.6342868548992775 -5.639310162525729 3.8626888297554984
1085 -4.798900019394998 2.89599504046351 6.73540590169918
1229 3.784119146092844 0.3826440022668726 0.5076673176911035
404 -1.3776941155669604 -5.667869798633661 -2.3342162521515206
627 -2.1592920236347126 4.377294875212038 2.029345662557662
1654 1.4888271314762562 -0.0420398989532703 14.252906798279147
1382 2.167566541384436 -0.8814436073352901 -3.559692454315208
309 2.301662706978301 -1.046582615735118 -1.4605511555991244
1303 7.345145854589855 -3.2319096047433704 -5.89333176744401
842 0.24319702030299584 2.076417485856105 -1.7202881454636463
322 -2.038578311784434 3.976883048153797 7.760908832866974
1445 -12.341085388209235 -5.7194524134390345 -8.484134656665397
1686 3.8224290228574542 3.8935628821924912 -3.002281298648288
1105 2.5270436924489084 0.6135474542403957 -0.6304450668103682
1814 2.4325789096838313 1.0917263902114758 1.2261472432057408
1848 3.315753295158019 -1.3165664235236125 7.639103744688033
1511 2.951985549844935 -1.7481404554672129 -0.7326041568961099
37 -1.482800422613285 -1.9021120537550635 -1.7505907731795918
1724 -4.574468222046463 0.4170812705214981 -0.812222288046964
342 -6.133641441376489 1.4966858952622841 -3.156907080964927
486 -6.250427666536758 -3.5985373795199793 1.069450020643887
291 4.380482464342604 -3.038641599512666 -1.9841850039057636
1652 1.920945103790988 -5.198048164484598 0.43741075584479
1145 1.8975127753176004 0.5548470852772293 -6.071359962299825
211 -2.228725287212872 8.837789643165591 -1.8024682680740458
39 2.747160374510937 3.398062163833005 -4.622146416206889
1700 1.2069148085760244 -2.819038950367618 0.13781595538784464
2001 5.53410887392321 -2.4674956030606534 0.6272987798771064
220 0.5393861425063649 1.886767547289007 -0.4500367439082511
2008 -3.1208663015151283 -0.5130440666116006 -0.5134119324934681
2094 1.6205590489677728 -0.5217502697551458 -2.08428807063539
1569 -1.5956942076339435 -1.1403453556719785 4.885459120136982
38 -1.8653844055212312 -3.209331555635884 1.8901571274002138
1211 3.80754693698973 -3.5542896143493956 8.119195704233848
892 0.5189665240373024 -0.44942280933333756 -0.7773074889986847
2021 -2.9125851419858035 2.341554890970389 2.218525917426779
1948 -0.36151986494245036 0.7097064841272155 -2.2122193993358596
1849 1.2314107335930953 1.774908752793128 -0.09090600470041071
1999 1.3212969555923255 -3.028426320857839 -7.8369038398058
1354 1.4301997995993574 1.767299791238097 0.7716135137906611
271 0.8104920170600317 1.377862637021704 3.8800361110145376
782 0.8954967819627215 -0.6026626259863074 3.0523034290036435
22 -1.0097207759872555 5.577010974266958 -2.1947084658678433
1666 3.138251874753301 0.8481774930180223 -3.1577750516027487
1909 2.202559069571179 -2.7865070646488395 -0.35818202495962415
617 -3.2607507864216103 -4.770381765629271 -1.6278072917785813
1860 -5.928390595305582 -2.334941429612684 -0.813598019171808
1386 0.48700353140596275 -0.1942898707508667 -0.5090187936454874
947 -0.14865673502732296 0.801850275167134 5.00538236284919
1646 0.769484781844232 3.766524629751158 0.4712814227413545
1570 -0.8948750094118278 0.5471723875550795 -1.2014462111770576
4 -4.756121916571726 -1.3266794452755084 -1.1911035258698253
1639 1.557629781346149 4.574789436142222 -5.3633281828908554
1089 1.3499794156188143 -1.90299289998255 0.4532110064638643
1329 1.6528024955632277 -4.4012929408113814 2.5679283205931904
456 -3.20231823339814 3.0086681827642594 5.133520020321514
1725 1.8442131276739304 4.99726693152521 3.0544245775303067
381 -2.8020798572854377 3.6683699610261544 3.0549797740870765
1 -0.9869166856517063 1.385825748083531 -2.428492249800112
163 -1.1382582684881644 -5.940218680592455 -5.95079082531411
1730 1.7345587155353395 -1.7261915109722719 -1.5653600469927416
169 -0.16365606378273534 0.4344421919364486 2.989269463257058
660 0.6206647018407515 -6.971682775495086 3.3553583946219296
319 0.8274304276897966 -0.13031959306117588 0.6366419751312339
145 -1.7058729062791802 -3.3677416537208362 -3.0866401979399316
468 -0.1084633074201729 -2.979931657381841 2.103181654309859
434 -5.670366899049481 3.443302418413549 -7.447448372729849
1649 -5.568097604875521 2.0307523753550183 -0.7072126099269497
1081 4.589500901136155 4.2980157441810505 -1.6514133831953273
1981 3.742773880504533 4.972180587603565 8.468820359762047
749 -2.6600184528043034 1.2802458062320312 -1.6272274702013003
1360 0.30216991699317164 -5.111240080281444 -2.8490898817427257
1584 1.4584158162040652 -4.0507902745658475 1.2416401196071962
253 -1.3033446061468692 -1.6632183494148105 -0.6743422204652053
1342 -2.540113025143148 -8.125724641995516 1.4425249420714301
596 -3.2527134151478574 3.209625860146645 6.67997612502217
368 0.6546961951256721 0.8472304396352164 2.31824345432481
1387 3.1218281970108546 -1.0854714329197441 4.06841207890062
588 -3.775343885348275 10.29563652855417 1.94179615868325
301 2.687952511135984 0.39030173765061515 4.194338354691575
282 -3.0496493642908016 -1.1086429902662962 2.489418215460101
1186 0.41486715666098456 -5.464247763648202 -3.5703670568603574
1374 -4.563474947030819 -0.4390924442853778 -0.6135400892554149
1984 -1.375725470372189 -0.16761977883337223 1.758646087038873
706 -1.9372898479760225 3.2864280770888867 3.5316322508746913
1592 -1.7147738967117236 3.3483468694412326 5.804413065257814
21 2.4270170876487365 -3.5418532741052378 0.6304813709336781
2138 -4.586062730342222 -4.304845400369934 0.5120090880918291
1512 5.9177906392342265 6.060557951083298 0.9474986018535339
1978 -0.2800168727243526 2.538520697650622 1.7397000363720017
128 -3.5730823159865035 1.8060924995390601 3.8869967995367287
1521 -3.5988919237743366 5.657973511805267 -1.972188773619626
1732 -1.2771856166026287 -1.0263051920391293 -0.23764449792196762
985 -3.440729041660707 -5.217067416888958 3.0477772505464595
800 -1.4559044483615904 2.7250420511056577 1.2935249543287644
1456 2.290203993349969 2.4254232160845985 1.3414976694598155
1495 -4.210444547587511 0.24877444286296374 -2.0229914431667213
909 2.306568053690788 2.699251601857918 8.440009655665582
728 -5.729280266519707 -0.3389022283006842 3.060103334465086
278 -5.5564871257562745 -0.22797652734240673 -0.467358625775463
1206 -1.8822227915963305 4.892125170701898 -7.255846134139281
789 2.3648237496029068 -0.8532699393037163 -5.665740265024457
866 4.649788220765106 -0.8877869535944451 -0.6127565990777583
190 -7.5019351714077285 -2.6347028012660036 5.777459527420637
1565 6.252238494691653 3.9301290086188434 1.6947869616099882
132 2.9867118937746033 0.1019571603763618 -5.505190480354041
125 -9.29247841527578 -0.2601491675529341 3.0669871680694545
410 4.5078447971103754 0.8094707911941743 -1.7958155421653719
2099 1.6958522919397145 -1.1377957399606686 6.048079388706077
1661 2.6583524091675397 -8.77698199970849 -5.065750264387724
1502 -4.882899350890525 -3.9298148538761852 1.2627049887373132
1821 -0.38914239381551213 -2.071838238397283 3.0964421776565985
1062 -4.317577725834506 5.301291740336699 1.4077690246269754
1207 0.8975146533383102 4.12437069589946 -1.3464444346673594
578 -0.4078012073081403 5.151134584362414 -1.1361449970335844
654 -2.0847740696505483 1.6844536409815085 -1.33977342655502
950 2.98085701183491 2.3035007443857 3.0333109127974294
346 -4.90761824135088 3.378638727406324 7.101913987544783
1470 2.1269264158952157 3.8682031397882173 -3.866255525970893
1325 4.271491285990963 -2.563079687322573 -7.459563865836795
818 -0.8431202180744027 -0.9724365030310429 2.819840664735705
1872 2.3007850433647556 0.44117943403299104 0.36799244511967266
2125 1.691325362606329 0.025810885972497758 3.0246605213010165
187 2.9796258974662004 -0.8114900803673056 7.826700065541806
958 1.1683162894552952 -6.19689142679291 -0.512860942775461
423 5.813505398934011 -0.08980129639043044 -1.7123490750408183
1326 -0.8030221537634515 -1.0312081328607812 0.5212672318592209
845 -1.2689452246091846 -3.629755246845666 -0.3286285921974327
1753 0.9737013101640907 -1.0645924744934128 0.5797576434483547
1604 6.408671461108509 4.806678292609427 -6.4172456658957495
1318 -2.9161488839493828 0.34480774371617706 5.317007924228118
1260 -5.618772056347601 -1.6368881623749836 -2.8893626320959283
1714 -3.6093168124621755 1.0234608315787057 -0.9954865224510858
425 -0.72450238817553 0.0067812593951510035 4.69367562831682
703 2.1589855109972778 2.0835654517232167 1.3487991854144301
849 -3.089570194188828 -2.334154954073774 5.680284416345355
1925 2.717992603973888 5.286067557337064 -4.943502479311148
1894 2.4912663362907357 0.5503308883130752 -0.6071281046621212
208 -3.0651435540485434 0.0031388719104363766 2.598008406025454
545 -2.4314981616871902 0.3981942987746649 9.388530562745586
613 2.3165459294490462 2.1167641812442715 1.3712134760392989
2155 2.4501967155758884 -1.6929681240948384 -3.55656254791632
284 0.5149647492653701 4.794963166027316 -0.42996708901028696
1563 2.282083505709814 -3.4713168678346444 2.932397177415814
1990 4.9681214698196845 0.21226218054852372 8.113061349287037
230 0.93003383671838 -5.930499748924515 -1.4968612464124171
2016 9.699940726663742 1.4946331308710734 2.65677981893368
1009 -0.33687671415180165 1.4543524358470885 0.23978418270512147
152 2.746566185294416 -3.5521297049675127 -4.410763233157703
1337 1.211304149101507 -0.4531759230612552 -0.7772012432569378
1611 -1.4513075889486338 -1.4767031835465747 -0.5879423864189868
161 -3.159365629268325 2.269259049889785 -2.5963805738442285
373 -0.6685326307537071 5.826369148784745 0.6975623605711633
432 -0.520767329652835 0.050746976077789094 -4.524866475614168
2053 1.1708490542722507 1.7417905383980437 -4.510271215499225
1997 -0.8693328713268963 4.107081361448674 3.845674511355971
711 -7.790909767617235 1.3022275171818314 -2.673618380953446
1391 0.4491345296148956 3.9958083374532762 0.7606345984939691
624 1.0800888886017486 4.515225683541059 -2.3922793642298865
2104 -1.0507478489733377 3.3465752762762953 -2.84360279707923
1748 5.717896918549932 6.058581659473303 3.065360527901556
1743 1.9601752146417164 -2.513767914084688 2.451390253656199
1892 -4.587899237440337 -6.7395728859146 1.8798226397111588
237 -2.280386159420334 -4.862386361032479 -1.872006579661611
2102 2.451898506722679 2.5827432084147737 1.919178295737147
899 4.884996307259083 -0.9866757477078804 2.475822032064767
1735 -5.202553284141359 2.7303344065542707 6.051760623931756
1703 0.6968255507893774 -3.8093169928054076 8.877116876625811
1292 -5.916537377914423 -1.0958313472478853 6.9871131477760615
412 -4.413686963304058 -2.5510963304444947 -2.1538594374264277
922 -3.27688275512883 4.1237993568734 2.1047349234094748
302 3.1587750564493415 1.6586835849801063 4.245290603393423
966 1.4236826881231734 3.5289186132547252 2.176907775369384
1289 6.012232216885599 7.147962423112317 -1.960751395052838
898 5.036481968780279 4.819141329242544 6.2010185245512925
841 -1.6942073855903947 -6.668933760432737 -2.0778232113307227
2050 -8.092231781582838 0.12605379381734613 0.882465849478258
1280 -2.0355435917642515 4.799706075935171 3.6125836447367323
1904 -3.52466965439267 -0.25402554338815136 6.692257523858471
595 -0.570079429434737 -7.030915053500747 4.089016704156183
2042 -0.6713670619515802 -5.374609975747539 4.814847342224194
440 7.872959685120074 -5.16900608433006 -3.670619926077845
678 2.368371479034881 1.112392961893109 4.526090673094464
418 0.322666371092389 1.7966390589563996 7.81010952561722
115 -2.6165724574248137 0.633086376073042 -1.0025259546185752
1262 -2.8152445836324884 2.7226646637832355 1.2145828889793997
1916 -0.3878142889089921 3.229886216815772 1.4908193053027519
1887 4.4440600861616995 -1.4087114708323156 -2.3360542193452543
1567 3.5526720561538916 3.084808756651944 8.151934653404561
1157 6.461204097661468 -5.089088421802108 2.2851920264127252
16 -0.7228359405479478 6.622585380232152 -3.0318995225090983
2062 -1.6926206306325187 -0.9547692431124348 0.5454990326748835
268 0.07734228401892662 1.3520870520420873 0.8058391258272789
2072 0.18760486373132002 -2.616208012520118 1.5589008614143391
807 3.2011631239387035 1.8481435994072213 -1.9722318879091818
1363 -3.0423571225598125 -1.923519716577785 -7.042367714392059
254 -3.7239668967716795 -3.5331074341353075 0.631737886020328
2143 -6.854104667870026 3.2421475347822177 3.738692674856762
415 0.03484706570148865 5.918393463104207 -4.514275873013668
1016 6.611173948455806 -0.2601396550410366 -0.2731928602917947
1452 -2.663695353740369 4.605348810060455 4.501005418638109
1668 8.94939211253871 -3.8459356576945534 3.9818942700506095
422 -3.711170110712663 3.2760025301226703 6.119347096926936
433 0.3725186042862247 -3.6773892848636334 -0.39366904441350314
1170 6.187747495997574 8.439436066781157 -2.746308670970425
1213 4.653908379967367 3.968217920242726 1.866352835515335
1146 1.1784907814139547 -4.701215741498578 -1.0997652118074768
379 -2.2736158674009177 -6.562324926627843 6.78178600027876
1684 2.722122560342979 0.04432799254814184 2.6267163341289748
117 -0.11911043229370241 -4.11080232872454 2.293624554380811
1067 1.0305752803440977 -0.8573063976827335 8.488023979171288
904 6.743956463755682 3.8054719413025984 3.055527530962717
1151 -1.7154435480086667 4.222155463636075 6.989540037652172
2028 1.181230889901979 -8.534838009550091 -1.8302381096588574
481 -1.7104588136286227 -1.8080270015684212 -0.24330769645986733
141 1.3258096444540661 -3.5533591112584664 -1.5446213540648681
1214 -1.831960547036505 1.0891383245021087 -1.0201042747669289
1344 0.601492684906692 -1.5624198562101341 2.829941538571377
53 7.659498314035703 -0.29299958525178393 1.0679700388324214
1251 0.6992615457667966 -2.9048369777341954 1.2483235529406609
104 2.2950662792146828 4.056892844526854 7.604539203579619
1807 -3.8033793399767326 -3.6524632699820403 0.3176512361014406
397 0.06654244644226884 -2.576856416231936 1.7392222355944809
1449 -7.551564696265844 -7.247182336271933 -4.7497324213578
1636 2.2381943294582913 0.43672768059659284 -1.1626556182970533
192 -1.5735357266866992 2.1184625949527605 -2.007270162890616
1065 -3.62994203848032 6.240219920441938 -1.133498441406182
1162 -1.1055175395452013 4.173862643451163 4.252135122164399
1893 4.003277917277667 2.1854672940041326 0.9389867776787582
650 -0.793648603995115 3.4683487659626415 1.9262370132072617
2110 -0.09568643998978486 -4.607816404578732 0.4807310783589378
390 3.563368701926034 4.000790940660556 -4.960650011127901
1837 -1.014695025291217 -1.7944346334569714 -4.162330800726902
1787 -4.251577593955548 -3.132690561494777 -0.7539837944883558
391 -3.340930741209849 7.541885706164233 1.3240007498133932
1898 -0.7826797328255589 1.8865667648124171 -2.497471051602082
633 -1.2543270070826946 0.7673797287386465 1.6245767051551605
265 -3.096278516753869 2.3369118640646436 -3.0491555422423624
1500 6.243674160024231 -0.746321591650922 3.6590609853928964
2033 -7.0112415647619954 6.370267649321032 1.4323351494640737
507 2.1089384441588193 0.9267858449815075 -0.16386670173088771
47 -2.7394548658744116 5.304450046800187 -4.256686215096537
551 3.0277039369664074 3.931263427758343 -13.495416697548299
150 -6.6262596524393365 3.9859003291717343 -0.420920727654132
245 -2.6853066364631566 -0.967246888035484 1.1140944418718475
363 -2.3337278982579654 -0.13618814645823618 -4.157803245810457
663 1.767068709990147 2.3547219549294054 0.8028216219962964
1222 0.36910781626730577 -2.779478891564814 -4.770993905530523
670 -2.7966344103215213 -3.2509023753995794 -4.317613370360337
1996 -2.377938411511786 3.6318583272372584 -0.9960354462159321
2048 0.05979893066079736 2.6077854141554204 -9.164770607515695
780 -7.096888244305532 -0.35881353152701645 -7.411106246301646
1575 1.3300477126115355 1.0700882482063752 -2.9736367942203943
1863 -3.5339274791904303 1.039435550199812 -3.1928056436919108
1197 1.01226292430159 2.473745073342004 6.04516959548287
1483 -2.375233671589481 0.807276466432973 2.5472351801563557
577 1.6982515591090792 2.8817474702195143 -0.24513382697700378
618 -3.08367139383455 4.157140430612635 -6.014158296428978
29 -4.378402778463621 -3.162868089480101 -2.2184567313369024
1200 -6.561453761429011 -3.437511382618159 -4.389899237596972
532 -6.425639765040402 3.8157897387156012 0.11882103723531662
334 -1.2380167638750361 -2.581181135406528 1.1940481063035915
1751 -1.3411332803659544 -3.794298008971885 0.29249402047025
638 -2.988926883611438 -2.542860458459171 1.5346221865191283
655 1.8093273233071354 -5.491115986060069 -0.6459811551334473
1254 -2.103994463742634 0.9064674355784166 -3.7669602836602616
1847 3.5505818497467097 -2.5153610109468567 -2.748097229718313
984 -5.586980034594688 -5.315904573467996 2.1978220614139667
399 -2.406628731379312 -2.659649100785479 -1.3719507286811607
155 0.5644755202057233 -1.4553225737274287 -1.8630835241500305
1388 -5.30684273897876 -3.4894955668132837 -2.6139719877380387
1334 -3.265311679116156 -2.155332037659378 -4.448126913113875
1127 0.7520171832228696 -0.6582524878280415 0.41127188115003077
352 6.4655936164847025 1.3653850194174693 1.5708370205813562
383 2.723884944629613 0.6751395695994349 -2.352480661563049
457 -1.3707611177612244 0.819436270429483 -0.0708355094598949
2034 -0.663351880996103 -4.090724719142829 -0.32735879216438457
188 -0.6927341798396186 -1.3406169307079494 10.311740904740958
1084 5.586117621576325 -4.166488433681739 -4.404414240122493
1037 2.2200487332652608 -1.2719678629596651 -0.6213984234461162
1526 -2.1450811038448765 -1.1730274195922141 -3.80111269738713
875 -6.6585816116698 3.867637813276919 -2.21815808521826
2075 1.840989001329271 5.994151426561922 1.703989743849092
1272 -2.6915789330970905 -0.49562901832818446 2.0634550763606674
1070 3.85829305419952 -1.1656791264497042 -2.0354012110501167
729 2.5182055493609834 -4.948693412919589 -0.804767036946604
666 5.292240232188085 7.6552697408249015 2.684259023364658
871 -2.128733032529712 0.7546045698973226 1.152462566459836
159 0.8205869233416724 -1.8138855056914625 7.902523174539751
1465 -0.04257076368905221 2.1182032030447893 -1.7881910374209384
483 4.274144401729372 -3.3219054824290137 -3.792239942340839
45 -0.6633912917007379 -1.623580127900316 -5.704819762997331
725 0.10630878618115454 -2.2638081085624795 0.34007585010502445
1165 1.3864943041470736 -2.6102900594156866 4.0077831109618405
1524 1.6805986071261063 4.414557968007597 0.4678367290066882
485 7.324390671994276 -3.8776894287685315 -3.5119302371791674
1123 -6.821692946501297 3.9121339209194725 3.7886189523489957
1647 -1.18624735653723 2.5635980568141075 0.7598111634573332
1912 2.3993620717216704 -1.547069077317077 -1.5661040432969568
228 7.321766459466179 -3.4541354365370807 -2.0378819212560817
667 -5.860176061025241 2.590128541919964 1.5523071295063757
865 3.4516353332872654 0.029055144935572617 -0.7955592266542291
396 1.7160680727920234 2.782225958379862 -0.7553393836772476
1052 3.8941134638512573 -6.297541198827933 -3.5531156493922436
1426 2.755605049349299 -8.727596788989157 -3.3200566622045744
1959 2.511837661751932 2.2525158771803726 -1.7481373595556078
1182 3.8191867761423306 0.8070193368103035 1.1685906166430209
281 -7.389746049193756 -3.1260927866273645 2.453014055783023
661 1.8452032975265322 -2.243838416620038 -0.7902971441090063
919 11.182559592397773 -2.166385378485045 4.377960319693782
1434 -5.716265299197376 -4.4763840614201635 3.3575520410708917
1659 -0.7763276387633125 -0.5280125718760228 -6.157064475517346
643 4.587626632933824 -1.846685183161519 -2.377264721868219
2061 1.4009738087339936 8.803958884863775 -1.4988956548835455
218 6.930696276249203 -0.27346408664315747 2.5222729654019154
917 -0.7311525369591261 -7.053777648640685 -0.23962649714611156
1301 10.295964177352479 -0.604076867345009 5.795824836311233
1083 2.418142698829282 0.602950616521458 2.302544548522585
1756 -1.3769592871527718 4.206935392263758 0.9572177208317799
522 0.05516389270891452 -6.363588982995306 0.3550273248276794
888 -5.981150120539609 7.399216482188548 -4.033070144990971
1261 -3.511587708034442 2.3933310381641664 5.40625332020803
972 8.437222890762875 7.626420277051491 -5.850506407809851
5 0.6715150153241771 3.1585725902349884 0.10187915769356348
386 1.452581962868372 3.9663942995277868 -3.5712857328306558
1698 3.372266079491051 2.2428608402920496 -2.6107055740839193
1896 0.8091027383394012 -0.7070545615599757 -2.8297351939171262
876 1.1321148831712355 -1.544424933359325 -7.448843344671381
1166 2.934938630292832 -1.9357515367856555 -0.6054504601111503
1218 -2.8351643994005253 -4.571393642233207 -4.456746829085338
1154 0.5464112704469302 4.164392306551083 3.4634988965406888
2029 -2.721798357929726 1.7424841428860642 1.7614829848080367
451 1.3952152955590578 -1.0331465089533034 1.6959506484548206
1625 1.5258069290198384 1.4417789676641128 -1.524661526308207
2009 1.2844959415708883 -8.981101984304884 1.0093368392024369
2090 2.6357326121018083 2.582815699572663 -2.1877142613387464
748 -4.500932292591954 -0.5023273418835433 -0.9419461899862881
978 -4.791444094115095 -3.8597478767961015 5.591505011494229
690 4.2595092465070215 0.0686637056989606 7.11725394761909
1683 0.7929940559245223 1.0486460956136336 -4.6672425608019905
1193 7.022452517296423 -12.580634120509716 1.413290631060285
1674 -3.310749376930939 -9.381213390692825 2.125524612410089
1407 3.667691656108401 -4.136394348008227 1.8640445123402685
2005 2.93410088187606 7.51208477255729 1.3359536397624592
1481 4.8998101685333655 11.336847421826818 -7.613692283598778
1478 -2.4998077294697008 -3.903840816931 1.080978399186956
910 4.588685859764217 -5.2489402542984465 0.6677569898040467
2070 -3.323966483632655 3.4124226742941604 8.730040778630412
402 -2.8087436206248055 -3.0772240195937095 -1.5535703542633303
2092 -4.267948461054739 0.9387643853914764 -0.5565709571443128
1355 -8.222811411128077 -4.047510246232791 8.399128967446355
316 4.485365316521454 1.7093597377741114 5.213143658489942
90 -2.5206739495854733 8.797135459366066 4.291963988392374
118 6.327186278229186 7.3496862226565876 -6.88974404818939
1178 2.082170885504829 0.5230829159196339 -0.4974749594730626
1986 -5.278589184514179 5.213425235067066 0.3281101442936141
1532 2.350465601538777 -0.5695865716772525 -0.10351413085097044
2030 -0.12723186627239724 -2.7203779052797086 2.9183699760134107
395 -4.719421326221676 2.5835594625157183 -0.2051481626389972
275 -3.452131230963383 -2.1600988750134285 4.204007499775939
555 -1.9832268697497748 -5.859073754155016 -1.0039025883109414
1946 -1.0857528134393841 -3.4269885596017464 -2.0924698964646
1796 3.550352674873119 -3.230820599759603 2.980122857668846
1867 -4.207719204248222 -0.30568555426904975 -1.2618612983123438
1366 -3.6991662403580436 -10.902492953509025 3.6642145829023445
969 -4.366152010971769 7.956935454011908 -0.5558183126002753
607 -1.3033523763083918 5.556111542400676 4.247501533034355
918 1.0642829794627067 0.972412222423136 -7.428537159096239
733 0.6133389181010404 1.7814752748599183 3.303565469967548
1812 2.918338674240808 -5.753465153283346 -2.6399210255322223
498 -1.697716249685904 -5.893427424889655 -5.573982054552945
351 -5.49382143335849 -3.294372977748018 0.1797631338530589
499 6.157357263092953 -7.082448135998796 2.431460610840261
1377 1.1318841383096823 -8.774133872303876 4.7563282270382174
765 -1.076428363867942 -2.0533860134417625 -5.293790556930469
1256 7.616871073929456 -6.073284717259052 0.6506852586390302
279 4.476942584122474 -0.9881488227003156 -4.850251684518001
1077 -4.495168870666494 0.24691374097018562 0.48435574405341847
343 -0.9731999256106558 1.3454871760120746 1.296735901052037
1336 -5.7491620927366345 3.1691112222457156 1.5442237027002628
477 2.2645214901347224 2.4816632448802975 -0.07159265056441086
2113 2.348514625309271 4.166268427038148 -3.190407664233079
378 3.0712039568216496 3.348276308399154 -3.420714938033337
1820 -0.9900900393753206 -7.887376634873893 -1.282973380202771
1444 3.01272685370659 6.84379159196399 5.367147935468783
403 4.3564794385096475 -0.49461279452508333 3.2806239614470596
528 3.6964294819505654 -2.59769992155849 -5.497897942132357
160 8.634749478115232 6.794964083592306 -3.121969712243939
8 4.916463167124863 8.251190285716488 -4.940785291294962
1805 -5.407502803114477 0.0323288518806533 5.502468017679473
194 4.0049057162125345 3.8420171812680333 6.216377641914123
398 5.476230371354071 -2.9181805021057308 0.006799658476677226
1409 -0.06570951572418623 -4.076064618604058 -4.4692903545050955
2115 6.417933842622778 2.803841344628309 -4.940081835850223
1602 2.8430362824597046 4.960005705109178 3.6120024767012238
57 -5.104160209817985 5.922516414822543 -0.0004067489136832514
784 1.9980825535485482 -1.4355617123271385 1.7426765922064127
549 -5.408649747937308 -2.271297784358379 1.6303592150353234
719 2.301178536947671 1.257176501636478 -3.023082571870139
834 -5.069754400109283 -1.4343138313329034 1.6052409521720858
2041 -1.9966733243184547 1.1766728934598667 2.5619360349101132
1950 1.0190549662548536 1.1443333780125118 5.645871490565304
1172 -2.829713073374395 2.182173790570145 2.1389369019220736
700 3.372555871116478 -1.8074451047499662 -3.524459168552889
1773 1.6880083098886867 5.048432540397993 0.7956225996900187
1029 -2.9182651612366035 1.2077662597175893 1.2375508202448076
1022 -3.55258264887171 0.3704551807901619 2.667030986837344
54 1.5049060911161423 4.388956211333288 8.363483364065612
2059 2.389457343242528 13.354848879755783 -2.136807505055941
1825 1.659604996161604 -5.2125034925012645 -1.46364022226026
1003 -2.431951862168238 -3.0317207354193494 6.258309294736299
1561 -0.928490498879545 -3.1592584459473456 -1.0656929020359664
900 -0.0017645504623295416 -5.699863187090378 -3.5025003342798326
401 0.5589385538549009 8.419316915435177 1.5955950880171035
1223 7.209495144576902 -3.1723219905071387 -8.016375358576381
713 2.2518440838566947 -1.549063095886908 3.4459481159382217
63 -2.4645189759138892 -2.229811984437998 -2.3775941386412565
815 2.651887113145178 7.024755774584813 2.8811956454607586
2037 -0.9484457609417118 4.330769036044624 4.367457000606806
1806 3.557969252024579 5.5455602538876345 1.8769953766888194
1163 -0.4105962547047763 -3.9076123970849497 -0.8198546323913068
572 -0.1865581476919639 -0.09115207223030457 3.6584783670754284
229 1.3976209094969965 0.8580328500942255 4.744705684656838
1717 5.944360892459292 -0.36201052277489687 -2.724853572737635
1878 4.847910096787522 1.1727824995395784 -0.3754157613071015
112 1.7969807268268554 4.654483953345307 -4.2103306418318995
310 -3.8837302494878796 -4.4386167867288515 -1.930703986201276
1941 -4.8887360507758855 -7.242675935695109 0.6432382516456983
691 0.1938592277738838 7.356262009568168 -0.9974296555636918
2106 -2.74212591655119 4.5141001128607146 1.519916249282145
1340 2.096363513950296 6.7285659458145375 -2.373944451492725
1430 -0.6543248854926467 -3.1402723460425146 5.994828517985592
930 7.894773060747171 -2.950714554088125 1.0555583129512556
295 -2.509870871411034 0.04144984748091067 5.4657760346673685
1183 -7.202205108377693 -1.5910148705400833 -5.360207822676391
1516 1.5784722353539935 -4.512460613373117 1.3146013802852377
1290 4.282522749039283 1.7225499552109493 3.1545795300291855
1678 -1.3907550609405206 6.5333726604906905 -1.0917681034452427
3 -2.769311457591852 -2.1585821034371464 2.0599252155757584
140 0.6570511178951944 -0.012847307654819227 -1.0221686930504137
2158 -1.193147665139805 5.046797035673133 -3.518430055116876
981 -0.05271756847197835 -0.5494380618616197 1.4480424638632157
1104 7.5152246777113465 -4.108270283529082 -0.21978695611313964
579 -1.4528794115689507 -1.710015314487347 0.5679249733795958
996 1.253690000174976 6.235674512597958 -0.8115923538979997
709 1.1555922888503591 4.714093950300109 2.802990348223587
912 -6.383837106871854 6.405635824743729 -5.385070447737909
777 -1.8059958873237207 0.5154709304373375 1.660063136987252
1274 0.08081087870518894 4.267322410782293 0.7853396837050626
1545 -1.2162288855248002 0.5414933923547622 1.570475616335026
100 1.3831493536721742 2.7137314273388897 5.1120942985186755
1221 4.768085034712864 -0.10159017665402639 -7.225208792547312
864 2.8213542298493866 -2.2599440827719506 -1.7047648463885805
771 -4.458689248248655 -1.563523722454184 -0.694736980354374
414 4.399727872635858 -6.757670106586104 1.8687870975619156
1803 -5.351127905300454 -3.5959773642069774 0.13510168337518533
1074 3.161785653646712 4.228489258014831 -2.1356433016627525
1828 0.5341126122004916 -1.2171159377273364 -0.3064346740524545
489 -4.99407021998828 -1.1808120413534338 3.1347047865081663
1629 -1.4742101681394257 0.8935229368479872 3.0341639473488873
28 3.0692461436411786 0.1626679533714754 -1.9683251686243395
393 1.2756593042997577 -6.633477415853158 2.195448869764134
341 0.7656856701655005 5.18706321242661 -7.090951721880553
923 -0.34950695635242124 5.449110192585155 1.1482961154576807
1691 5.595227764529355 2.194103705502608 -1.6517247065557628
1040 -3.1065632114434236 -2.704850667060869 1.2408668219934291
1610 -0.25125271634712726 2.1904266070966334 0.994510901355203
1749 -0.7736837941756667 4.948609603728383 -1.2717429989813174
516 0.5138154185422324 -3.3418856945117734 -7.196867157934763
699 -0.4946259043046096 3.284954784599046 -3.1764868692146044
1554 0.5102362898702073 -2.594177342436225 3.8082594257679965
1033 -2.4430571305843585 5.247767251388125 -1.21654506986174
653 8.810127036222502 -4.537206800609361 -2.5348516330015523
565 0.008171983034729598 -2.864888965254109 -2.442720077649326
2022 -6.446720502003841 -1.3589456182830886 -2.4740208979352714
30 -7.201345990711625 -5.411194165430401 2.0774904360276487
167 4.9702527689641345 -0.5298998319709207 2.6379040930538826
1061 -0.44534670030355905 -0.5487257721608463 7.526182441168033
1537 0.11476298475291513 -1.9250028646741502 -3.9047829945085026
466 -1.8512098764713096 2.4709931900388744 3.329703600150119
1877 -5.055523410621272 2.1146477439837814 -0.8254811020540392
1134 -2.6313766492089536 1.6609378764007936 -3.0743311555605035
88 2.14406286342848 -1.6095019125626062 -1.7032996272522662
267 1.4646099104450359 -8.248273539637921 0.9765983093670401
1558 0.17565415596272596 -1.904759053540285 0.6930588544232799
321 7.476334251611951 -0.02912305608601328 2.991881069187481
1987 -2.0900924997003583 3.8702311157369818 0.050231989228503186
238 -0.28233837858317956 -0.5805690609051695 -0.14771086744984777
1124 5.273998094480033 0.8334979198268361 3.4780289417781645
315 -2.1141527756526233 -6.663738829202726 -0.5991554117513429
482 2.8966759818488996 -2.305774687739643 2.472272296052441
300 6.0295479537456185 -5.553569569971242 -0.3342592830935255
146 0.5216914298783758 4.564841774497846 -1.0781432298894813
621 0.6752108788765434 0.3679819748569688 7.718899641375309
248 7.917216807615166 -5.376896359114129 -1.9370181356742533
952 1.3402108572761993 -2.880237803163757 -3.212606757383626
69 9.299516588202474 -0.6478466854203163 -2.6578455909725434
1266 -0.9649792970847342 0.9081100833541483 1.2670496200805106
1118 -9.946112232346861 0.513216169298408 1.3452071784308268
1158 -2.4325727812779414 1.0620110099947593 5.679016721117834
1076 4.303916523551518 -1.0020287459778774 7.157183404411139
2066 1.04503307339519 3.945146642247876 2.2463823483816174
619 1.4793503259616372 0.8039631912770059 -7.37188690732036
1078 -5.685677870239624 -3.1078526538002826 -3.3017093534625523
1608 5.1318961790685105 -3.266522644532893 -1.9122329700022347
992 -0.6444132780710694 1.8751287607917195 0.09015907555620836
1233 -1.4472399261417697 -1.11468233043252 3.5591762873573964
967 8.58805714063558 0.5228577578702195 -2.539647548578675
1130 -3.0835218540320115 -3.022868121388493 -2.1435649780584267
1424 -0.9667676975601291 7.1729556233554925 0.42843913541808953
1234 3.42065627609043 -3.100456897172384 3.938631740498002
1094 0.06686423254927674 -3.744638300358595 4.112048662332758
180 -2.2569385585608126 -0.8865473387788849 3.2119455064288824
651 2.340254693480229 -1.079510610999042 2.010356861043836
1594 8.27631598533314 -1.756213896192953 1.0506698332623774
2020 0.5323651265553769 1.3735515427550666 1.8339014673110796
221 2.062927436372666 -2.3414483329967157 -1.018385591777163
1589 -0.6518985180709976 -3.131925879287141 3.6672821245874374
647 6.655132490396114 -7.9396104995488255 -6.436773531383542
852 0.9628655595103536 7.555091356817289 0.2995122819969665
388 -0.8364133798141822 -4.232962496015684 -0.18972405195178563
173 4.3802637317189586 -5.999515729265417 3.0361431350713253
424 -2.3452243725548345 -0.4607017941681438 3.9362979417944692
1433 1.2250926796558526 2.9373081088560355 -2.078857832993854
1876 -1.9132561799275951 -4.679687749730841 6.230990207361706
1413 2.0285384577756873 -1.2476276603808805 -0.9856426987176453
787 2.939055082967193 -2.8220439284536747 -0.8395635367532455
65 -3.844943119923967 3.698150287455315 5.485973433271657
546 0.1078797879274016 1.02300078790738 -3.8902528792203452
649 -5.018820476670873 0.7033876738973164 0.8178853597487138
222 -0.10238828795669046 8.25023143756562 3.7527007148838556
143 -4.061583727903403 1.0661858574349459 1.0746121029070939
511 -5.119975932674548 -2.911891645092873 2.4184010094559714
219 -4.704249090871161 1.35556509550646 -1.109607579377207
2014 0.1957159096691407 8.931043688303177 -0.7021460571282332
907 -1.5048951737153617 3.9888207209932265 -5.11969326195474
590 2.7521359603937223 1.493948040091386 3.3493676340712724
737 1.6518867041970686 3.75904113513093 0.10616683649970447
1420 2.6221200582822397 2.571833829782834 2.683394987836905
812 7.813889129192674 -0.34951535099981695 1.950876908822644
682 7.279268412501975 -7.4596050854044975 -1.3173536792906142
628 2.697134845693967 -2.1646594357830784 1.3616839691208062
1713 0.46487835765561436 -0.8413052286543717 -2.8934265390994693
937 -5.5051035470568435 4.922329391391802 -4.186971079966286
592 2.5730137564604427 -0.13180964958724567 -3.284722259196611
1101 3.344828229706219 -2.0270723954282124 3.324448932715016
773 0.7393402046471076 0.9466601837004761 -1.944964956897648
449 4.316307828027148 -4.633370861626833 -2.822897939126205
2076 -6.972082007792307 4.803614965335264 2.810267357905988
795 -1.2481837946373031 2.6478247512474655 -1.2250650290894034
1991 11.703353734147662 -2.5991527075580714 5.269138073428167
170 -1.6731031375806598 -0.6354816056023576 6.743558094750864
348 0.8611105487958756 -4.010835601403042 2.5725742967120526
109 7.758925011708519 2.8320237004464404 -4.662607417984824
858 -5.175833126106151 -8.915752020072773 -2.211584784203619
929 3.010466601234189 3.0388668164240347 5.525628525049871
350 -0.6534353859352802 2.6550293818597055 1.2555809370292343
1102 -3.5879774297381806 -7.150775914255485 0.8456873541862752
2046 3.6211769659928854 -7.4091615402487525 6.742841013178372
270 -2.092972740851233 -7.451515726969941 3.1994650263829785
1161 -4.5402062990840815 -4.164200950973769 -0.5914257291109196
640 3.8797301176174908 6.2880595443958365 1.4892115823319396
1075 -8.485305046230945 3.7784795696219637 1.7026328838785645
299 -8.14594317182881 -1.0895932370091619 -0.6989846989069886
1607 0.2782330438607165 2.027575270465342 -0.8295077759263219
874 -1.0608310818414184 0.6164917915398714 -7.7090126777816605
1935 1.3901108640294497 2.774273995536834 1.5602964372335084
2010 3.757630651807403 -1.454718763627799 -2.3758604824714715
476 0.284015793272423 3.8633049471786793 2.7641527589765125
1250 -2.58482669382499 -2.8304655793047657 -3.851943151076949
214 0.6653852815272007 -0.3205738420064757 8.483743919907862
1353 0.6132122416852996 2.273396291391637 -3.9649849060526594
1352 -1.9961446083958105 0.7309088938678654 -4.06056293860636
766 -7.424199402904601 -0.6218815538543392 -2.248930559135448
720 0.9943406676268717 0.3143661683988508 -4.558218706747823
469 -0.9737519945986896 -1.9658006197919446 -3.0735583282285264
2119 5.829731246482149 4.727539868085601 0.18503334220200043
745 -1.3310314431295418 -1.6328907363387348 1.068771391401854
502 5.132401178554827 -3.56707613932795 6.408889681324977
568 0.6252036362798338 3.5211554198758614 -0.5203371063812764
2111 2.2720593021546143 -2.2148839331209955 1.5013439605203327
1173 -3.079466101450515 -1.9278483515421585 0.6084891088032635
247 -2.8221614489760625 -5.271810074927893 0.5752452239885345
1705 2.366526835750802 -1.6182901573046018 0.3885186723287613
148 2.436152800664192 1.7763665135626716 2.3223828832487245
869 3.4439482912250794 2.8327427505240412 3.5410014338556537
252 -2.2313088126168235 -0.5599847672494052 -3.0616928527226164
997 -0.789111156822678 -5.216901513011796 2.673900986839454
185 2.630854809454184 -1.0381419850235574 6.126215088703084
317 -1.7084387724226402 -3.194268139365218 3.9831904469026966
1417 7.44176802584209 -3.109768112705859 -0.5195618060228381
156 -0.48311589074368627 1.9154703270313163 -4.281608824128786
1097 2.084942322201837 0.5763831208989052 6.449860743449988
960 2.4034456668708275 -1.8966248355484512 4.047559665227918
144 0.30363982222711 4.669786121010537 8.23810586961436
1761 -3.3122320893138713 -5.109676103335834 -1.676398246174183
1971 -2.209111209654314 -1.9977206811598898 -1.7501129965685798
639 -2.020454436715087 0.5343057424519198 0.6308444726325368
1783 5.064075782690847 3.325896307840429 -9.328260165191372
1156 -0.45591182769868527 -3.798300820091297 -2.9875165303977256
1530 -6.357795279903359 2.3527455964224897 2.321482142630824
198 2.0165964702105903 0.44653526758893153 2.546096124400707
769 -4.008743348277035 1.6845301994801833 0.1101073583972977
552 5.094844471029023 -5.232233255443757 -2.450214745501448
80 -0.06780737042303339 -1.8313736764704163 4.557031896968024
1771 -2.4251524846486294 -5.13269979933383 0.03313494486262414
1309 -3.4620054509800666 -1.8148620927071961 0.2914500199264561
467 0.28996978678476815 2.221889532179437 -1.7019808596194088
986 1.8231475298903073 0.6932947026277997 0.012003765194079452
2144 -1.652356974781323 -1.4422690120545405 1.5014812627086287
157 -1.1823454672470042 4.58593027027387 5.4532185427913085
2160 -1.5179968119553837 4.967176809206136 -2.091473729420426
1492 -1.2768381686745245 -2.525108853800238 -1.285139608678245
408 -5.5528442277410885 5.9522913450471355 6.593579561442189
10 -1.0969077603092765 3.298369018419104 -0.9314235755161272
1514 2.7810185251032604 4.938850223863626 1.3788049323726081
2153 -5.473934589269353 -2.6045762456624457 -5.03416890328574
355 -1.6111096134417835 7.703449874105844 3.8904218342469785
873 2.7224048679537804 -1.6211600035330442 1.1126469598537427
1404 4.217898129928723 7.073802905703594 2.397659380056371
942 -2.951519860475282 -1.0641091048464866 -0.26328585528001175
1372 1.652456190925085 5.917352101245362 -1.1317378559343647
1929 3.207152314780822 5.053577490077675 -5.423156582213416
631 4.448864890901905 -0.4319997035558491 -1.3811997163360872
113 -0.47321325156354227 -0.21281482616945735 -3.411141001254731
1983 -2.5522969374413154 -1.8199057061543797 2.2237541608512332
174 1.660574107888679 -0.03800736908918736 -3.0744226216728054
1100 -3.782843686891894 2.5504987272261284 1.4474987046349443
51 1.6201131805384619 1.06193468667896 0.21140461907909688
436 -0.9897530526963005 -3.1863211476848807 -9.532643598349896
2063 -7.648138115278347 0.4246440418866874 3.186243259701484
1429 1.884315512254528 2.7857355649699684 -3.185944338454965
1339 3.141079637289271 2.0500054318215644 0.01319865211128652
533 -0.01798975519941684 4.549004779541951 2.742518847949909
1144 0.7255395896442052 -0.49524787568154294 1.0024446851607938
257 -6.6179365124698535 -0.7220044965953133 -3.233318837641062
327 -2.548047573862767 1.6960870625395466 2.2229896915961715
743 0.6758643449574829 3.490946668681206 0.47245915882227485
1437 1.1465909396609226 -1.5856533232638061 -2.2320712591735163
9 -4.896037398765252 -0.21429926451887882 4.977447661651899
1310 5.466086381575744 3.723092226374716 -2.110037473766775
571 -4.299134536728844 -4.3761383298062535 -0.1396741837068213
33 4.129217908938906 -0.5186685333442055 2.7116505358962
1012 2.6568659585861467 1.1585474647018883 -0.06450828235279568
915 -0.9722165161976961 -0.20530780732485718 1.3330408532635811
599 -4.000919411597829 -4.13075417222375 -3.087635573332567
675 -1.6116881876856828 2.931834575496794 -2.044902796854225
1727 -0.8154320860619345 0.5646614281943947 -4.439803865532235
103 -2.478635992371641 4.901301139173052 1.635090570897404
429 -0.7504563648643976 -1.0935626512847212 -2.364165526951797
1259 7.82736882600916 2.955615442722481 3.7685273454590424
1121 0.27501022711734674 0.5735342493596989 -5.538809939107681
189 4.572690399950168 -1.2491525774565884 2.737232525645429
1107 -0.6106288599740762 3.372171401900038 1.0245120357213475
1188 4.11118891187257 -2.4212914054352783 -4.053926494162462
231 0.2321098801983213 4.609401552559124 -1.4641109553958316
943 -1.5619233892806639 -1.343193264205391 1.2123831167947818
1529 -0.12482925973725284 -2.9588348884419133 -7.434651356613174
887 5.31481870441689 0.4143054822595783 -3.5702766216079977
940 -3.0679965963760423 -2.3585842931809777 -2.7982753328210817
259 -1.9120530881311961 -0.31269928599880775 -0.2634819187988832
1882 7.242037890341401 9.977726789451722 0.42516386681066265
1369 -0.21738515901394048 -0.2847070902174262 -1.4092055041422527
1018 -10.066072953444603 -1.8697336890577951 -2.5265996251927887
1839 1.4348121237900304 -1.9981269346908226 -0.8289413771499747
2131 5.482914274716365 0.34973626187438783 1.248112292738124
785 -1.1211077004645251 2.554066622665272 2.3812074793646523
1331 -3.687129339840729 -2.8392343495635384 3.630467751365433
1038 7.4945495585939055 -2.1336227592137385 2.5083654388201295
1368 4.673890580023339 -8.995751000551099 -7.940300733858093
1790 2.653469217027147 3.06961079761656 -0.2802331567987216
1970 -2.8055527225877603 -2.575511624833025 -1.988159590350529
883 -13.006117426680731 -8.78366534127474 -0.7763169785009542
819 -0.6249410259659034 -3.0499686520952256 0.06870806019251133
1665 4.8436016281506955 -3.638936448085769 3.543136438545691
1027 6.427518898307742 2.19891796350839 -1.7245597105813604
1056 2.3913657870911784 3.6421140753742787 1.7551951605695029
1398 -3.6925086445110313 3.7236372495489634 -6.493903833743027
500 -0.33803123877305474 0.34386508974147956 4.29819304147228
615 2.6736533906147013 0.8110870004133128 -7.252868562306608
1302 5.996020009112712 -0.31047366795523546 -1.3771625387579745
1051 -5.829441924563801 0.8709197586722385 0.4339827468661903
614 -5.932176641842394 7.044291350810792 -0.5237939762538096
714 9.010018522198134 3.4954704521635676 -8.067749512694768
1637 -4.501561468377266 7.429100530074776 2.6982795362348426
586 -3.6795128894577713 0.5036644272716151 3.290552477649003
421 5.271549434578467 -1.2693616971241144 -3.3593971879635705
2086 4.318756118847809 -6.941799655976317 -1.5543236681984682
1231 2.2530533857368273 4.311159372942 -2.5958166748022036
428 9.176331585094704 10.948984105291878 -5.7262822194536485
1755 0.8341243857630593 3.346210540885407 -0.7070029994735556
437 0.1552393007369205 1.1181966868513054 -4.2387976731570545
775 0.03133525890130487 -2.9773687057405263 3.4936500914686515
542 5.025382809380573 1.8035595908028015 3.9068900811303435
1675 3.044759814817795 -7.958212153225001 3.336997388796517
539 -2.873609837385137 -2.198944646969892 1.6929507412581404
1080 -5.689651958522647 2.1624719839394424 1.5357281033888273
210 -0.10514497552834501 7.194737007552407 1.1195631044018848
2013 1.0116003631458235 -8.153796808301768 1.9843639894168557
1271 2.628330507059078 1.48227438683017 -8.100977592199673
524 -2.9944114752323627 4.167095748624123 0.10083876694556833
927 0.8369483551462923 -2.1683939450579577 1.910808534385168
802 1.5636645860022198 2.046351773223957 -0.3871321787319635
225 0.5082846747302616 -2.8500077500767658 4.051106570253192
961 -0.0776890826909226 1.402607661737147 1.3151854935206981
701 -2.3376762332240575 2.0228225523731993 2.3906101980630154
1093 -0.4544374667400928 0.4807569219879748 -2.66556213916285
859 -1.7554657571976031 3.404255239066181 2.2341937873899322
1792 0.019172870144421063 2.0741262526020616 -4.408184892110294
223 -6.915019939262397 -2.811607415446499 0.5979043848413202
1966 5.084472368351882 -2.330181708751091 -3.634140405523071
518 -3.7613573900555344 1.9406997938648582 -3.6051932162459353
1926 -0.638427523178283 3.012040813029068 5.4537647404631695
1808 -1.539470747924813 -0.8654362332012785 -1.3167698053799408
585 2.3356948540736133 2.211051581267156 3.0429491893479947
903 -1.8727060642539266 4.111241767780777 3.4016284954458813
1199 6.393476145762015 -0.32240000949471553 3.9594466913661246
2097 -2.5081325620633454 4.160354227504136 -0.07270698093028427
878 3.1444846523255703 -2.670136713075841 -4.940632763440228
1786 4.903222281205342 2.2150913242235784 6.568354049849824
521 1.412532986413489 4.121953301687423 1.1318953960959568
735 -4.762136774852295 -2.7879813577641346 1.4865888159238596
1458 -5.711884970308577 3.1051373669801627 -3.7031735513371213
1324 -1.8088051156220069 5.563493813269069 0.7284792980783646
939 -0.25108359348408643 1.72049406916859 -3.2405220612141106
1653 3.5380408067201476 0.06291332668526743 -0.9290513630047139
1596 -2.313962232850397 1.4648078126508255 3.566201559347425
2089 -4.280819254907113 5.237943001005245 -2.5864800734964413
1138 -4.468152040794277 -8.227113550582748 0.4756561388660212
20 -4.5380934886277995 -1.6692732975895765 8.220670754357895
116 -1.2524153547968295 2.6401859976773028 -1.4214067460163868
882 -4.342724248814106 -9.781043779857816 0.5379157553018789
1422 4.290686746185779 3.3831734394061375 -0.4688493019047066
1095 -1.6207052310063466 4.296767632683185 3.085706036407335
1579 -3.459918769576911 2.8864823150075596 0.48795018265488316
443 -2.783059512189347 -2.3907576449955146 -1.7940561858785036
1645 -3.285320381866299 -1.6925510872030463 5.154012117814647
1468 1.943714328497452 0.31710999659842204 0.8597778159526457
1626 -6.045443138465754 -1.6659343172419039 -3.4601290445050963
298 -1.650949209847735 0.7657588091245828 2.5105440961795655
2121 3.9473590234361957 -2.8907333715715753 -6.6665505971144725
158 0.05501635639866244 -3.551283002561175 -2.9450663741492136
1049 -4.001964504713527 0.45943750444714837 -0.646170480682141
111 -1.4980821568224532 5.346754516617886 2.968715410004094
1664 3.9757201559837925 -5.721552588536634 -3.6613625144796362
755 2.0503129359985057 -1.0889078917594062 1.6927498514677704
243 -5.715073295408419 1.797655445624688 -1.8553893431281419
693 -0.9801683235089422 5.6010590756710785 0.5784959977074785
52 7.594314501747501 0.010642201891238023 -0.46325076622091205
382 0.1429924196990435 3.7815240426290373 7.1709045925727946
441 -1.4654667114509097 -4.32902754652718 -1.1286216628600378
1455 -2.6416219131378 -1.6580400289972592 8.220383139428934
1858 2.7414089109818445 -9.113706431409607 7.171638055862682
764 -3.3980996031807655 7.75792490863249 3.6690262999932104
277 2.81227892338232 -2.354686823876847 1.8731608995511255
671 -3.8401219507510613 0.9117001387535878 0.13027576738056354
1332 3.4537315383345426 -1.1121249547637182 1.5446557289059408
1312 -2.5154521950748365 1.3841569647680958 -1.416177793106788
1244 1.4394450843142237 4.122584191520491 6.348560336556307
83 -6.9977182338869595 -1.4036131751855527 -0.27117912407756944
1240 -2.5287713387459823 0.34908744977828926 2.745871777939843
1115 1.9011512010919145 -5.888879684696526 -8.138803513345929
1139 -0.4351226649133113 -1.7034650470012338 3.0871824838576405
998 -6.3360619073840345 -1.6898540152922688 -2.2259689648891365
884 -3.1555785117432738 -1.2716308933767915 -0.9023069025276756
1518 -0.7597330563613204 3.6450009611108696 -9.813726116708441
1347 0.36903099751178975 1.117776568840941 -2.208484101602742
227 -8.79035972716761 1.020539084761188 -0.13565172696454605
1276 -0.9066496092404331 3.7731664574985895 -3.329700905180856
102 -5.180699876299369 4.255915890149783 -0.00644070499184275
1824 -4.273646936528661 4.521275778907619 -4.186338557453949
2080 1.9870018745340865 -0.7420954359357583 1.0124993401488604
531 6.846341814580957 -3.7662768078273063 1.2001920617892616
905 -0.9198311321857283 3.612341868652033 -3.4768062272105595
645 1.9399321393045013 -3.1247150949529634 3.375551951404817
763 -1.5505107762797834 -0.18990941337007022 6.503431765543233
76 3.216937771841245 -2.092898953508906 -5.379048958704176
1733 7.022579345370631 2.4403229798102144 1.5748342727075118
644 5.33538375865743 3.316965518923646 4.011168904069934
448 4.479020645322649 1.5753426164112907 2.2740382507389905
1248 -3.3478252200262633 1.0104809901479885 -2.2401423233471616
1351 3.16454695902164 1.3272408374619753 -0.6872297873200326
232 0.7103476189408191 0.3455988859185464 -5.624071249535586
1026 -0.16350959636653983 0.1424611268116042 1.081367982814591
686 5.879187219801896 1.8138726698616792 -2.7751503979795067
1269 7.2234971273212585 4.824753121207161 7.377401537264719
2130 -0.3671675970868639 1.9838768876862807 3.4281357477396446
1023 1.3832957105421673 1.9541535099508422 3.723677271111559
2098 2.086250100759248 2.8446086525101393 3.478034620570945
2002 -2.6351271096829176 0.5557540925373271 -2.728174126447852
855 0.658541964761388 -0.5828899349402669 -1.11539630840476
606 -2.1165653101885438 -4.438903304067399 -2.716225310623656
612 -1.8444561082472608 2.5017443680394305 2.330500532543434
1467 0.8446307178257499 -2.98291306921833 2.9884527088101986
1159 -6.440038645220893 -0.017453772119508874 6.047587107349602
186 -0.662849853113923 0.9188528808426512 3.1582130245879276
1690 -0.06712600406751576 6.687263603832617 6.409497571791875
2019 -2.6694063668780585 -0.36859891241402776 3.1734226546588675
727 -0.61125683404856 1.500551226383368 5.8504205407169705
1932 2.317613724522721 3.6662675436034173 -2.786468382504822
119 6.430344398993809 -6.4346265358436305 0.6814469515817678
591 -2.1176458262619025 6.339935725689429 1.2346964243812995
744 5.37407071022416 3.0007912779996015 -0.7166021258744515
1697 0.7352703149899876 -6.670073437154915 -1.505640096618778
786 6.168100400458912 -0.4548564079759295 -4.786656592011465
1699 4.371636495979236 -1.397113889001368 -1.9369988804665212
505 -0.8510679668990014 -1.1674645992826662 -0.5332557869122901
1148 -0.7794255896973293 1.7357480305480826 5.5517748817891315
416 5.086697863099197 -2.27456778738663 1.714368222434205
1489 4.947763260559502 3.42919174565223 1.998677030080413
778 1.3947248179125484 3.9182466819908273 -0.7881677897665711
843 -1.6131177460256594 2.547909047874362 -1.1901868927426273
1393 -0.7258681383358236 4.024067241545296 -1.9305395798446545
989 2.299947412766185 -1.5107663119554902 1.513833716559265
540 -2.779345202454305 0.9404104554886278 6.249263141068043
1185 -10.22291462307405 -0.25237145912883413 -0.7231359892077207
61 -1.975512416920999 0.8327641835894403 2.259220336225326
1798 1.8027306120982987 -4.600246260584192 4.212944175053752
1924 -3.3831817429040885 2.4012004950528194 3.7503663860804295
138 -2.578939681057132 -4.2639477462822075 2.894747128543061
135 -1.6457363806571212 1.5739435921095548 -1.0302329958409946
1414 1.292757646507753 -12.587051007156658 -3.3723791891506947
1265 6.644705492273549 2.3879264076204727 2.3563313508422272
1011 -2.134274286040487 0.3511448239862203 3.6303032403692916
203 -1.2973239799916856 0.6927161079156168 -1.9429219255045493
1142 -0.2776367132325836 3.851090114008207 -2.6869813936429594
1501 -2.4289886243685164 -3.5597559684450113 0.3646872793742947
1931 1.7224695086630273 -8.188191558433322 8.06030548921875
1313 4.433696284052767 -0.3200447992852968 4.349569614616721
1210 0.11146609368118793 -0.8766522229603312 1.777802507347015
86 -2.8578384668320678 -2.5230566945981345 1.10407842848559
897 -2.412163801068552 -6.938951239175377 -7.832087107128409
1473 -4.375708809694288 -6.088845076214414 -0.7140109741622785
976 -2.315616688149584 4.044242901652449 -1.7635868688298117
1242 -6.476089440657618 2.5933940022852577 2.29481479941273
788 -2.56603119736346 6.013032792892559 1.3438676235201887
1442 -0.5406472579469467 1.319298035148361 0.3752100808132211
1590 1.060260165520906 -2.312163852011024 2.4045216407517347
1515 4.815350196795391 1.7755951780037806 -6.803880487064874
1564 1.0314665220973624 -1.3145146468712356 -3.0093098936273677
1257 -3.4511343557902583 -2.4384076878078305 3.046032883976183
2133 6.019796486266129 0.20381044810515858 1.8235022273617356
752 3.9912361137873327 1.758840050140555 0.9669343778697425
1063 -0.6939130834097588 1.0535063354705527 7.844440342775507
1131 2.3844709822159715 1.2772158971176204 2.866352959037234
1008 3.4956722516197107 -2.6015908667216125 -2.3080530813304403
1345 0.059879241759452924 -6.082356877239546 -2.68386735420395
944 6.876885434309623 -7.553156103363395 -2.3436025767971715
808 -1.2661289465758305 0.2617450784172214 -1.7875137209780407
2035 0.8278177316033969 -5.063076261455136 4.484787765820773
130 -4.153501252186161 8.649583210857275 -6.075056563992262
1658 0.3176390117645156 9.111974184354475 2.35234622168411
1168 -1.7340165894329407 2.174521222958419 3.284583700389603
42 0.7559754275900488 -4.969886732551727 5.683796418586108
1279 8.433877434788668 -5.780607935154138 1.3219431929708774
1623 3.0007973077535657 -0.7671502574541171 -2.947149133186987
669 -8.239251839621055 3.5514018615489604 1.2221395520268414
935 -0.49807021208463403 -4.83202858264878 0.2712467758623547
1203 1.5494426426610788 2.889152532298559 -3.4107956493189717
2147 6.777758889053167 1.9825691410277115 0.06175331927456417
635 -4.165997478015263 1.9843156175057541 -2.306934966744674
1285 3.7062913896645235 -0.55017652264881 -0.29573362028781364
139 0.0577139984287142 -3.3672187608062587 2.7316076787439676
632 4.2706789228158035 -2.7297318120614955 -0.031383385001552924
314 -1.7124367138246626 -2.4981192006882504 2.1553022069095267
877 1.4062904707344261 -0.9754240017278916 -1.8644419582664673
1236 3.113525245794203 3.994852905979545 -0.4475733797443697
2135 4.355955348969505 -0.7303938363222398 -2.572954466386474
1291 -2.257366417710484 -3.0720890053582357 0.10572398769180445
1995 -1.4937679382893299 -1.1971473575726617 -2.8141937904453216
19 -4.20878260076316 1.375946555844392 5.766487453998473
1488 -0.8760661278597275 -5.778084956010003 -3.8223340461738187
835 -4.82446198337556 2.068426795104733 -2.9714572831837684
602 -0.730263392436822 -7.280959017089208 0.7802246228999005
1092 0.730845611003517 3.463620019561466 5.504369327459161
1439 3.7600056354691946 -2.526453098634744 -2.842537006364753
676 1.34341792347842 4.220498714282118 -7.2218709571347395
1296 -1.72734447831166 3.737504165386896 0.7738310984693234
1039 -5.550532096061169 3.2594243897303947 6.703450658672493
999 -0.22089429629842616 -0.17403547721889479 -2.052976742627272
1976 0.4809762084136635 -5.3240253187583715 -3.5736938403515603
774 3.101271981311435 3.5214549952890284 2.6385128837584095
1034 -0.662218834748866 -0.7000471200142837 1.8409971101490332
1800 5.356010552370143 3.8962294141826215 2.748644806626271
1670 0.981843530014334 -2.2123158846649216 2.762574262714589
1126 -6.061702564267438 0.8905467554186359 0.8888352204581309
460 -1.2077684475720833 -0.8728846306206153 1.5892523344840102
846 -3.5626714722339146 -3.1395524818681806 2.0065116237137444
1715 -1.537755278036031 0.4515390234559712 4.714928449288591
1401 -1.396515333300345 3.488581490358406 -1.7681068294543123
508 2.207864879483033 2.9833421949564523 -0.4504104922607513
101 -3.773844890768565 -4.761123103658507 1.1127897751173912
308 -2.0278132526063177 -3.6102241477557397 2.070273645692128
634 5.872753004225837 2.5072607442644714 2.7792661989716634
758 1.4617478074969885 -1.870407338457768 -2.623761404212212
1520 -3.7923535822145924 4.4080573143705815 -11.347398790614465
708 3.534580779051566 -1.5205895989295768 12.136223993966189
1580 -1.2676415057325097 0.44042991439625767 -2.6140771819913473
162 5.005914772178315 6.137727164598697 2.090114665726223
1890 -3.4124934843818733 1.2351250353859613 -2.920908262227743
604 -3.5245366407999947 -4.2606548314097825 5.043228940887572
1903 -2.6527917320883216 -2.2664168023078908 2.146952002815707
1041 -2.8540844646369066 1.3721247691384668 -0.2584956375864848
517 2.336698614980704 -1.506557897152955 -4.048996307651107
1615 -5.956945006155806 -4.066016454401872 -0.44560313466686213
1994 -0.8374956475013073 0.6126754977712517 -0.947136302746242
354 -2.2193307642696767 1.7571377839550255 0.6718220750692326
458 0.9929388262957779 0.7918505078490513 -4.7075287110148105
2083 5.360664933060957 4.91582252471464 -1.1042998313306387
1381 -1.9667248715099097 1.2680320061533825 3.33514323149705
1462 5.553890150579371 -5.016861532570602 -9.669236957725916
1989 -2.9119170913931067 4.579388354446844 -5.811265516030891
544 1.0776179332977687 -2.0282380196907313 8.219258377063953
1508 7.108820065742306 -1.8149554594878612 -1.708756929703893
582 -5.042054471439519 -0.9423698011806645 -2.0982074586950423
1617 -1.130200235611369 -3.813320911272704 3.595628167064396
233 -5.1090297560474065 -1.891740145324335 2.6379210410581693
665 1.0460431925508593 4.4817509526992705 -6.953595359760308
1963 3.5722593351226926 -2.0175615426155753 4.346939016700733
506 -3.0651364490593935 -4.952929721962306 0.5088307470332379
770 1.3717302747852431 -0.4954312048422338 0.29630631578162847
1541 2.2953117796115805 -5.774774790507664 -0.6399657957957061
269 3.662718743592177 -4.971648762457738 -1.0384255983310162
2114 -1.1064939736076684 0.22639586538907489 2.855913121652239
329 -1.1898771959559484 3.335627469373246 -0.17787410122214617
345 0.7006959677532273 1.2244473226695236 -7.040924024429232
1247 -2.6734590379436485 -4.329416821076757 6.5430130391292645
1695 5.4494919827593264 -3.2321606343925557 -5.775808569483726
828 -7.436865753215832 3.1417577457829977 -3.351814838022147
687 -0.9845736602889975 -3.5541161422827012 1.0222624517626409
2051 3.4077587543157803 -1.4582346257757044 0.7146512527235814
1030 -3.380466521537124 9.229646795155949 1.599287165357956
447 5.801524396323177 -3.881277098681678 0.2968878165727814
1243 5.1462464106475325 -2.7402346642046713 -5.5526832001391595
459 1.858996873244328 0.6937918074562689 2.5011953268746003
234 -2.841886418313828 -0.497667460396053 -1.5882050415359894
1977 0.15912985945291058 0.20828085806941374 -1.9204509813719923
121 -5.94438835169437 -1.193972097949387 0.44228009750633934
1117 -3.701027425017886 0.12672484875281326 5.407108392442398
609 3.2757342477690887 -0.6346148202146839 6.302535109841364
803 7.485869463292075 -1.476708960001081 0.7698036106858337
330 -4.866865392798031 0.11525498372641124 -6.888126642703987
581 -1.746418875717129 3.70702188854503 2.779456020247259
1737 1.1292049933596682 0.49204154595026417 7.451766168543367
337 4.22433435235547 -1.2076222660222273 -0.29233265001181524
945 3.309027185264527 4.385684348623408 1.353662013640407
77 -2.3463524389007944 6.622362725271708 3.632692940010769
1940 -2.407983542942831 -2.4526147844244544 1.3569621468228028
1133 -0.4419454573482703 -0.5051233054196426 -2.1009152355580496
1519 -0.4185461152587986 2.0164986959729214 0.3204387596369113
723 4.143003331045208 -0.449923979970379 5.15060389057051
491 7.4562264372349745 -1.6452793929229272 2.0923486786974226
1772 0.7426264856750168 -1.9029315460746112 2.2479623113112024
1108 0.19576614271379073 -1.1090381890447933 -5.736797766637763
973 -0.13671815993679684 1.825294356739875 -0.9019060600331053
538 2.180159925610865 2.553139236427885 -8.100118223670982
890 4.970305909002569 -1.7755370039878908 3.6477992482888117
1842 6.5461205307157755 -4.470013490712427 -0.9668565503220335
98 1.7667855628760916 1.1866562892973458 -2.469431872414894
2117 0.8139021555043664 3.021421705717155 2.5795195037391294
2044 -0.6893604815716675 -1.2951737814725097 -4.400374113853038
1410 -2.5895888571913446 -5.736345131893043 5.18854999371387
1359 -0.6794931199207463 -0.5089203272363862 1.533727436456386
1364 -4.012964003440501 -1.0964809556189934 -0.37798321754089687
705 -0.030126375317018034 -5.136878590950983 -3.9080871643046637
901 0.49264576637512436 5.260192894597246 -1.602163255074357
235 0.7398729292008667 4.334445061899963 0.6094035521299874
1548 -8.4138578393788 4.65499699032847 -3.458889804102188
1881 -3.6768529467113753 2.5229512981971842 -0.05496326542992053
58 0.898485611791484 -4.8844434311762805 6.251573300759014
637 2.479727781380035 1.7717720022155448 -2.6130041376329993
801 -3.452803375960782 2.3181739803462627 4.08013355346012
1533 3.657454780708334 -2.8006473182446543 1.0474517267404608
870 -5.220292775129541 -6.165642951847565 4.578563355099454
566 4.877744786666162 4.023873196603759 0.4731864376549497
1973 0.588977860062164 -4.905667707359052 -0.2298290458130194
941 1.772391586177066 -4.83984219702684 -6.115994573948039
1314 3.8236652597878336 -0.9671286881228932 -1.8129243012654337
1624 -1.2820649549017238 -2.3358168723538353 5.970402704263542
980 -7.713750470495312 4.976899277886983 5.237509317015883
1868 0.09748966985100141 2.2356587577277383 2.993567361917594
1778 -2.4176634547359144 -0.5221621242751453 -1.2653753958234522
1323 -2.7355434107829173 -0.38268920796706185 4.4938072102449516
575 6.665453306927326 0.5200958382881253 -10.545903415308313
862 2.5590173086935186 6.698782522243803 1.8819869552707034
1934 -0.8657032143951578 1.7286778442935062 4.189418172858708
465 6.285335703689951 -0.42880014159675356 -2.2812005017240122
1135 3.6810068872415873 -2.538351084675703 -2.0003649250679345
916 1.4321353109640855 -1.492077538181791 -0.5783992985536484
914 0.40007814521936463 -2.8489302292678755 0.8971860991351693
359 1.737683861742187 -1.08080817299603 -0.4993223798085703
487 -1.8582702103894795 4.03743226015129 -3.7059634840918463
680 -8.12553363561281 -4.376003328141488 4.78991559194614
926 -0.5031149779277398 -2.53587709413133 1.9243234835571212
1175 4.930245684871006 -2.286871753396395 -3.9560034865149882
293 -1.4940090040432903 -0.7470238075699894 2.7815472522342635
1341 -3.631665430767302 -5.381189637922492 2.2823355751360888
2154 4.1529001308802265 -3.7871273849037794 0.09623064694468167
2139 2.559611188407722 -7.2052810778039404 2.398619674153369
413 5.79306771317504 -1.2271730560868332 -0.7965163313009546
1765 8.441584294846354 -4.8099701761102835 0.3557766590862596
574 -2.843117554795968 -1.809512053514843 -5.082265595531473
226 0.5938458744348522 0.8334899265993553 0.8850466244410106
824 -1.9897376058179101 2.283123514433875 3.932966858937294
1196 0.9928736006957165 -2.772446019903943 1.096778892736583
902 1.40178919811772 1.2914480095592042 0.9206408976081168
70 1.5525375020324768 -4.77313785994035 -1.5659517747990401
1358 5.821763081457561 1.7525722755452584 3.5283993790583192
2120 -5.4727560107017155 -1.1489729337405348 -1.9389880601344658
949 0.2692918079711904 4.448948307567877 5.137374239413053
1216 -7.61367142214262 6.578682030809825 2.0205598766387305
623 0.15630586383304163 -1.4166012221521838 -2.8027639076419377
1768 -1.433363760599031 1.2243713119745812 1.5062298939960959
1176 5.7051829612502605 1.0483738978427242 6.3685496508199595
24 0.7872659536197398 -1.1359653537374725 -1.4702989902608843
537 -5.267112141347017 -3.3502162208278956 3.3104479341324704
1785 4.104208983578188 -2.5187615254149898 -2.2772919027428924
1757 1.3861865504138613 -2.5934789524560173 1.213281422088739
1047 -4.070410512984635 1.2096649876743457 -2.048717951586547
2134 -0.39251984704644766 -2.2873468795105385 1.5409558564417984
1263 -2.26524230346047 -7.9138772080780955 -2.0647113075361543
394 7.1779395579116425 2.5904576964686936 -5.074760918972472
1706 0.5612501028442668 5.9832874693816605 0.9961162484679852
151 0.8563960089294789 -1.5382924328185987 4.499043788591903
1220 1.3391249662107978 0.9590579205848541 3.889968774980826
760 -3.8058589691129137 0.1764698002782452 1.9959896854094676
1014 -1.1525672218135898 -2.9946938849244225 -5.854836663790916
814 4.351102628969997 0.8765528250551168 5.682661754154621
453 4.682235669550285 -0.1747971747221056 0.8778266134674212
1669 -0.2371482520679789 2.4175964152455967 7.892432553256061
954 3.1508945448790113 0.4271573461775015 -1.8015127192955223
2091 -3.7914082323315323 -0.06637623519672699 0.2579638745245647
1688 4.498009693501442 -0.864519781675841 -3.4762219128227168
1915 -1.888141060060104 1.8527974913842475 -7.485264089917238
1053 0.27214519996155984 -2.7934810033791897 0.41983462176302627
1400 -5.458259677756176 0.0015010907574476116 -1.605895936916647
1830 3.841768697696851 4.28501781969669 -1.871648581908252
938 1.386167046285927 -3.3675560448422845 -1.5208658077516466
1147 0.5368396471066523 4.0154742793557565 0.10998650499769282
605 -0.3657267481152087 -0.44529833206440483 5.11484430958468
490 2.24990219328251 2.618829885555053 -4.572087856943505
1562 2.200442818371893 4.1051554973647075 5.176912451311472
1412 0.1835015851727588 1.7441848088888723 3.08396871010211
1415 2.320669902994761 4.539970871138383 -4.299090736089615
435 -0.5186281092521323 -3.8591933380939683 -0.1359444116561578
136 2.3246647955182707 2.136798313482488 2.3811059114758244
371 2.5392571216620112 -7.639175682099088 0.8557456590292655
375 -3.25955209321424 -0.2587419380691445 6.6086568973235265
1198 0.574253598421567 -0.7256534513795453 8.297529306522353
1109 -0.581370861524376 -0.7681736180158486 -0.6851709251011184
1531 6.411564299040804 -5.351589499131246 -4.851912800914209
1601 -2.9428788524062295 0.5394644353386422 -1.2384364054796755
829 0.2313475824941303 4.26454675719797 -0.936920929185662
761 -8.202980049182525 -4.1643384253736375 -3.4636373030318204
593 -5.356215112101225 -3.284145048177673 -1.7358843731963178
2082 1.0496797671200349 5.650733878879388 2.33074908376347
664 -2.645636079656636 -4.83202390607514 -0.1353124903817248
1759 -4.974785610421856 4.871678446366023 0.6170673574443223
821 -4.026609618464359 3.8568144186538875 -1.4326183134174248
1191 -3.6441187067690035 -2.159014579501328 3.141274983241803
509 -9.269727204346403 -2.3872898866466015 -2.47513113422847
2079 2.3588529556103497 -3.9909491558310846 3.9773499460200985
933 -0.23910590366135026 2.8367073177796143 1.936475023327425
955 5.571101172428056 -2.345876551794841 3.3722855865545998
1831 -1.1929415178887401 1.587209180074456 4.567730237712864
49 0.4815883727777323 -3.2196412046456 -0.7554155966859196
556 8.021991514466476 -0.19332608789938388 6.541724968937419
1651 -6.307132615776669 -11.558432460416789 1.692913440405905
850 -1.9669730398584575 -1.79395645875403 -3.9594137028615517
1581 -3.2891159371659575 -6.329685647062956 -0.23762529895479859
1662 1.609425334437689 0.041242688146098924 2.8319728474003827
266 1.5832970736807779 -3.0516749333581696 -0.6231611957801357
126 4.663611770254576 -3.8370480851964928 0.1362572947647118
1616 0.7534401625991052 -3.325863769395159 2.4599842554504296
1962 0.37435886060718926 -0.37696455271754087 -3.297633914287037
1525 0.15539142110952534 1.6314141657223846 4.808660063203451
478 -1.6850995096912633 -3.9946755743091757 4.397286470727662
1184 3.619920972894159 -7.300085095710102 3.6845727172895777
1927 -3.471919524597239 -4.808750432917312 -0.40033314736494424
1370 4.776337460073505 -1.4631828522970414 -0.8452181734469494
153 -0.8774997789490149 0.07470493600489908 -2.7735906467455362
1689 3.6404892055031066 -2.08390787754954 -2.3158376591802945
589 -1.8627853820136233 0.8833354301572729 3.854745186345382
1028 -4.2864647824755195 1.5393015830845742 0.8478872809513178
1777 0.013396295306212077 -4.04506186981234 -0.526525353717964
811 1.1331467782113989 0.13309367186159118 -2.4926807357185683
1613 -0.6400911102419232 11.033144804503042 3.545369655666481
494 -2.845860561760404 -2.1780812117829647 3.2546490597340796
1113 -2.0651886862303064 -1.0222985502427464 3.2189783844084023
2152 0.7619886766796463 -0.9466118933419255 -0.5353870629075982
804 5.818229418211766 -1.2457640875699714 4.220264601930926
1119 1.236738888560504 -0.6062489890392628 -3.043217549268768
1630 0.967253524345381 -0.8102204818306766 -7.818969690450127
1132 -3.016328713851493 -1.3003377040402022 -0.4709388152770625
1423 -5.009285453820537 -2.0152930592433558 -3.949306154307651
420 0.5177954091437145 0.24197084486682616 2.6040952536207174
611 5.962025369900618 -0.4933750344822174 6.582444199970712
1239 -3.1646662405387542 2.681042201439666 -2.288220337009229
389 5.785352361492354 -5.921414360991295 -0.9717323300706332
296 2.8613558805839903 -3.9030610786512003 3.1679926253511446
176 -0.33837614308285285 4.951562099629362 2.191420168838975
1253 -1.8621983662809838 -0.18591053280418188 8.648382625730955
1591 3.3680961234352518 -5.122366348672535 3.3431825644822353
925 1.557605819404193 5.634324924859933 -2.6529287787623907
1088 4.2947239414066605 0.684940799106467 -0.8399378999288162
698 0.7688464817386739 -5.466555414237388 0.26158801251152797
1385 -3.445375362620445 -2.176285041426954 -4.2305577946199255
1001 -2.380909521015239 -5.113195722332374 1.6143828358376766
1582 -6.151915249256714 -5.036401065463867 -3.458598097039678
641 2.7525033687713147 0.45596985360078723 0.4368341803299511
844 -5.615374127808074 -2.8867608667131264 0.023211053441627095
1031 -0.41157888443747026 1.3731396340347692 -4.417329183973797
836 -3.5283425787417375 6.28591800321597 2.6052991603083604
1676 -2.0328093052129064 -5.301960912724947 -3.6176346732663878
205 -0.8515165616435091 -0.12435888239984702 -3.274268158527611
1942 -6.533227957364515 0.7549352396974288 -6.781520253981524
1641 1.5776274237230716 6.534045576942683 -6.015227585851813
1349 0.7940672677013769 1.0624986494108173 -4.792404229113442
1000 -6.839126247788216 1.7499552384014825 -0.041242577226094666
597 -2.92898842746561 -6.6328934414741365 -0.7447583539948527
560 -1.2940133669453735 -3.597180917960802 4.668595734951432
988 -2.0900073009142726 2.5187041305452085 3.5917305730688738
1356 2.024180171080959 1.365691986195248 0.532818922423131
1835 -4.079666827086478 -1.5411910083916582 2.954216966709628
695 -1.4013164776212756 0.45105822150563935 5.655204403447311
554 -6.544632023832129 0.6244372776194932 -1.6102068397935387
694 0.23038330925900544 -4.571617261879775 3.543661363412684
1911 -1.8427234464260964 0.8252468316003686 4.95006389490907
1192 2.1086073323516343 -5.351732754147212 2.3913629803567535
2095 -3.8280390710738024 1.9360734856359363 -1.8577330324280115
461 -5.052579167554488 10.546545259678728 -2.4177320512728846
529 5.509162128560833 0.656582894900304 -1.0280740508472823
1542 -3.467974320626662 -1.9916719244382475 5.15454394228084
657 1.1665334009986337 7.557758383050465 -3.8765706690914055
1951 -2.409530774984608 2.906861574865053 -0.7327639897388816
1017 -0.034148156176787375 1.8354617174067032 -3.113511255888378
715 0.12152477829182409 -1.776410154529068 -2.7479829383864214
171 0.17080049550761964 -1.296841122230785 -3.3325977186712716
1098 -2.973264929716965 -0.7181512756994923 -0.8811246786660955
2118 -1.188414941374881 1.2878428124800423 -4.476984418570749
1338 -1.6383833828578658 -1.9202562271052976 -1.6282719880931087
1416 0.8931176011176724 0.9013473965474036 1.315967853732787
1693 -0.3271986972570878 -0.29379488628269923 -0.07488710713260438
990 -0.9404672147594673 -4.584470845638372 -1.1796847226942346
131 1.1451420557891385 -2.586764150473229 -7.590182595528317
1846 3.316364638931741 -3.606923756455548 -1.7001819898110762
2015 2.6041472370094874 5.722681742458479 -4.382953233093749
965 -1.2258239362640064 -1.518332112173665 0.9705680199473391
1633 -0.9933747840873941 -3.651062911557498 1.2041033802301722
816 5.1413701280103465 -3.285929144531098 -3.878344055995858
1650 0.14277696373524168 3.705089083606036 0.44346485921163853
948 4.175204919874208 -0.28666531200536494 4.307089076974674
193 -2.8353359390895694 0.3385310174650832 0.09147431479025935
191 -1.2433743393468994 6.7547169160013345 -0.23765702830523666
260 -0.5772669005976269 -1.6429792581188758 1.4700334702921878
1600 3.086402295595205 1.067662277933028 1.7514996725333944
1788 6.984659174474379 1.8506934931912395 6.863647088042494
2105 -1.6130946096267291 7.687219523520052 -1.673775987197963
951 2.1763002125718867 2.94476560836333 -0.5899447441674345
256 -4.399344641953824 1.8563055604288692 -0.6294019932244117
1555 5.441689597760073 -0.9274723372118923 -3.482189763260402
1209 0.10529430866829108 -2.9233833126505626 -0.24546679094056734
880 0.7101721059112591 -0.9758298696170783 -3.5335043062166616
438 -5.17162359192094 -3.5477108204387307 -2.9800119772433438
2017 0.6369430397196225 1.8966237658026235 -0.8068102912297346
839 -11.87238439664055 4.916930042702073 3.5096083744818736
78 -1.7267821873473812 0.8601816970224717 1.801475223835886
1316 -3.8400494939306085 8.996363080615737 -6.7665700521617795
1875 2.6549470106373247 -2.6263758286744996 2.597137837200448
1435 -1.679216798711378 -0.25009554402050754 -0.9716447462952661
1378 -5.465087240839558 0.030236629130445218 3.4461582032874367
1884 -5.213568172221666 6.511099621645128 -2.1560750959424264
1208 0.5319531940019975 8.014566072867398 5.8164863950359615
1311 -0.5990547168527832 0.31246524645894047 0.9360924356380195
318 1.2540265511227202 2.288279844281596 -3.1624406196642822
92 -3.180469856511315 -2.5226821723888655 0.1812408979700655
1523 3.5297672162166536 -2.238440630889783 4.531974756757176
805 6.6077577754450365 4.676228167680482 -0.39849840332935477
911 -5.120632426487491 3.0966835628951777 -3.3464369050306857
1969 -1.2267021468730173 -0.6892923077180699 -2.6529470091361786
1745 0.0336875413506358 -0.030114323867004328 -5.761676587332752
1164 -6.196731342989878 -3.3047293564960274 -2.635274662076982
1019 5.141329721398354 0.7216244272865946 7.9117158846130735
1716 -3.0678427447039702 -1.8247937631523992 -3.591609733558685
492 2.92493519310795 0.5482404515479696 0.02036012030194208
975 -2.7975904820367017 2.2181837453556317 0.6107272327594863
430 5.66741209341634 -0.411941866816851 -2.1625788671111486
1110 -1.384160948863527 6.372938116209018 -1.223333905691579
1128 -8.980480607395952 -6.492117244916089 1.404479872359755
1007 -0.12055857936565666 -1.93779274751785 6.66892811945963
1556 -5.808345773627765 -5.9225314861980225 6.398572938585747
1322 -4.143302395235535 0.6792596882736021 -2.2656985716798745
1297 1.393279097043236 -3.1010772294284226 -1.736050819862054
717 9.042064189943474 1.7603380258810375 1.2280385417873363
2123 3.392012408195095 3.328592809163468 3.698314147999306
1621 -0.28501367497738944 -3.7894808274911695 -0.8510682202694634
1294 -2.4418747845998574 2.2701246668625217 -8.317270735993622
124 0.12984464777933025 5.0692224834225605 1.0810477777468033
1809 -3.580028902129761 -2.191716143251559 4.280509762862328
1766 0.16826945992778775 2.1967497549218664 0.4403348203616138
2069 2.112161382498168 -3.260982316230212 -4.737632736544837
385 0.8618997370200044 -3.854782067708774 -4.044123895757629
454 0.70682872250609 -2.4992677184603855 -0.38920948911510195
2087 6.705962478635472 1.815532849784831 -0.7140244442532121
168 4.820314611809143 0.6296008235063244 -0.6579742614247501
2045 -3.0384061379595777 2.6713420858151578 -2.9423277741193523
1371 -3.2072942983000186 0.16706061738318867 1.0656803785081292
1731 0.36862275569070474 1.7607344373008005 -2.6721413450535794
1979 -1.4793791585449665 -5.82752356140275 -0.2624459871903365
1811 1.979625257041408 -7.923537992289523 0.11435494395360961
1789 -0.4951404213786572 -3.6269381197031967 2.0319436809597757
1448 1.4544885002813714 -8.329594402461208 -2.8156244323757327
1538 -1.3050816222887658 -1.642807935072586 -4.832490890865079
894 8.509048057583707 1.6037287163038623 8.348819895886601
2136 -0.4557018005214379 -3.8820462433974603 -0.8762941103247863
1672 -2.7305143315576887 3.244427888137338 -3.2828815336618433
953 0.9877163773708578 -2.2697951732056234 -8.655387331707297
1597 0.5912655183005882 6.504138010841559 -0.5495700346514815
1300 -0.7031958152244054 -2.5119861929527625 2.884498587604801
959 -5.438930106674291 -1.8569237007708723 -4.853728806058397
1770 -0.83091634629216 -2.8511816704505546 -0.48764197896164396
1397 -7.121037694662563 -0.30243172305608257 -1.8655886482046908
1071 0.1589139370585823 0.168676298518311 -0.18655118663517137
79 -1.3371494323620294 3.2053187411430812 -7.004055395426713
1350 2.882637610720426 -0.8869343920661048 8.300247829415616
853 0.7735886673713184 -1.9535449502178188 -1.1351823499449474
2156 -11.161945279976054 -3.1175518025960764 -4.836314781508222
1721 2.178522765810746 -7.6265637694926305 -1.5841689203450322
1838 -4.366142287920675 5.814231701791008 2.5482949877453795
696 1.3587654800979532 7.842512260525329 2.5331172225407914
707 -5.720103842736545 -1.8141167673459087 0.9977064389910739
790 -3.8088842748992295 4.113167540766493 -6.251441657394949
813 0.7195046523277964 -1.4152488608045999 0.5332525868625484
1155 -3.364884260503512 3.2883618649070097 1.5889901249789349
1217 -0.6460564854863629 6.765698688974364 -2.949106398170226
272 -2.6075390249335832 0.4116001967382687 -0.9451130772305808
1701 0.5722872921083563 -1.7244363974082701 -3.5852975907822513
1046 -1.0042620158761926 -0.06460469591506225 -0.7692185469580826
562 5.716428261762168 -0.27187594041229907 -3.1683624250452467
2128 1.154108479434477 7.3846782080505315 -0.27086937498913954
1493 -1.5422843791783523 -2.95357855377173 -0.39442595100888206
1599 1.2612239890607624 0.09291650265206569 -0.986008822699071
1499 1.499659957635387 -0.9322629645882364 -0.5843419149388196
1048 5.361980687392786 4.485691559922494 0.6908725648532715
1956 0.4269868754728451 2.2008225853271366 -3.5158329900865883
470 0.6986474632542152 -2.2742566696221806 -0.30244177399867705
1390 0.8028719532317556 1.8199753813267936 -3.6370112837854567
312 0.669514918686615 -5.856678589241863 -3.6095997275069918
688 1.7712703251236275 4.88359836399005 1.6054122300253788
209 -3.770005437993813 -0.8881269665199637 -2.2775994484210167
74 -2.166627784670737 -1.830175648721856 -1.6998178498724485
1750 1.5227963619739215 0.6640107353026133 3.9012353844060166
1722 -1.4668183945433388 6.399590509463706 2.595982348885874
2058 2.7865637374534833 -4.841526302907812 -0.41581217901021894
928 2.909531327975586 -3.10552152175176 -1.8424164077205905
1477 -0.45259523894830195 -4.308617889627789 0.21523069967446373
306 -4.74583824910051 -0.9686723598852677 -0.2962229888139613
896 -3.958128536399545 7.645852795836549 -4.089897611850721
1840 -1.3512936816147036 -2.3996112324216714 1.5310948201489232
1866 -5.764895898135716 -6.150588945304291 -7.046552810210466
1143 -1.6114824974927522 -2.2542279037820854 1.1771721834332427
1284 3.83420941232607 -5.193412548438048 -1.2061264678437011
1486 -8.614815960059525 -2.885563302570061 -2.3017666304598365
1375 -2.016444958925918 -0.15779892846460195 -3.7925805317244543
374 1.460300537874055 -0.9294476890727676 0.9986035419771533
1734 3.60292859258846 -5.503855622541774 0.16178368207995591
1150 0.1618597503505009 1.4119822910088784 -4.72219793647219
64 -3.828807517723797 4.096406447530051 1.2602600603920522
1293 -3.1820450628792587 -10.59420085967997 -5.996280929191764
1204 -5.105947343703907 -2.913687009474894 0.7158517093676761
1181 2.603023399664963 -2.3773429300425892 1.1686312411945043
730 0.6558255840882635 -5.417845085424995 5.374630007074485
1682 -2.6178846293555096 0.9524963915538897 -0.39639210441102374
1938 5.03912994491711 0.3423154636900791 -1.281695526898196
179 1.3735703229643577 1.0522904274128713 4.5984402987789235
756 1.3061996773472475 -2.194557870311911 5.190350262480861
1153 0.7159830895574995 -0.1797578796440854 -3.6240322158017753
1642 -2.7793032448526933 -0.7209855569329805 9.917362842396212
400 2.467554553821959 -1.8438803642052326 -3.1462026248065103
1505 -4.460895061226164 -2.2524360236080185 0.398925163735117
1232 3.8564744974970915 0.6825615182243726 1.0415501340615592
792 1.4115727729973713 2.6246934718702866 0.6761628714881281
2067 3.3246352016587415 -2.5616440315804727 0.09030682080635806
1245 -7.432647269930541 -0.6368683583931484 0.06849276557984565
1064 -6.118304519676841 0.25015371028304134 8.396556969547346
2065 1.6205473368606564 -1.97310146813242 1.7664760290083563
1829 -1.771760836213526 5.757260660793343 2.6330178125890167
1802 3.100168223940255 4.772821383918093 -1.4712113436435779
1833 -5.150812001571495 -7.988337425517098 -5.51510528871024
1780 -6.060815167633853 -0.8062570616718807 -0.235434563758186
274 1.9059268073543396 2.8541307359936923 3.510627692316352
962 1.3020690308082092 3.9434784072838913 -2.7642642998223863
127 -0.17907908111408602 5.233762525186063 0.2810734763296443
2023 2.1569456060860905 -3.469235870050765 1.7976582863667274
1383 -7.588062576124601 -3.991468761668077 -2.39240770874047
1603 4.383184644950119 3.2478510491333825 -0.04604842911305612
885 0.4218018665882381 -0.14909448036892314 2.307983053033451
1403 6.7759952593324355 -4.712266658214195 3.8144273721042277
283 1.4735939857137126 8.256024661072145 -4.8604362668173815
1286 3.249273857482759 1.9957765490995019 -4.2638375990918895
1090 0.9960975398945107 -3.9987848314276544 4.888850587240903
847 -1.0540636249017001 -2.846240660258316 2.422421631041641
1177 2.0788669733473695 -3.5752860172488807 1.4182031608567112
2043 -1.8545451529030492 0.8071691773800072 -0.15799595675153608
1411 4.947880101115093 -4.49412458082061 -4.3183730659017465
1704 -0.09387199332479008 -5.735406860403989 5.050759166054373
251 1.3490413411081836 -6.038399590641338 -1.1625248425563657
1246 -2.8126584738546008 -3.6353217167862826 -3.800583472975992
1441 1.8267953761273197 0.3898934462610114 0.3750336992143809
1288 -2.0129897183611343 -1.6687556394876024 10.568389912564614
273 7.775522157163454 4.145008412792642 2.2554848521370467
496 3.256136350082775 4.255235679568945 -4.361745204230057
1799 3.63567142229009 2.7735472186112387 2.576953741083456
1939 -4.760562274416067 -1.5843836743178052 1.9710483301625172
1112 -4.154843565254184 -0.14315614136592728 4.333304436864633
1264 3.2541935226354117 -2.4855045143245307 -0.9935340618775921
1396 1.313745578864036 2.7525800499383406 3.5654446214129565
264 3.821143848291552 -0.03845696741489143 -2.210229182970801
1739 -1.630433163689829 -2.236729039618189 -1.219360262028081
520 -4.971669591414002 4.298293368758104 -2.8060502040176014
1025 -9.255164383894238 -1.4614659273215973 -0.15204638069276977
1464 -5.532024173182094 -1.7944071385369351 5.544157401823234
1573 -2.710072802221176 -1.8793547028700364 -1.1814551545970662
1535 -7.755850353700315 -2.5379905003482657 -3.909753667203295
154 1.4429923848269333 -1.3292497613726162 -2.052022929596054
14 -4.058846951940819 -1.195334440408912 0.3125758212124558
1212 1.2240136810597742 -2.6595105488881465 -0.3105075038088835
305 3.4482611892611095 3.17425006318758 3.809768146060831
1767 3.6470558160162017 0.7268210604985541 0.009491813923266423
444 -1.3045190685503458 -4.550803124297477 3.7725607442410913
1719 4.287939574612542 1.7099028804343739 -6.374864360732881
1944 1.0795458529039557 3.5627187655842096 -8.046525485074168
1106 0.02774390389421649 -6.2322252701725755 -2.662433941125351
1775 2.285334735899751 -1.0923551779738965 -3.250584668265546
2141 1.8809035960057607 5.109632174145095 0.9163632206873668
349 -4.3422983406346445 2.17932528065063 1.3061353394995818
921 4.030645697980536 -2.3567459291064203 -9.586587852658514
2026 1.7237215178503105 -3.2236641919230347 5.468797926267472
1013 2.4210166887117013 -3.1670997877908245 8.84408062007075
620 -8.14075471000441 -0.3771536478433551 -6.1767565637176824
820 -1.2873663294032023 2.594776165314551 2.1048127204736344
1346 -8.291751292432487 4.188843390673022 4.693732253515965
67 -3.373682559840128 -3.7235135991630535 4.102302600509302
1547 -7.417538395023192 -5.691753595338057 1.5624218243418295
1861 -2.9359340031719756 4.627774124278778 -1.3137969734757018
2108 -2.9069659852182457 -0.9246320769776681 -2.954113892356457
1793 -7.766906886727541 3.56385224674176 2.9327567163529467
679 6.105987482010509 -2.9833294923815044 -6.4479888312539195
1720 0.8804254115610348 1.970676881433485 -1.5966999846242975
1160 -2.1533142966026038 -3.053746154406104 4.553739120271091
280 4.79271119679663 -0.9822512145456282 2.6192840235894765
133 -0.3301242859172356 0.7235524466276175 -2.403869058105881
324 -8.234027303594786 1.9118885046214438 -5.241056430875706
2129 2.772060234480236 2.7774008763406397 -2.2662543487683804
55 -1.530360836030589 -5.748999184278469 0.9521454712662951
1059 -0.1064396855084322 -3.774109691646436 -5.46690459583862
1270 5.6003838961737324 1.3959660799189086 6.342358922489206
1685 -3.6098646905715763 -3.1189576176220974 -2.8893809712399787
497 3.073290676157841 -1.761339817203435 2.835548779085288
1479 9.673491106490125 5.1355531250442885 5.439033610233124
2032 3.0116797810999465 0.23275394325376014 -3.4227750187203947
462 0.9779220507472944 1.7514835692458508 1.678223543650403
527 -4.104940422358841 6.5884842845122575 0.9755216912451895
569 -2.5354579152394567 3.067313308202727 3.69317953120857
573 -8.140846624398966 0.4400243616388533 -1.0468139122900268
2126 -7.315208336173917 2.3385430186307907 -2.35380669345576
968 2.134968048336292 -3.4707542829803937 0.3812642756337553
561 -0.22117506586353403 -7.767463046497456 0.12846441256675878
1004 3.171428241201285 6.615593135065459 6.467337248868244
1692 3.0524402677043474 -1.6588025913067375 0.4601733997983844
1392 -0.452092634578952 8.151795007022152 4.097212390455953
1179 -1.4776732180328331 -2.4372950270357467 -0.6167857862013784
81 -2.3178809896915498 -7.496771303629347 0.7971051762255006
12 -2.3182816180744164 2.439618887784234 -2.9567466746995685
1769 6.375679196819075 -1.3923812063743206 -3.5432650607557314
2073 -2.4926949243434344 -2.3751654043460415 -6.919581338819013
1190 -1.8539072554894365 1.0844638315941404 -2.008383579021617
32 -2.0861607670881255 2.9568848334081905 0.5970963365246739
1099 2.2239818256203154 0.019283002633847187 2.907380389676197
1227 0.34263548165710106 -0.4012392543845243 2.1301621039505685
479 4.788244295716754 5.407652575273923 -1.3486173883908912
548 -0.4095079520384983 1.469850580676679 -2.5316889707975627
1431 -0.8401039681210607 -1.3338260180803119 -4.601313166491539
129 3.404436407532951 5.220270813207658 -1.3096740703542329
108 -1.510234293180331 -0.9744864725420945 2.124014610910267
1321 -3.484768109567573 4.501955918238415 2.374759892490523
1568 3.2874979986689628 0.5086133303632543 5.943580639377184
347 -4.300984634500457 -0.9015526370429897 -3.8426707734001235
2124 5.806336905964343 -7.861773646396148 3.352079296643825
1622 6.113804209352246 1.390310915448983 -0.17590765709378134
970 6.535255065702916 -0.6040217120338831 -1.3962708276557545
181 -3.351259041082733 4.439585275609667 0.6726409649435823
2122 0.5641009462989561 0.9288350011699126 -2.6570384046363777
207 0.5569709205012235 -1.0157341963634232 -4.910667220322887
1308 3.416202492716645 6.204426744681177 -3.1956298500682836
2127 1.5256674046702527 -0.4866797611603697 -2.1987174236605154
1974 -1.7478810472183453 -1.5802071179039263 2.281635103285796
1544 2.490715680486615 -1.4022695708769066 -5.740042900569635
860 -3.6662010843080477 -2.0738349350439678 -0.6053882105161222
1474 2.62739956966263 3.939815695524668 -3.357221831970432
1298 2.831185433633367 -2.9211584858460333 -0.4828336744858676
1494 6.9828970211372985 3.22757969219819 -0.5743765275597377
2003 -4.4347175541822805 3.959796346289531 1.1698025380023644
1174 1.2977334689543412 -0.256773621858598 -7.670186153845029
1576 -0.7702357508156875 -0.4892104458708127 1.7614333176541739
833 3.29527628546791 2.8921589171672055 -2.1459954450162813
1527 -4.254186908313214 -1.389516458717184 -2.7366695378130657
1949 6.173319067703205 2.7914995925207258 -5.745441525690114
1406 2.354965455237013 4.321261388548432 -1.3356815820788677
1460 2.7010156259023512 5.425923771760918 -2.348193403997847
2103 1.3768518332163713 -0.07239510546432575 -3.5307460679750986
1546 6.423683945914103 7.6552530231092994 3.2751545474574195
224 4.067431324724484 4.698066531157718 5.231747265579972
2096 -0.7848510544071362 2.8291026534370873 -3.8326065503314393
1225 4.01371648165411 0.10095939417632492 -5.763188257558674
369 1.8994603473162521 -0.5501195790914409 0.23076694669724881
971 0.706542556959395 -5.891373094218143 -1.9116146365622293
1238 -2.3301407230779616 1.8856622094842754 -4.094888090167621
1845 -4.951043425921223 3.55120374176333 -2.694369583175991
1073 -9.08963106134554 -2.0339449233656355 -1.0019049875859736
2146 2.275398926459171 4.4228573036960395 -5.887127582997834
2039 -4.079296405707231 0.35691343212864096 3.4248232793804925
452 -4.525371384982499 -11.522508888180994 -1.465732364129801
1273 8.448494118801122 -2.896549102747653 -1.027289691190798
1747 -7.72450228829644 -0.6917753729828809 7.716144259256627
204 4.09508269175161 -2.427808881436354 1.3224452177072321
830 -1.1299635255426985 0.6882208016992162 1.3274856310954442
515 -2.163653350491243 -1.117832321574762 0.1259094006410875
1082 -3.4457995793834706 -2.278443726885999 2.142467713283481
1687 -1.4862629947892072 1.64692416447535 -6.3313078125025335
1628 3.8467441457752654 2.842014595346758 3.672350398522793
177 2.9868327872693254 -6.201423615931503 -1.654765659276282
1510 -4.182898549689828 2.51547876740811 2.676848018524112
1827 -1.5824887376449621 3.9524886916835147 -1.446720152954927
472 -2.974952431456864 -0.2672207585797277 -1.2208613442403156
1476 1.789467427637371 -7.26545288132588 5.029982919896801
1550 -4.345667454068856 2.0416077254340683 -0.6927561913049981
285 1.6160275599268057 0.25366536378930366 -2.555853257316956
718 -3.070313317895033 -5.08198511249443 -9.67485710734924
287 -4.781185322596241 4.480743219324868 -3.691536670768766
75 -2.52791048753147 -0.29303038844126506 -4.371131398274623
1614 5.704847057838317 -2.083601823307623 0.4083474391051596
1834 -4.486092968256645 2.1014198431033444 -6.315720634498786
1988 0.384704886236183 -3.1358920685754046 -2.197913631897637
557 -0.744018508944285 -0.5376638268244179 -5.589781038139236
1466 -0.09387179114451619 2.0192859608079248 3.1238953707516024
107 -0.8372866624882699 2.48409337205056 1.3617353622544912
674 1.466677395059471 1.4393543420708 -2.495621970821623
1255 1.568757649381231 -4.638019859795045 6.451518541246632
1968 1.8686955192142352 5.253771461597016 6.089315179126093
1571 1.5956805715536564 3.5256651355547555 -2.6312986603775292
736 -1.8793522806799778 -3.6692826357102013 3.4992839885308293
1943 1.2306329653774482 4.5471048992138625 -6.236146273849797
946 -12.489105107144024 -2.500159687915833 1.1199400969149615
616 -2.609638133775874 1.2869107969579319 5.600771546223016
1267 -5.265450309166334 6.723641285124317 -0.25473579218938547
1619 5.983945580119939 1.6958116245832513 7.314057934510518
936 -4.031459433644791 3.2822839910310813 -0.27017272816426774
1461 -3.866958303534846 -1.7429742784234792 1.9737592553895913
2006 -2.3823350508903065 -1.2120872826104614 0.5363691011595507
325 -0.060797477087130396 1.57494715708123 4.69701671948099
1566 3.096082389216509 -4.4425093638512205 -0.07553522917121974
1299 2.1929490158208167 -1.6906446798180192 -1.1785149293676387
2038 5.297877773243582 -1.4625860383954803 5.134697389887359
1736 8.297639707500966 -4.661690246189216 -4.979144293343629
704 1.327612765911487 -4.023341982073197 1.2541212132801185
1141 -2.7216080019656848 -5.284718815676787 6.202665560762382
1116 2.340384628499757 -3.492637225605806 -1.1913925976639208
2000 1.8819745819371094 -5.699610826227799 3.9167385016280325
445 -1.2513218368365397 3.4173155218698583 1.054224953351447
1282 1.588477517506058 2.280364434117862 0.18903122569024958
60 -1.4901940718903033 -4.256002379119873 -1.4117840695060393
1120 0.8036537816038609 -5.200231498891694 -4.194688584907393
1149 -5.780606870762974 0.4751920129562516 -0.8181416721609559
2004 -0.9976281999062497 2.9083748663144093 4.360319079049935
6 -4.362382749684641 -3.7982042832888654 3.99148708129674
1096 -1.934877976123646 -0.43724780977187555 1.1439117169532251
471 0.6618665136446908 2.6908794898310737 2.2688123942859137
1618 8.618024924734026 3.233870468281526 0.31296286003021734
1702 -2.206141180035728 4.674558225085278 3.436113377188938
2071 3.2719875265543865 6.30846476344493 -0.15540372812783612
1180 3.3263778593990563 -0.23999277930397173 4.902849818352295
307 -5.307226034275197 -2.5117979949167815 3.552283498848757
1574 -5.171400054953264 3.294885995747237 0.93310063141763
2057 4.050471008670447 -3.0591323391324607 -2.9880561106644414
114 7.240560695126015 0.6922010751232769 -8.164328148017939
2054 -3.990002624110367 -2.862997407596141 -0.8528060071867255
1320 1.7376926335843144 2.172527758570991 3.958528272772396
832 -1.4279474779210668 -0.17453554957899026 0.4926983207815434
201 -3.3056234772313657 -3.5195752473192057 7.176293712750037
1718 -0.729907811097265 -0.662348865781843 -2.044696057810547
1317 -3.647466632497935 3.0861607898320638 0.851749483140063
810 6.700626378978113 -5.217301482115771 -1.7223203482538831
1832 1.389872511406819 1.2893840840886912 1.5139502566613636
1249 4.418422566315134 3.9458248002853185 -2.2031733346674875
17 -0.10681530014461206 2.0314069921933133 0.7155614903901878
1427 -5.2319510910729 -1.5127855672505526 -8.538953804422384
1343 0.4059474610918623 1.5153412298478768 -4.442131978351232
1862 2.252232869956941 3.6809644840508136 -1.6454999767682585
1681 -2.789718140056938 -5.101347827828801 -2.646383134015641
1953 -5.360357214231927 -3.255101086481672 0.10422800580260105
480 -5.007438808824043 -5.258464255644908 1.4566035220099491
931 -3.1086383399975643 -2.884952836182497 4.0519424740105725
625 4.714652735766308 0.4565254036415493 -0.21077452392693882
1306 -7.279783838852389 0.9455744473487079 -1.9848482352025647
1612 4.262414859669546 -1.5920615570694037 -2.2848863247577356
797 3.501795925961928 0.841866679653229 -0.4617297006251922
1707 0.05098965594629162 3.450632880535338 -0.30153641292753164
1921 -4.452572614937295 2.233478055025801 0.05521894737091384
1328 -0.06925957783493014 -1.8805227225539907 10.25643254305226
1068 -0.8150639742364167 1.0663409878650416 -1.0822593470187116
339 10.114958487355194 0.15184847938071358 0.07500197760182992
1836 0.8993253723876549 -3.4910084920821762 0.7881528124615989
344 -4.747928555434299 0.12394422107473393 -4.053637740854516
1694 0.3668493140327625 -0.9375604834714264 -0.15510971870028048
822 -0.33751884704377555 -1.465027588930405 -2.2748948101699256
831 0.3817754866201968 -2.0041326535792434 -7.306132641371917
1503 1.3174711106932515 0.8900432263655799 -1.206606727791482
798 -4.654518383771046 1.668780423479627 6.0180236396014815
240 2.858060896007783 7.744849799892271 3.1137609290297696
1763 1.7632124736147252 -7.737376546692825 5.401788892724452
304 -2.6359745768965936 -1.504405448551595 2.7564010026858057
1998 3.124369682413819 1.0645694838523803 -0.08368510481787804
1930 0.42690826656805403 -5.287325238991051 -3.3773053956099863
1057 0.558740813923237 2.107419118057232 0.6488400131377652
1534 -2.4662183458125333 4.992679798266988 3.8393552141061282
82 1.4350481568096796 -3.4310100080512065 5.18308611113843
1961 -0.62250988393329 3.3359043432212254 4.318694818071363
1540 0.20613917217350627 -1.8731555474508237 1.6215957362231799
1606 -3.777774688208683 1.90828713699575 2.113705746224381
1850 5.056458494312089 0.9313421820553407 -1.2304870692108507
906 -2.8662695615442404 2.2784622855124534 4.17492517551521
241 0.9646787968704692 0.3323643617101167 2.0934712725543934
1230 3.1684584560496805 3.548518383311344 3.2704578491711582
747 2.8603857027140833 -2.7753261094635255 0.5298732185980692
1380 -0.21994908904648278 -7.593419030815388 2.8031750391919528
1631 2.0785681852913123 -6.165846334928689 -4.295347566083007
1472 -0.3667299929980639 4.496436967799807 -2.1306210477291154
1936 0.20785923862712763 -1.1447553178827934 3.6976299970400137
473 -1.7798396458054655 -0.9677420852481123 0.9362358178566573
27 -0.6125713296585003 -0.7976721218729804 -7.1665610381418166
362 -3.6954340792935247 -0.06992568128840725 -3.507232541889405
1928 5.245369734210826 3.3034060886472907 -2.505018679361826
431 5.438754248986561 11.075814157905565 -2.383058570101202
1797 -5.541870311580118 0.15460247224837434 -1.8613350309495502
1791 2.428609680802769 3.59735644954056 -5.306475541989056
550 3.4178938418227 1.3802839759355625 -2.078736198747141
1933 -2.6649189081054043 -0.3943797735857537 -1.643372360163238
175 -1.75343433956166 4.61204480607386 -3.2214259677973374
1543 -1.0489011199057643 -2.1818195233587856 2.377259503064791
576 -0.544423235000106 -0.19156542880171423 -0.12894769239170903
1405 0.7007348567774465 1.251386120898167 0.8068517543681144
583 0.28524883717531574 -3.0804815038979063 0.2625499920359173
1729 -4.09504250504875 -7.874435673291781 1.8362191969401203
360 4.687874536289415 2.535099769864348 0.8128103698455749
294 0.5796010244515712 3.19543127679486 4.665616355939186
1813 1.5798241786348683 3.8044759907309604 1.7053546482389175
762 0.8413348724575248 0.43132928384996355 2.360709648300501
2148 -0.7046957197982393 -0.887832328887856 0.548623591545566
1660 5.200170458217681 -3.6567132830661033 -1.540282647475407
983 -2.14122887600846 5.635676463033331 0.07192252272268809
683 -1.308289931956078 3.1034702440031876 -2.5283044953848037
1379 -1.768296943281602 5.030778649385483 -1.7482724953435997
1648 -1.7806047201923654 1.376937033348573 4.813528372282756
672 -1.294865076611157 2.4155931908979964 3.320271171326392
1865 -2.8221537479691743 4.124337266606657 -1.1991705828765646
626 -2.294621692061103 -0.24442860650792644 2.718622805540597
2049 -4.550002606987669 -0.07230105440808929 2.6330507587411294
987 -0.6678082200815532 5.601128552323617 1.5215843407835246
1235 7.367434909816401 4.30566970117129 -3.9328733107851654
1376 6.027721089653637 -1.7446945969191763 -0.0904055396754668
1587 1.4283780838001863 -1.1163413465929237 -4.669666081784179
1762 -6.308183978950051 -0.0426291445015106 -1.7405657763385016
710 0.9696855066587022 1.590090684100144 -4.467357096526843
1913 9.340239909408735 -1.928601614163293 -5.153667048594036
239 5.374157318895942 -2.2373611136586793 -2.1321704263317676
196 -4.478898205048196 -1.0747704329923304 -0.04844739223576242
543 2.9584736961751346 1.0913615769356841 -0.9845680886034022
1136 -5.754197593599701 3.0997502823752976 -0.024256174931322646
872 -3.780205855264499 -3.9519763531730066 1.5497588926195511
195 0.11168720445368269 -4.714867765375318 -3.8214035594315705
23 2.9251671468907023 -5.379187293396418 -4.984667173180402
1870 5.956489788900507 4.173205427186868 -0.5707157627774676
1539 -0.25128116505230236 1.6944564449434774 7.045194266475924
236 -3.26649251700433 -1.6511518794712237 -3.448160774425112
856 5.882925098534173 1.6372518800309541 -1.6390993989297942
1421 -4.102089059800387 -0.6567497827649075 4.384024821661242
380 0.18937432184722852 -2.7049537770091794 -5.387457044144907
1060 6.764547243006262 -2.9227563990620427 -1.414686956900764
1438 -4.043524965267519 1.337423192177028 1.4415989647232281
648 1.1732124313788468 1.7204607750492833 7.25643320935245
523 3.0173867558311307 -5.65767115073125 -3.3532488518405077
2011 2.825936518872861 -0.8573215368161656 5.0374003564145875
721 -0.5379404297876339 -1.0905997625615078 -5.304146141437861
1559 -8.943926767793023 1.1952954906075388 3.7712603050289153
1205 1.3630078860626926 4.328959008605836 -2.3636511533130404
1923 -2.015965375543776 -2.6615819211631533 -0.9268987027765891
215 1.0881450484160793 -1.7908971364305892 -2.389209051647302
601 -5.227351145610205 -0.6787994575975175 -6.400225890801572
1823 -2.6570454654818385 3.943223615086993 3.5790713472897884
1985 0.3000991713175355 -0.3015346783575881 0.2558294940945073
504 3.5098535906704744 2.77646662373476 7.483811241828038
1663 -10.059492273689548 3.000341880327861 2.5386228590817703
2151 3.950555872550449 0.41925148337658025 -2.761650666830568
732 0.2747149225458195 -2.4110517182299906 1.7958629156547183
806 -2.1320873361904553 -2.5704433179460526 -1.2502614576190627
1593 1.9673285678124217 1.5416584069852366 -0.040217352689465226
642 -1.950037279110669 -0.2989041404062604 2.070584134590112
1609 -5.375800958624744 -4.414071799372373 -6.104520583211009
313 -3.314830449354305 5.193008504743212 -0.8435884314508737
646 2.187150149757832 -1.5573584224194181 -0.9188524331993256
1152 -8.812091314808464 6.300415618682043 -1.943470395289257
1551 -1.0598556929606664 1.7051974551158322 -2.8416980447113027
320 6.076505806085261 -3.7996445719604255 1.8651488823345452
1873 -0.0709359979507764 4.168494953542524 -1.6970501769688628
1451 1.6530799766328161 3.2327898856674646 1.5395191631351421
7 8.984145212133551 0.10728905300778169 -6.340299909378357
1895 4.507376004332964 4.837399062326039 -4.140330362926192
1856 0.06765756108895396 2.7060141587897526 -1.5920480413872447
1634 4.419062281071805 3.7886336784474004 -0.9908502310320925
1268 -4.355916470032343 4.356606286846137 -2.9999170332889946
1905 0.6102163672852265 1.785976840035357 -1.5978789527252921
1281 -5.636815598586027 -1.7004426833778095 3.2655001695097625
1044 -1.3753029098494005 4.832399118300832 -0.45704568159230385
1045 -0.8748646120485267 0.06182580811809149 -1.0819214943198496
1680 -1.158471978978851 -1.256236104723584 -1.2952474811995072
1357 -1.8946909425030487 -0.8819187449402671 6.029387720037828
1857 -2.5740096490220994 -3.2651588026461886 5.962194229639025
809 11.60728646421878 -0.5164474850599619 0.7539645147932703
1752 -2.944246460637445 0.837545009077012 7.851516564473294
1482 -3.131286448160201 0.3117771359448358 -3.5133374841456213
1069 5.576929005343656 -0.5526990998536334 1.1460479653943685
1389 3.101514247368198 0.09326387802097576 -4.502410627514605
1922 1.5098380609582909 0.938042552432092 -2.699634674685735
1779 5.392700164624995 -3.2574480312420193 -3.777008601318191
1054 1.7422092380528016 1.8445582808208116 7.423577451947606
712 -5.935131895437293 -3.1372106002700373 2.2139961243314135
1319 -7.126264318010688 2.1221262109462278 -7.542257258609335
142 2.422853485568294 0.518959420917252 6.140534107477785
2149 -3.380958613593606 4.075360323685295 0.26086292356235125
753 -1.813599991810748 -2.688969891883362 2.220194628774088
1816 -1.2700936878974716 5.088554651267831 0.7564831222526401
1871 -1.2221014794569451 -7.656496248204503 -4.62337255238207
11 5.239058004433589 5.505834353594963 -0.04364164581813097
2031 -3.4569214030394515 -1.6359264569131544 -1.695708270962965
1122 0.9888385294132902 3.6003568337152227 -1.495107973319365
1215 -0.7116061322919953 6.630528326370036 0.8757339384833627
183 -6.297750176285746 1.3444866742429327 -3.9572773826115974
1195 0.020541469031304896 4.450572039713384 4.080171435803483
1066 4.934858061372055 -1.8667431576723728 1.5082836716272061
48 1.3591511389209845 -0.4993765444088757 -4.151426271740464
406 1.4589557931691957 -4.387983102715207 -1.3240860396094603
2159 2.3442533160703127 -2.025535885826789 -7.1135984678441995
120 -1.594623981902818 -1.612438017892575 1.265858293004855
1394 3.96765136332607 -5.65954867593649 -2.3683564434239566
1258 0.766835819709807 -5.238740048045731 -1.477186487001807
541 1.2322443052992154 -2.7069104724766104 1.5814135230955775
1605 4.379929503512203 -1.2081020265591496 -7.513498295684371
2150 1.0750512441997828 -0.959263613123326 1.5894602909085964
1365 -0.06154962256303802 -1.9207932123935982 2.55543299935061
659 3.327047702009037 3.970187942965454 -2.0095340549765965
677 -1.1522905730836257 -1.699589992779964 5.667652078116488
326 -0.7083177196564361 -0.4552893616094701 5.1290992885745075
94 6.530919486592475 -2.7101766907439835 3.519649160903545
202 -3.9539151840103948 -0.9242870708727999 5.302419990193989
1764 -0.6902702374791433 4.065876809066267 1.2138754065342103
87 -0.7567224872644239 -1.3803810714266298 1.8709715127846678
982 -1.4452509255090034 8.164396669745956 1.5236508371289759
1283 1.0791864091730914 1.7750476424868564 1.744843582789143
1728 6.100833924258685 -6.761456089386773 -3.4609225080208064
1635 -3.7976903070813006 3.2107448730346495 5.664324013988795
662 2.8531372475525685 -2.5999696097259624 -0.7397368247683965
1506 -0.9375534924819663 5.1885846984695165 0.2463257878301452
1869 -3.630844999467449 8.721969475439877 2.391432347940017
276 4.620971766144231 -0.45016968843311084 1.297210378182061
1888 -1.1049906832803307 -0.4149562398542715 -0.972449558784704
559 1.80443343801873 4.319071507461337 -3.480821363949158
558 7.771368727046998 4.100653542414179 -2.4547046878902337
217 -1.6111327551257708 -0.9566336187415784 -5.132729111783431
446 2.0327234851092792 -0.5232967833094658 -2.3101923002289024
475 -4.674199781125331 -2.9602880902409705 -1.0556218931461445
1005 2.3651975519411144 -3.3318386552183084 -5.264635160004935
1841 -1.6548829057575942 -2.7896024040562115 1.5898015291760008
1226 -5.8523513181029925 -4.979781380396665 2.7506211693464775
1278 0.9888662221500506 2.5685545411619906 0.053926292753607274
991 -2.6632465806881966 -0.32933720311842446 -1.6090150143242692
656 1.5539835151969918 -7.008545336470695 -2.202156330251443
1295 -0.8302519197076573 4.955172092761182 -10.58418218676204
1509 4.275388615531656 -3.9127418874662405 1.175895732757968
35 11.272531481598428 2.880803856607122 2.8953517699068114
2088 -7.266238642285905 3.7773055662097095 2.1777543681830642
781 -1.0406817337775582 -0.4455010667036718 5.729797442133402
1507 -4.503155973740408 1.749636748623653 -11.193131575329
1002 -3.6456258365394625 0.9077056895856139 0.06742078536646293
365 0.10403556535383111 6.631381098732178 0.20270569010897138
2137 3.4240346438033216 -4.263265121655673 2.681915786491279
370 2.5987342381236336 5.168544378205286 2.401204038247145
1889 7.927399259052432 4.7517914408964295 -2.4438209785155016
1305 4.626977313000877 -2.1729027355892154 -1.3302107151205724
2024 -1.3108575207708502 -8.176554005729903 1.9628822402712116
1744 4.9014510451990985 -0.9863607710062654 0.2878407960797336
1859 -3.695075497743395 3.2732227598307584 -8.637663816527175
1202 1.2343150721219547 6.112443807116319 -5.115473628695886
18 2.613095333043202 -4.484063922016797 -4.543062788298862
754 4.967460322776039 -1.1992384241647676 3.2871918669153977
1843 1.0006022829459549 -4.53365344887861 5.971633408170166
50 -4.480281634139421 -1.4799779596322258 -1.6695704771960527
89 -1.2865116154667897 1.309862978069495 -5.101585569570466
1795 -2.8404639609718787 -6.430436913015897 -3.8264053438870733
41 2.772526889212106 9.515967090575366 -3.261856006797398
689 0.3538601298581409 7.429845081763128 -1.6324091706269532
1972 -0.5570008493040223 2.3535881291754714 1.5031588789431731
1782 7.046220208718338 -2.741286391814128 5.143032812606327
1864 -0.019054756592684283 -2.1647420479662496 5.6685244704430815
1497 4.325752721545506 -0.32697066057688423 -2.4304486630484883
2018 2.965282795663385 -1.106407281253853 -2.3184826723255307
510 7.252450931165744 -0.6310081471872392 2.7193858517459897
1738 3.9354098547823297 -1.1752481908898684 0.17214010063657958
333 -1.637941896678278 6.763747122741506 -1.7361579960658915
1815 2.660270091562456 5.201202535224624 3.757558633873014
1498 -0.08818575635738778 -5.639629909368235 -6.234317296685315
1740 3.4104116719372617 -2.685398192499648 -1.1345521817987148
377 -5.153092513981265 -0.03677885709707487 0.8038923231783788
206 1.283219225877703 2.201314166407481 7.336732489644737
1819 -6.188013046321258 1.6166892541978746 -6.009617656108513
1475 -1.6692319651160252 7.513929727059749 1.5033277694836324
1504 -2.0839729349322678 -2.920301924115164 4.3495897256446225
392 -0.4022683732923104 -1.3553911601303408 1.0846488632484121
630 -1.9733056140266214 2.33684420507517 -4.270207294406805
1024 -1.2240945120962614 -1.5552188412427956 2.4846287471783848
1471 3.515710629309238 -2.050102076616938 2.646625410359297
1032 -2.82615398376218 4.607560020498095 -3.7033630661873445
1910 -1.1437395991902455 -2.1717288313265346 3.567911469781258
1723 -5.038478203777271 0.8950395039201344 -0.9768104686713994
1348 -0.5662160646695429 1.9921700799735778 0.005909383886012003
1880 9.119377791028919 -1.2090740528516295 -5.718543815326295
668 -5.737834618544737 1.8735181745545701 -0.7157107891118444
1883 2.477642764596608 -6.0716752236168885 -2.428563307861229
1137 -0.8544355986374421 3.94038192878374 0.5621200727649227
1447 3.6617543544322593 1.2221441858405069 -3.6399432006212633
484 0.19820164405915963 -5.803924695068578 5.992283339878765
563 1.3308617330818682 -0.7747721255278706 1.0196868447783833
106 -3.403290107109521 1.372967439141647 4.234810730812509
1522 2.87080124563876 1.1649762955435048 1.74916150157655
361 -3.171048071989745 -5.003265345718228 1.6084787837675267
46 -2.830461663025083 -6.56480171402551 6.720459697599162
1992 4.530099754644423 1.4203606761182002 -5.076846603163991
99 -3.2099600223548577 -0.9129997356024346 1.9251616058139545
598 -0.9571312354233156 -7.630123283262588 -1.7983186467309182
1673 -5.126363356243493 -0.27779909006165937 -3.819395692735146
963 -2.271989585642063 -6.613135571030072 -0.8063745202289144
1450 1.9328478841737906 1.29516791398458 1.7779841296944419
1822 1.6137390714718927 3.998020512556863 1.743492767297252
1655 -1.9104279272953395 -4.240507454065877 -1.3202464778947887
1399 -0.7881513801996498 3.5573581652516744 -2.2683122452688083
840 -3.5231980761497894 7.9898902916800845 3.698483864525141
2 6.10285493630289 -1.72541737284891 0.10809270181268044
974 4.223283023264847 -0.4519721933037593 -0.8700966653026214
636 -1.4520853032946013 5.514011954467964 8.629539483654575
1818 3.8693678039865516 -1.073187786162491 1.2299085845760107
1955 2.5797936669269816 3.062205803856994 -1.3314635946248596
1395 -1.5158982047316545 -3.21645810414974 -4.175336268815178
1440 5.845447686326249 -5.842340379780619 9.311614636384814
2068 3.2614726095493687 0.2688141713234972 3.000777915920483
740 3.167977228262183 3.6210611587321337 1.558403594940504
1588 0.9110756768446384 -1.7432070932511983 2.7412272618581195
993 6.087480755712688 -9.184736235301383 -3.1608585884468288
1886 2.154426943068963 -0.0031875340920795615 0.8749564545429148
1917 4.464612945932904 -0.3908472913719222 -5.4378148942386195
43 4.85859085719015 -6.525483932013496 2.837730250910511
964 -3.3362783809284258 3.183330089199142 0.7974209458788819
920 -0.3753282452298484 4.869492550540465 -7.37195432389045
93 1.1610241101176604 1.3970304404626976 -0.7211207118170402
464 -7.0054376361218695 2.9495677883678915 -2.3272148164068582
2101 -4.782065853635848 2.74824191684358 -2.8404665526885764
2107 -3.934297647862039 -5.154382875871931 3.744308833719897
854 2.4334722924402405 2.0786492786677098 -4.8551159563189605
439 6.717393769152997 1.0725351581818163 2.039720716182522
62 -2.158763198555691 -4.673078923564558 0.7237619378097021
1980 -1.4800007833799487 -0.284565150574834 -4.021949518774578
1036 -2.2556567205189264 -1.4139736401605403 2.488245939231755
1006 3.0621493037647163 -1.0748324052197478 -1.8231987134601815
1335 3.0718112615643896 -3.2569604517951762 4.240395914878396
1891 -0.21322120843896014 -4.002333829031205 -0.18533513905309928
924 6.543756448733365 4.809866856028667 3.9125812275911027
2081 0.7620585865932142 2.9256282914158582 7.725660883283536
587 5.899430063327842 2.3915643739688948 -3.365406884142713
212 -1.4874508646297449 -5.314646783106063 -2.1693877331927154
1484 -5.529334755442698 4.9690276782869685 -7.165111779966044
2140 -0.0673752122354363 -2.6829966956602336 -0.06645511272698851
1557 -1.7107278279133447 3.2767856528101507 1.3452296691508032
178 2.2836271022985053 -7.090595709050009 0.5503316583346364
1947 -3.0380798774033795 0.5995182362871669 0.9419090409292705
772 -0.5003372457711444 -0.925128941549737 1.9616009349171668
514 4.086126919292926 -1.334629725952072 2.9392743182220062
367 2.0077350731934933 2.8436621371191304 2.946517410868436
2025 -5.01314181476972 -0.48971840312540604 2.553547715723796
1709 -0.4820347204441536 -4.685698787421353 1.3376366835562103
1129 -4.133051462837448 -0.5599639982876525 -3.741195368205465
513 3.297389214538377 4.222599966293921 0.7618168673988497
244 2.25102404174162 -0.13099246516034965 1.2110745264934355
332 -5.042361729113893 0.7230190907112586 -2.4904715672036186
932 0.8629445061849517 0.05670599292766153 -2.3892326295945474
97 -2.26696443715855 -0.002690824859263904 1.9302489642049103
1817 -1.4731004193092234 3.8447582717910853 -0.4062420469518013
2112 3.7972305615876536 -6.2888004870070935 -1.7199766683450144
1801 -1.6576876147773603 1.1410942568624893 0.062269940338909716
246 -1.0177382089724012 4.414462477214008 -2.5866973477225104
1384 4.192956006401189 0.7128309910785501 3.3497915085595467
1920 -5.8143485336644405 2.6460510847603933 1.1197358784006708
2109 -7.417253532022885 -4.08944449592179 -3.559656583705673
570 2.198188563926843 -1.1216113135024524 -2.59051571434017
1513 1.7745551322801523 -0.3848018274772741 -3.3031353074026395
893 6.408336462705422 3.5009734573762303 1.458032510446848
1874 -5.870395292129698 0.3851385544882873 -0.22595822002623034
1428 3.0152719927065803 7.307817252458921 -2.1845322161517586
726 2.3629706382204314 -2.506019285670705 -2.0582397216142154
1552 0.7232716275650787 2.110672767664582 4.410809496826037
1367 -6.146192407916057 -1.2298499122472963 -6.051113436970251
258 0.3568231470017101 -2.686410297797441 3.620194131240367
1708 1.1950350987852385 -2.229246151965179 -2.2856385112490756
455 -2.4723611142468314 9.183285224038217 -0.7441854159692729
1553 -0.13051843159700222 3.321961903657404 -4.450536261541871
757 0.35613799564616877 0.8086293647867808 4.441088850838167
692 -5.32334951611015 -2.5212242440121573 -8.203595763965096
600 6.63497041674018 4.485869774663773 -1.294078324448036
837 -6.377659283292914 6.206332746355264 -0.24170062660817845
1958 -2.5134310249023257 -6.680587451430026 3.048043813282699
419 1.8455859161290136 -1.597124036685168 -5.6915607048166175
335 -1.4311034563535323 6.940605026616361 -0.9590974779741417
1496 -0.38692540049564766 2.8243282359985473 -1.5516442250857114
913 -3.484871081986956 0.36610996824574293 -4.729280461692636
59 -4.099462941329202 5.105012083447193 -0.2197774063727195
56 -4.1569585606719786 1.7439850817195695 0.5892540982330414
1585 0.2982106405621002 -2.746820629734003 3.1998462417783844
1459 6.079455206281266 -0.6301156667044098 -2.248791742141527
149 -4.118643350815061 4.168734548830605 0.34053233972980274
2056 -3.2830281044228613 -0.6826278016260209 -1.2121943688650243
84 4.821479925803309 -0.7943175199470798 4.326787595526547
137 9.411819770492018 -9.184341172309397 5.207182942736388
426 2.6821946368919836 9.512206649701115 0.11611548585433401
1287 -5.999473176124534 5.109463276642447 -1.9894844098930005
1241 -5.496503516736831 2.78252356243631 2.310454050053012
1091 -1.31871534741429 -3.891201687345073 -0.10291927457893395
216 1.4708447479577984 1.3031279105467757 -4.484267386069247
328 3.075475451693787 3.129969262194768 3.9833039286297742
1844 -0.10392479101995278 0.557274335046411 -6.099541121730256
85 0.7188754362391258 9.10185330399814 -0.4581698074049472
825 -2.3199261071721606 1.1642760103502958 -1.8805183341161766
2074 -1.4177979003208665 -3.3772358769788 -7.472277282104622
364 -0.807873709300194 -1.83083582382245 -0.25881709979170875
493 0.2675410725440732 1.7534107829619567 -0.7372126568434584
36 -0.676364173342328 -1.869911002590524 2.3134245993718277
697 1.4595930415877845 5.81064113754689 3.4051363787783235
684 -0.9798195533073862 3.4533218248839233 -7.120253957166014
863 5.006625983615195 -3.330675454546572 -3.970686615758119
463 0.7382511082675889 -1.4821878302707745 1.4436128314689107
1418 -0.9440309194541758 0.7223836196997263 -1.6998011613326323
147 1.9527661303007646 1.0804945908697818 -1.8732330305412077
851 6.271202027345486 -0.30188187825912055 4.640600333528868
1711 8.526184069481605 7.572680065712261 -2.7702839138844304
357 2.9055088810148515 -7.308514832159392 2.1070600493142195
13 -1.5052373327110449 0.33704179776776916 1.4025298751545163
553 -1.1455156722527366 -3.760836122597308 -3.5599952014845355
450 3.0518488678207087 -1.1995802768353185 1.4554089707163518
164 -0.9602501746051433 -6.649916275192596 -1.33911996214873
292 2.1741314747762974 -3.2478337394809027 3.372515152808283
407 0.7311440579669543 2.229133491573475 -5.326413179631229
2040 8.884820890247497 -5.90457368589115 2.849765027361483
1020 -3.406350183723269 6.061686874568475 1.398432359529794
584 3.965906404312815 3.72649619227592 -0.879535939851759
1103 0.6504533341061904 3.7565973527864607 2.870064585465732
1072 -1.8512276880171252 5.696588494310478 -1.9608247225396065
534 1.95638574008243 4.088296516758599 4.315128754281451
525 -0.5206867725681265 8.590500811308381 2.2135610265889
889 7.696041420352295 -0.2750112351588311 -2.6960139519161377
1908 -4.415514580096969 3.2355259871101576 3.4968262342329703
31 4.073817813755312 -4.2916848462698045 -1.4382690409633965
427 -1.5204194788101342 -4.329269669292474 -4.681082758114419
2116 -7.322075072805496 3.2720528433827836 1.652552690748086
1964 -4.476528644499922 -9.368608742339111 0.22244255948430475
995 3.674742200950451 -5.244217943756816 -3.1159581739546063
134 4.627076245456536 1.8440673041999436 4.543677450406053
95 -3.503907386000585 -5.239158165119328 6.196062472775328
879 -4.998740809630856 -0.44838301851421253 -3.072272267091472
1982 -1.8272376324212851 0.2251426468692363 -1.9379020565233274
1572 -6.497198692717402 -1.3554378739984005 -3.557506519546735
1169 0.5893256757930045 -2.585610554332522 -0.23524634479281953
213 -6.031317311571379 0.31498790275903177 -2.325737365829946
1549 4.538527854442294 -5.230731218271591 2.428435918349415
1906 0.4441906520719234 5.767832823154688 -7.522217900053768
1140 -2.0245542520350996 2.895123248336575 3.095975992540468
1696 0.9298011461164699 -2.149799710351911 -2.1454642796386705
1189 -1.6948341636669304 -2.8779046297562774 -0.6318204196126098
1487 -2.9023328795769108 -1.1657629668273939 -0.29957265166143715
1469 5.61718147151732 6.112691223155014 4.034703021411855
2052 -1.290704376565574 -4.071576446221358 -7.120402643492911
1373 0.4073868968295291 -1.9091263895599082 7.2436898216396495
1277 3.891555167249141 -3.1284766848859253 -4.435534924463806
289 1.5286222269136376 -0.3787136978620478 -1.8959061586239427
1712 -4.277874700719568 -0.6858342607087098 0.9375921855459618
724 1.0192858543704901 7.092820705087579 2.1861107401610265
1171 5.5014182651309325 3.694488042434083 -5.578861350012197
1640 -1.1352073287433353 -6.3898201380933575 -0.7041410971935239
1804 4.206406954065621 -0.09058966643369605 2.724620009750065
1907 1.0835161542697698 -6.909176690819422 -0.025147193208705287
1960 -6.773371766297458 3.5794387114889847 -0.514976258798929
501 8.639832047423926 4.92827625938226 0.598506175625241
40 2.7196788893375032 3.8368303356967326 2.0899069308121114
1595 -7.2086915539414935 -2.0445793607606646 -2.9366704965624577
336 -0.6660071395687969 -0.27429539311305773 5.06728551492745
1457 0.24486205340722286 -1.0364464636809911 -1.2462404713604183
861 -5.069182584197109 -2.6766074436977005 -2.8624354307831936
685 2.694876855477726 0.23445578423642363 -0.36569159139751006
1899 0.8295610012438802 1.616263554531249 2.739428557528712
288 1.0139932590154457 5.330751645841633 3.0347297949399654
1671 2.4418750881662663 1.0356645483719706 -5.328035425766573
1879 -0.47705187412214994 -5.249299456912324 -0.1834156136125496
1900 4.144804303675691 -2.0916405710967916 -1.307549741993586
1826 2.3973593969319356 -1.5134454098406647 3.8949836984500097
934 -7.855114795395511 -4.807892124824575 -6.222455871775309
1965 2.3914464384461125 -1.6919286074463695 -2.551008876113224
1638 5.836234592906868 -4.409884069527561 -5.127893370357227
826 -3.972917124598759 3.3541346941187533 -3.8773791850685586
34 -4.339252947198459 3.0016137135659724 5.88851004200845
2055 1.4796380751457052 0.1780844586110519 -3.4727630454170955
1425 3.2615838369206682 3.2100266666130235 0.10222888763856232
2007 -4.762091275302845 0.09740592418136712 -0.7048679847735844
1643 0.5581614285964139 5.278300810364927 -4.817155683344952
681 1.063534284433304 1.2214475386062664 -5.38982943083297
66 4.316025275137172 -6.265033283514886 -0.019099776328886472
1219 1.1305107932835952 -1.9284312468555667 -2.7224088262947093
1333 0.828845634065279 -3.937705279592832 -3.4097908434217468
105 2.774873872871707 0.028141576510353785 -6.249026325173701
1901 -4.9749735833122415 -0.9515675553081894 2.0689831312061413
1885 0.42458808421224503 -3.4859114908154867 -0.04801869926273113
742 -4.760813275339865 -2.443199314395302 0.02030752357845667
1491 2.108146501406933 -1.451494828605847 4.767180468307706
622 -2.9047865938880624 4.984834212948164 -0.07190299518478681
71 -3.166325252280549 -1.391119215098775 -3.149543852518223
182 3.8221098352322764 5.680446499720129 -0.620658473545854
1975 -0.9630277223475037 2.935953601609578 0.22227393382236016
1087 6.541206118381734 1.5404802848409807 5.513665630144811
1402 -2.1492156977603036 1.206269004431888 -0.10912481415857833
1201 3.6890647655376005 2.872075548993291 -0.7187424552303565
1710 -0.9680908837966931 9.238280310038448 -2.0932638072499206
1194 -5.394489114902466 -2.849401049418411 3.3430113807816664
1058 -3.4973445771346903 0.2648957910137389 4.99410759918
1781 1.6966092225675509 0.4165647528423216 -2.1324430295000814
1855 -4.740689551340289 -4.429228497077743 -4.16150180471921
1741 3.0938962722020347 3.359854092655786 -2.624720891173137
1485 0.7707669514087276 5.530600013683905 -2.9901718358695044
1627 -6.319322760811671 -2.427705653139558 -3.165578053638505
1620 1.844445918203833 -0.3109762608916929 2.6955164260275706
1536 2.6419137263639576 -6.6543533047072705 0.8880353442188696
1517 8.547139928452454 3.519372396488395 5.748657169731702
25 1.7593932570800341 1.992690108468942 -1.6784145601936702
1419 -5.80981579186659 0.8520133614930354 -0.8289448513368132
608 -6.4402807439018614 -7.685656767676568 -3.2576496279027563
297 -0.8593285854282495 -4.453808257462819 -7.528739714813949
323 -4.059651561244812 0.17235091050194332 -1.9356085795610607
356 0.6085824170276558 -0.02346577241513691 0.8883105966496375
867 1.6405448669352722 0.47153030044764516 0.9558573504518509
358 -1.9897449856812977 -2.7896056343340088 -3.4854322834998306
547 -3.13252066611143 0.8563254915607732 0.47512347457155074
1010 -0.00958627845277959 2.6190134534136114 -0.5357666954851225
2064 -2.013994801065106 -3.4248816026975524 0.2180540304633411
242 -1.4803679324622017 0.1066590728210543 -0.07182341353406618
2060 5.387372779832347 -3.238514792199137 2.1477667904669526
1677 -3.2565443169066106 -4.202689003228595 -2.8242627004706287
746 -4.811605473348232 1.4278394361827105 -2.369835788685399
2047 1.9675553970060131 -1.2503061264635769 -1.1887190046920901
779 1.0263932416799117 -3.2405506720715334 0.7626769635974445
1111 -2.328708093414846 4.458968072677742 -5.604906795542441
172 -0.40744100126985705 2.36186629857162 3.558359732842517
738 -0.8038648741318273 5.289664550288143 0.2478110629153419
72 1.871427343107596 -0.6725149186375584 -7.3569892072254675
1742 -0.35303888705072145 0.19040928798408266 0.21392319521965203
1914 -3.6698917307408077 1.2237090527522276 -2.2609802484734667
442 6.405010020172934 -0.19632430479162719 -2.075407939973576
1854 -7.781327099649164 3.8832745866259444 -1.0621584152887302
530 0.8781647159450635 -2.9007939297347045 -3.9905601515999343
823 0.4783121260029706 -3.7501793673250483 5.277921805252121
255 -2.8290940983208412 1.0171882200368172 -0.44827765087000526
2132 -4.757427896197882 -5.2240022192085025 -1.9359115227813275
957 -13.527816055866765 1.80050603149063 1.4872025224803327
197 0.07560399385216549 -1.5624958011342966 -4.873908212404322
2142 3.0659145794266296 -2.0651827558211338 1.5326573786459379
26 -3.869918205644888 0.9387780973955622 0.21215739016569482
2077 -5.662742488708944 -1.7455225682095257 1.539780788451791
512 -5.14954373885815 -7.7241325949719455 -5.463117681368792
1252 -5.004747706992734 2.535206175067673 6.2665550044217735
250 0.9624742637185215 -6.070521325793268 -0.43057148419489083
1776 -2.2662189389585388 -1.117960168888987 -7.2260610822583535
1644 -4.7918165304744464 -7.421971684342669 1.723743197544257
1957 1.4822943802887645 6.349407893493365 -1.8527645311930527
1224 -3.1178160500977965 3.546332342805442 0.8001661536754373
2084 0.6992552804594614 1.0314849252266303 3.623571595819936
1598 -0.8483727643815806 -5.237998784673349 -3.1183590118548237
791 2.4278144497227805 1.0673267972868878 -1.0569376656958647
165 2.8539098193652266 3.9064156676712667 -5.952745563840743
1086 -3.2560479567152028 -8.764694712223223 0.416532700072991
793 -0.6499646836176232 -0.9256088882026428 -1.401346369962019
526 -2.9345854625079353 -0.03793435771390717 -4.832946453437323
110 1.2267460921478084 3.3056270096079943 -0.13717985047666842
311 -5.200414006272885 -4.600479438740752 -6.289444970426937
303 -0.9105570108221465 4.676193338792272 -1.7570959811159597
2012 3.8709905581113806 -3.642932816012155 1.974443520561611
979 -0.27498893818636055 -2.696710384089799 2.048595770002025
387 -5.529005673274846 2.703398676881256 2.9305172803367885
1679 3.892851835892392 -3.653383500899173 -0.2069195290448095
1463 0.6434554071987261 -3.098693844393784 -6.702782199727533
2027 -3.081919424272086 1.77570573944314 -2.6396730600374223
1902 -1.5334936493773286 -1.7435037976200474 4.991705742278951
768 1.243988065344368 7.452327976411007 -1.4282882040822273
417 -1.5336363069513566 -4.749769458679897 -0.4157537777854812
519 1.69283256302741 0.772723470593124 2.956214235963961
1042 0.930552356706901 4.433344749052291 4.165141962342323
796 4.775352387875712 -1.585912819533383 -1.559472722482683
411 0.11619945139794924 -5.51604745531924 -4.79772035658236
739 1.3804397786482148 -5.742063759674945 -1.0171982540871314
2085 0.7419193888234566 -0.6909751824456798 2.4276301068022734
1114 2.682506595664695 0.6371478257649831 -0.4561134051274953
184 -3.1735212455101474 -0.26908366862236077 -6.2311844437970425
1361 -4.740212525820581 -5.238660602398411 -3.4851955749717685
1993 -0.6382548382134179 -0.14321469867838404 -1.2703267837331802
1307 1.6301455165162122 -2.986967347226721 3.618683160788307
338 1.6742931723306516 3.4140221287118844 0.877436764561377
895 0.22147428060400587 3.9567783541901598 -2.0933169922606862
