nohup: ignoring input
LAMMPS (2 Aug 2023 - Update 3)
  using 6 OpenMP thread(s) per MPI task
Reading data file ...
  orthogonal box = (-0.13095199 -0.13140962 -0.15165528) to (30.269865 30.375648 35.055481)
  1 by 1 by 1 MPI processor grid
  reading atoms ...
  2160 atoms
  reading velocities ...
  2160 velocities
  read_data CPU = 0.021 seconds
=========== EQUIL 2 ps ===========
Generated 0 of 1 mixed pair_coeff terms from geometric mixing rule
Neighbor list info ...
  update: every = 1 steps, delay = 0 steps, check = yes
  max neighbors/atom: 2000, page size: 100000
  master list distance cutoff = 5.5
  ghost atom cutoff = 9
  binsize = 2.75, bins = 12 12 13
  2 neighbor lists, perpetual/occasional/extra = 1 1 0
  (1) pair e3gnn, perpetual
      attributes: full, newton on
      pair build: full/bin/atomonly
      stencil: full/bin/3d
      bin: standard
  (2) compute rdf, occasional
      attributes: half, newton on, cut 9
      pair build: half/bin/atomonly/newton
      stencil: half/bin/3d
      bin: standard
Setting up Verlet run ...
  Unit style    : metal
  Current step  : 0
  Time step     : 0.001
Per MPI rank memory allocation (min/avg/max) = 11.24 | 11.24 | 11.24 Mbytes
   Step          Temp          PotEng         v_epa          Press          Volume        Density       c_myMSD[4]  
         0   300           -16959.035     -7.851405      -915.73633      32652.488      2.2000182      0            
       100   148.17034     -16909.722     -7.8285752     -3786.409       32652.488      2.2000182      0.022707287  
       200   181.71154     -16907.765     -7.8276688     -3411.9913      32652.488      2.2000182      0.023216488  
       300   200.51305     -16899.465     -7.8238265     -3027.8238      32652.488      2.2000182      0.023797449  
       400   234.96452     -16894.273     -7.8214225     -2628.003       32652.488      2.2000182      0.024152354  
       500   258.15622     -16885.693     -7.8174506     -2885.8945      32652.488      2.2000182      0.028511596  
       600   278.89563     -16877.399     -7.8136106     -1064.5958      32652.488      2.2000182      0.032234854  
       700   309.18437     -16874.74      -7.8123798     -3678.739       32652.488      2.2000182      0.03763434   
       800   317.17298     -16871.093     -7.810691      -336.88173      32652.488      2.2000182      0.037252723  
       900   316.02308     -16872.894     -7.811525      -848.93427      32652.488      2.2000182      0.035122135  
      1000   302.78959     -16876.445     -7.8131689     -3125.5121      32652.488      2.2000182      0.03270897   
      1100   287.11063     -16876.954     -7.8134044     -2934.6553      32652.488      2.2000182      0.032042775  
      1200   292.27519     -16877.68      -7.8137406     -4777.5412      32652.488      2.2000182      0.030974995  
      1300   300.77333     -16875.171     -7.8125793     -1243.6444      32652.488      2.2000182      0.032086257  
      1400   305.72198     -16871.944     -7.8110852     -2761.1516      32652.488      2.2000182      0.034452946  
      1500   308.52811     -16871.879     -7.8110551     -2741.6079      32652.488      2.2000182      0.032123211  
      1600   301.13554     -16874.05      -7.8120601     -2681.909       32652.488      2.2000182      0.033031903  
      1700   287.68155     -16874.897     -7.8124525     -1301.7594      32652.488      2.2000182      0.03541084   
      1800   298.24891     -16878.426     -7.8140861     -3747.641       32652.488      2.2000182      0.033500332  
      1900   297.06315     -16875.21      -7.8125974     -1746.8093      32652.488      2.2000182      0.035629846  
      2000   305.45342     -16873.52      -7.8118148     -3522.7556      32652.488      2.2000182      0.035787783  
Loop time of 3988.79 on 6 procs for 2000 steps with 2160 atoms

Performance: 0.043 ns/day, 553.999 hours/ns, 0.501 timesteps/s, 1.083 katom-step/s
479.9% CPU use with 1 MPI tasks x 6 OpenMP threads

MPI task timing breakdown:
Section |  min time  |  avg time  |  max time  |%varavg| %total
---------------------------------------------------------------
Pair    | 3988.5     | 3988.5     | 3988.5     |   0.0 | 99.99
Neigh   | 0.12695    | 0.12695    | 0.12695    |   0.0 |  0.00
Comm    | 0.069287   | 0.069287   | 0.069287   |   0.0 |  0.00
Output  | 0.0012106  | 0.0012106  | 0.0012106  |   0.0 |  0.00
Modify  | 0.065187   | 0.065187   | 0.065187   |   0.0 |  0.00
Other   |            | 0.02071    |            |       |  0.00

Nlocal:           2160 ave        2160 max        2160 min
Histogram: 1 0 0 0 0 0 0 0 0 0
Nghost:           6210 ave        6210 max        6210 min
Histogram: 1 0 0 0 0 0 0 0 0 0
Neighs:              0 ave           0 max           0 min
Histogram: 1 0 0 0 0 0 0 0 0 0
FullNghs:       100740 ave      100740 max      100740 min
Histogram: 1 0 0 0 0 0 0 0 0 0

Total # of neighbors = 100740
Ave neighs/atom = 46.638889
Neighbor list builds = 41
Dangerous builds = 0
System init for write_data ...
Generated 0 of 1 mixed pair_coeff terms from geometric mixing rule
=========== PROD 3 ps (RDF) ===========
Generated 0 of 1 mixed pair_coeff terms from geometric mixing rule
Setting up Verlet run ...
  Unit style    : metal
  Current step  : 0
  Time step     : 0.001
Per MPI rank memory allocation (min/avg/max) = 11.24 | 11.24 | 11.24 Mbytes
   Step          Temp          PotEng         v_epa          Press          Volume        Density       c_myMSD[4]  
         0   305.45342     -16873.52      -7.8118148     -3522.7548      32652.488      2.2000182      0.035787783  
       100   306.25001     -16872.112     -7.8111629     -2686.5029      32652.488      2.2000182      0.034845101  
       200   308.4291      -16875.116     -7.8125539     -2248.0723      32652.488      2.2000182      0.035555918  
       300   287.79058     -16873.083     -7.8116125     -3736.3285      32652.488      2.2000182      0.035409394  
       400   297.31911     -16877.366     -7.8135955     -3555.7898      32652.488      2.2000182      0.032571594  
       500   294.65437     -16875.676     -7.8128127     -2561.121       32652.488      2.2000182      0.034730502  
       600   299.9111      -16873.491     -7.8118013     -2255.1871      32652.488      2.2000182      0.032358523  
       700   311.50403     -16874.48      -7.8122592     -2484.6881      32652.488      2.2000182      0.032560102  
       800   308.63772     -16874.67      -7.812347      -3957.8614      32652.488      2.2000182      0.03346953   
       900   297.39372     -16874.39      -7.8122178     -3294.5508      32652.488      2.2000182      0.03281216   
      1000   299.32456     -16877.197     -7.8135172     -3447.6525      32652.488      2.2000182      0.031235343  
      1100   293.3672      -16875.935     -7.812933      -3312.099       32652.488      2.2000182      0.037158444  
      1200   295.41966     -16873.835     -7.8119607     -1889.041       32652.488      2.2000182      0.040762731  
      1300   311.05798     -16874.981     -7.812491      -2356.3267      32652.488      2.2000182      0.042330935  
      1400   306.8445      -16873.488     -7.8117999     -2647.3861      32652.488      2.2000182      0.04429519   
      1500   298.78147     -16873.818     -7.8119529     -860.69019      32652.488      2.2000182      0.044181156  
      1600   296.16522     -16875.724     -7.812835      -4063.4144      32652.488      2.2000182      0.042584829  
      1700   296.15186     -16876.289     -7.8130969     -5903.2668      32652.488      2.2000182      0.041242218  
      1800   297.49275     -16875.163     -7.8125755     -2163.6171      32652.488      2.2000182      0.041790845  
      1900   301.96943     -16873.948     -7.812013      -2800.8501      32652.488      2.2000182      0.040630546  
      2000   302.14912     -16873.1       -7.8116203     -4160.7436      32652.488      2.2000182      0.042952987  
      2100   301.53044     -16873.677     -7.8118876     -2726.4475      32652.488      2.2000182      0.041600023  
      2200   300.01936     -16875.387     -7.8126793     -2718.5358      32652.488      2.2000182      0.040709293  
      2300   289.85265     -16874.03      -7.8120508     -1179.6996      32652.488      2.2000182      0.038613731  
      2400   297.29478     -16875.736     -7.8128409     -3721.832       32652.488      2.2000182      0.038792215  
      2500   302.18626     -16875.477     -7.8127208     -5053.9304      32652.488      2.2000182      0.041182679  
      2600   304.16324     -16874.129     -7.8120969     -2029.7659      32652.488      2.2000182      0.041449001  
      2700   301.94365     -16873.105     -7.8116227     -3795.8961      32652.488      2.2000182      0.043091752  
      2800   297.82854     -16873.45      -7.8117826     -3999.0439      32652.488      2.2000182      0.042345729  
      2900   294.8076      -16874.907     -7.8124568     -2335.1711      32652.488      2.2000182      0.043681632  
      3000   298.44707     -16876.614     -7.8132473     -993.27927      32652.488      2.2000182      0.040955279  
Loop time of 5984.67 on 6 procs for 3000 steps with 2160 atoms

Performance: 0.043 ns/day, 554.136 hours/ns, 0.501 timesteps/s, 1.083 katom-step/s
482.8% CPU use with 1 MPI tasks x 6 OpenMP threads

MPI task timing breakdown:
Section |  min time  |  avg time  |  max time  |%varavg| %total
---------------------------------------------------------------
Pair    | 5983.1     | 5983.1     | 5983.1     |   0.0 | 99.97
Neigh   | 0.22619    | 0.22619    | 0.22619    |   0.0 |  0.00
Comm    | 0.10407    | 0.10407    | 0.10407    |   0.0 |  0.00
Output  | 0.16615    | 0.16615    | 0.16615    |   0.0 |  0.00
Modify  | 1.0861     | 1.0861     | 1.0861     |   0.0 |  0.02
Other   |            | 0.03089    |            |       |  0.00

Nlocal:           2160 ave        2160 max        2160 min
Histogram: 1 0 0 0 0 0 0 0 0 0
Nghost:           6210 ave        6210 max        6210 min
Histogram: 1 0 0 0 0 0 0 0 0 0
Neighs:         217325 ave      217325 max      217325 min
Histogram: 1 0 0 0 0 0 0 0 0 0
FullNghs:       100788 ave      100788 max      100788 min
Histogram: 1 0 0 0 0 0 0 0 0 0

Total # of neighbors = 217325
Ave neighs/atom = 100.61343
Neighbor list builds = 72
Dangerous builds = 0
System init for write_data ...
Generated 0 of 1 mixed pair_coeff terms from geometric mixing rule
Total wall time: 2:46:17
