LAMMPS (2 Aug 2023 - Update 3)
  using 6 OpenMP thread(s) per MPI task
Reading data file ...
  orthogonal box = (0.70531404 0.70777887 0.81682301) to (29.433599 29.53646 34.087002)
  1 by 1 by 1 MPI processor grid
  reading atoms ...
  2160 atoms
  reading velocities ...
  2160 velocities
  read_data CPU = 0.006 seconds
WARNING: No fixes with time integration, atoms won't move (src/verlet.cpp:60)
Generated 0 of 1 mixed pair_coeff terms from geometric mixing rule
Neighbor list info ...
  update: every = 1 steps, delay = 0 steps, check = yes
  max neighbors/atom: 2000, page size: 100000
  master list distance cutoff = 6.5
  ghost atom cutoff = 6.5
  binsize = 3.25, bins = 9 9 11
  1 neighbor lists, perpetual/occasional/extra = 1 0 0
  (1) pair e3gnn, perpetual
      attributes: full, newton on
      pair build: full/bin/atomonly
      stencil: full/bin/3d
      bin: standard
Setting up Verlet run ...
  Unit style    : metal
  Current step  : 0
  Time step     : 0.001
Per MPI rank memory allocation (min/avg/max) = 8.159 | 8.159 | 8.159 Mbytes
   Step          Temp          PotEng         v_epa          Press           Pxx            Pyy            Pzz           c_maxf    
         0   0             -16715.923     -7.7388532      90669.635      92652.002      92676.788      86680.115      5.5737669    
Loop time of 7.4e-07 on 6 procs for 0 steps with 2160 atoms

135.1% CPU use with 1 MPI tasks x 6 OpenMP threads

MPI task timing breakdown:
Section |  min time  |  avg time  |  max time  |%varavg| %total
---------------------------------------------------------------
Pair    | 0          | 0          | 0          |   0.0 |  0.00
Neigh   | 0          | 0          | 0          |   0.0 |  0.00
Comm    | 0          | 0          | 0          |   0.0 |  0.00
Output  | 0          | 0          | 0          |   0.0 |  0.00
Modify  | 0          | 0          | 0          |   0.0 |  0.00
Other   |            | 7.4e-07    |            |       |100.00

Nlocal:           2160 ave        2160 max        2160 min
Histogram: 1 0 0 0 0 0 0 0 0 0
Nghost:           4224 ave        4224 max        4224 min
Histogram: 1 0 0 0 0 0 0 0 0 0
Neighs:              0 ave           0 max           0 min
Histogram: 1 0 0 0 0 0 0 0 0 0
FullNghs:       190870 ave      190870 max      190870 min
Histogram: 1 0 0 0 0 0 0 0 0 0

Total # of neighbors = 190870
Ave neighs/atom = 88.365741
Neighbor list builds = 0
Dangerous builds = 0
Total wall time: 0:00:04
