LAMMPS (2 Aug 2023 - Update 3)
  using 6 OpenMP thread(s) per MPI task
# S2-2  E-V 스캔 (부피 1점당 LAMMPS 1회 실행)
#   -var s <선형 스케일>  로 셀을 등방 스케일한 뒤 원자만 이완
#   출발점은 S2-1의 완전 이완 구조(relaxed_final.data, V=28552.472)
#
# 핵심: etol = 0.0 으로 둔다. S2-1에서 etol=1e-8이 조기 종료를 일으켰음.
#       ftol 1e-3 eV/A 와 maxeval 캡만으로 제어한다.

units           metal
boundary        p p p
atom_style      charge

read_data       relaxed_final.data
Reading data file ...
  orthogonal box = (0.53391992 0.53578579 0.61833177) to (29.604993 29.708453 34.285494)
  1 by 1 by 1 MPI processor grid
  reading atoms ...
  2160 atoms
  reading velocities ...
  2160 velocities
  read_data CPU = 0.008 seconds
mass            1 15.9994
mass            2 28.0855

pair_style      e3gnn
PairE3GNN using device : CPU
pair_coeff      * * ../../01_input/pot/deployed_nano_4.5.pt O Si
Chemical specie 'O' is assigned to type 1
Chemical specie 'Si' is assigned to type 2
from sevenn version '0.13.0' single precision model, deployed: 2026-08-10
FlashTP: no
OEQ: no

neighbor        1.0 bin
neigh_modify    every 1 delay 0 check yes

# 등방 스케일 + 원자 좌표 remap (분수좌표 유지)
change_box      all x scale ${s} y scale ${s} z scale ${s} remap
change_box      all x scale 0.99328839 y scale ${s} z scale ${s} remap
change_box      all x scale 0.99328839 y scale 0.99328839 z scale ${s} remap
change_box      all x scale 0.99328839 y scale 0.99328839 z scale 0.99328839 remap
Changing box ...
  orthogonal box = (0.63147677 0.53578579 0.61833177) to (29.507437 29.708453 34.285494)
  orthogonal box = (0.63147677 0.63368357 0.61833177) to (29.507437 29.610555 34.285494)
  orthogonal box = (0.63147677 0.63368357 0.7313122) to (29.507437 29.610555 34.172513)

variable        epa  equal pe/atoms
variable        dens equal density
variable        fmag atom sqrt(fx*fx+fy*fy+fz*fz)
compute         maxf all reduce max v_fmag

thermo          10
thermo_style    custom step pe v_epa press vol v_dens c_maxf

min_style       cg
min_modify      dmax 0.05
minimize        0.0 1.0e-3 150 150
Generated 0 of 1 mixed pair_coeff terms from geometric mixing rule
Neighbor list info ...
  update: every = 1 steps, delay = 0 steps, check = yes
  max neighbors/atom: 2000, page size: 100000
  master list distance cutoff = 5.5
  ghost atom cutoff = 5.5
  binsize = 2.75, bins = 11 11 13
  1 neighbor lists, perpetual/occasional/extra = 1 0 0
  (1) pair e3gnn, perpetual
      attributes: full, newton on
      pair build: full/bin/atomonly
      stencil: full/bin/3d
      bin: standard
Per MPI rank memory allocation (min/avg/max) = 9.246 | 9.246 | 9.246 Mbytes
   Step         PotEng         v_epa          Press          Volume         v_dens         c_maxf    
         0  -16859.444     -7.805298       44919.809      27981.422      2.5672773      0.49444468   
        10  -16863.533     -7.8071912      21217.335      27981.422      2.5672773      0.29091634   
        20  -16863.717     -7.8072765      20197.72       27981.422      2.5672773      0.16503998   
        30  -16863.769     -7.8073006      19879.697      27981.422      2.5672773      0.11713817   
        40  -16863.785     -7.8073077      19776.568      27981.422      2.5672773      0.04610177   
        50  -16863.79      -7.8073102      19749.011      27981.422      2.5672773      0.021094992  
        60  -16863.792     -7.8073113      19740.47       27981.422      2.5672773      0.014991478  
        70  -16863.793     -7.8073117      19735.227      27981.422      2.5672773      0.012903651  
        74  -16863.793     -7.8073118      19732.387      27981.422      2.5672773      0.0029677642 
Loop time of 368.292 on 6 procs for 74 steps with 2160 atoms

461.6% CPU use with 1 MPI tasks x 6 OpenMP threads

Minimization stats:
  Stopping criterion = max force evaluations
  Energy initial, next-to-last, final = 
     -16859.4436761506  -16863.7933208618   -16863.793390647
  Force two-norm initial, final = 8.8077157 0.045900042
  Force max component initial, final = 0.42475039 0.0024049454
  Final line search alpha, max atom move = 1 0.0024049454
  Iterations, force evaluations = 74 150

MPI task timing breakdown:
Section |  min time  |  avg time  |  max time  |%varavg| %total
---------------------------------------------------------------
Pair    | 368.28     | 368.28     | 368.28     |   0.0 |100.00
Neigh   | 0          | 0          | 0          |   0.0 |  0.00
Comm    | 0.0031184  | 0.0031184  | 0.0031184  |   0.0 |  0.00
Output  | 0.00084174 | 0.00084174 | 0.00084174 |   0.0 |  0.00
Modify  | 0          | 0          | 0          |   0.0 |  0.00
Other   |            | 0.006478   |            |       |  0.00

Nlocal:           2160 ave        2160 max        2160 min
Histogram: 1 0 0 0 0 0 0 0 0 0
Nghost:           3317 ave        3317 max        3317 min
Histogram: 1 0 0 0 0 0 0 0 0 0
Neighs:              0 ave           0 max           0 min
Histogram: 1 0 0 0 0 0 0 0 0 0
FullNghs:       117258 ave      117258 max      117258 min
Histogram: 1 0 0 0 0 0 0 0 0 0

Total # of neighbors = 117258
Ave neighs/atom = 54.286111
Neighbor list builds = 0
Dangerous builds = 0

# 파싱용 한 줄 요약 (EVPOINT scale volume density PE epa press maxf)
variable        Vf  equal vol
variable        Df  equal density
variable        Ef  equal pe
variable        ef  equal pe/atoms
variable        Pf  equal press
variable        Ff  equal c_maxf
print           "EVPOINT ${s} ${Vf} ${Df} ${Ef} ${ef} ${Pf} ${Ff}"
EVPOINT 0.99328839 27981.4224889133 2.56727725287754 -16863.793390647 -7.80731175492918 19732.3870206122 0.00296776419112295
Total wall time: 0:06:10
