LAMMPS (2 Aug 2023 - Update 3)
  using 6 OpenMP thread(s) per MPI task
# S2-2  E-V 스캔 (부피 1점당 LAMMPS 1회 실행)
#   -var s <선형 스케일>  로 셀을 등방 스케일한 뒤 원자만 이완
#   출발점은 S2-1의 완전 이완 구조(relaxed_final.data, V=28552.472)
#
# 핵심: etol = 0.0 으로 둔다. S2-1에서 etol=1e-8이 조기 종료를 일으켰음.
#       ftol 1e-3 eV/A 와 maxeval 캡만으로 제어한다.

units           metal
boundary        p p p
atom_style      charge

read_data       relaxed_final.data
Reading data file ...
  orthogonal box = (0.53391992 0.53578579 0.61833177) to (29.604993 29.708453 34.285494)
  1 by 1 by 1 MPI processor grid
  reading atoms ...
  2160 atoms
  reading velocities ...
  2160 velocities
  read_data CPU = 0.009 seconds
mass            1 15.9994
mass            2 28.0855

pair_style      e3gnn
PairE3GNN using device : CPU
pair_coeff      * * ../../01_input/pot/deployed_nano_4.5.pt O Si
Chemical specie 'O' is assigned to type 1
Chemical specie 'Si' is assigned to type 2
from sevenn version '0.13.0' single precision model, deployed: 2026-08-10
FlashTP: no
OEQ: no

neighbor        1.0 bin
neigh_modify    every 1 delay 0 check yes

# 등방 스케일 + 원자 좌표 remap (분수좌표 유지)
change_box      all x scale ${s} y scale ${s} z scale ${s} remap
change_box      all x scale 1.01961282 y scale ${s} z scale ${s} remap
change_box      all x scale 1.01961282 y scale 1.01961282 z scale ${s} remap
change_box      all x scale 1.01961282 y scale 1.01961282 z scale 1.01961282 remap
Changing box ...
  orthogonal box = (0.24883705 0.53578579 0.61833177) to (29.890076 29.708453 34.285494)
  orthogonal box = (0.24883705 0.24970665 0.61833177) to (29.890076 29.994532 34.285494)
  orthogonal box = (0.24883705 0.24970665 0.28817778) to (29.890076 29.994532 34.615648)

variable        epa  equal pe/atoms
variable        dens equal density
variable        fmag atom sqrt(fx*fx+fy*fy+fz*fz)
compute         maxf all reduce max v_fmag

thermo          10
thermo_style    custom step pe v_epa press vol v_dens c_maxf

min_style       cg
min_modify      dmax 0.05
minimize        0.0 1.0e-3 150 150
Generated 0 of 1 mixed pair_coeff terms from geometric mixing rule
Neighbor list info ...
  update: every = 1 steps, delay = 0 steps, check = yes
  max neighbors/atom: 2000, page size: 100000
  master list distance cutoff = 5.5
  ghost atom cutoff = 5.5
  binsize = 2.75, bins = 11 11 13
  1 neighbor lists, perpetual/occasional/extra = 1 0 0
  (1) pair e3gnn, perpetual
      attributes: full, newton on
      pair build: full/bin/atomonly
      stencil: full/bin/3d
      bin: standard
Per MPI rank memory allocation (min/avg/max) = 9.24 | 9.24 | 9.24 Mbytes
   Step         PotEng         v_epa          Press          Volume         v_dens         c_maxf    
         0  -16823.816     -7.7888036     -77537.748      30265.62       2.3735205      1.3191404    
        10  -16852.334     -7.8020063     -32816.877      30265.62       2.3735205      0.93588466   
        20  -16854.256     -7.8028961     -25057.701      30265.62       2.3735205      0.23682927   
        30  -16854.633     -7.803071      -25420.623      30265.62       2.3735205      0.12000575   
        40  -16854.738     -7.8031192     -25468.24       30265.62       2.3735205      0.064849996  
        50  -16854.777     -7.8031374     -25290.725      30265.62       2.3735205      0.051858985  
        60  -16854.79      -7.8031433     -25317.278      30265.62       2.3735205      0.019874319  
        70  -16854.793     -7.8031449     -25316.004      30265.62       2.3735205      0.014906757  
        77  -16854.794     -7.8031453     -25319.669      30265.62       2.3735205      0.0093520065 
Loop time of 340.552 on 6 procs for 77 steps with 2160 atoms

462.2% CPU use with 1 MPI tasks x 6 OpenMP threads

Minimization stats:
  Stopping criterion = max force evaluations
  Energy initial, next-to-last, final = 
     -16823.8158493118  -16854.7936805213  -16854.7938086171
  Force two-norm initial, final = 21.438294 0.059342502
  Force max component initial, final = 1.1597325 0.008270435
  Final line search alpha, max atom move = 1 0.008270435
  Iterations, force evaluations = 77 150

MPI task timing breakdown:
Section |  min time  |  avg time  |  max time  |%varavg| %total
---------------------------------------------------------------
Pair    | 340.54     | 340.54     | 340.54     |   0.0 |100.00
Neigh   | 0.0032955  | 0.0032955  | 0.0032955  |   0.0 |  0.00
Comm    | 0.0031787  | 0.0031787  | 0.0031787  |   0.0 |  0.00
Output  | 0.00085125 | 0.00085125 | 0.00085125 |   0.0 |  0.00
Modify  | 0          | 0          | 0          |   0.0 |  0.00
Other   |            | 0.006606   |            |       |  0.00

Nlocal:           2160 ave        2160 max        2160 min
Histogram: 1 0 0 0 0 0 0 0 0 0
Nghost:           3182 ave        3182 max        3182 min
Histogram: 1 0 0 0 0 0 0 0 0 0
Neighs:              0 ave           0 max           0 min
Histogram: 1 0 0 0 0 0 0 0 0 0
FullNghs:       108994 ave      108994 max      108994 min
Histogram: 1 0 0 0 0 0 0 0 0 0

Total # of neighbors = 108994
Ave neighs/atom = 50.460185
Neighbor list builds = 1
Dangerous builds = 0

# 파싱용 한 줄 요약 (EVPOINT scale volume density PE epa press maxf)
variable        Vf  equal vol
variable        Df  equal density
variable        Ef  equal pe
variable        ef  equal pe/atoms
variable        Pf  equal press
variable        Ff  equal c_maxf
print           "EVPOINT ${s} ${Vf} ${Df} ${Ef} ${ef} ${Pf} ${Ff}"
EVPOINT 1.01961282 30265.6198792595 2.37352050760973 -16854.7938086171 -7.80314528176719 -25319.6688878264 0.00935200651911682
Total wall time: 0:05:42
