nohup: ignoring input
LAMMPS (2 Aug 2023 - Update 3)
  using 6 OpenMP thread(s) per MPI task
Reading data file ...
  orthogonal box = (0.70531404 0.70777887 0.81682301) to (29.433599 29.53646 34.087002)
  1 by 1 by 1 MPI processor grid
  reading atoms ...
  2160 atoms
  reading velocities ...
  2160 velocities
  read_data CPU = 0.013 seconds
=========== STAGE 1: atoms only (cell fixed) ===========
Generated 0 of 1 mixed pair_coeff terms from geometric mixing rule
Neighbor list info ...
  update: every = 1 steps, delay = 0 steps, check = yes
  max neighbors/atom: 2000, page size: 100000
  master list distance cutoff = 5.5
  ghost atom cutoff = 5.5
  binsize = 2.75, bins = 11 11 13
  1 neighbor lists, perpetual/occasional/extra = 1 0 0
  (1) pair e3gnn, perpetual
      attributes: full, newton on
      pair build: full/bin/atomonly
      stencil: full/bin/3d
      bin: standard
Setting up cg style minimization ...
  Unit style    : metal
  Current step  : 0
Per MPI rank memory allocation (min/avg/max) = 9.246 | 9.246 | 9.246 Mbytes
   Step         PotEng         v_epa          Press          Volume         v_dens           Lx             Ly             Lz           c_maxf    
         0  -16707.295     -7.7348588      95570.04       27554.315      2.6070715      28.728285      28.828681      33.270179      5.771261     
         5  -16837.431     -7.7951071      24923.409      27554.315      2.6070715      28.728285      28.828681      33.270179      3.09741      
        10  -16848.517     -7.8002391      28358.485      27554.315      2.6070715      28.728285      28.828681      33.270179      1.557265     
        15  -16852.917     -7.8022765      26606.294      27554.315      2.6070715      28.728285      28.828681      33.270179      0.67265861   
        20  -16854.86      -7.803176       29214.618      27554.315      2.6070715      28.728285      28.828681      33.270179      0.33777626   
        25  -16855.867     -7.8036422      28665.518      27554.315      2.6070715      28.728285      28.828681      33.270179      0.50882016   
        30  -16856.512     -7.8039408      28757.116      27554.315      2.6070715      28.728285      28.828681      33.270179      0.19908706   
        35  -16856.904     -7.8041224      29142.381      27554.315      2.6070715      28.728285      28.828681      33.270179      0.28613272   
        40  -16857.149     -7.8042358      29073.482      27554.315      2.6070715      28.728285      28.828681      33.270179      0.12769022   
        45  -16857.331     -7.8043199      29111.985      27554.315      2.6070715      28.728285      28.828681      33.270179      0.2339104    
        50  -16857.466     -7.8043825      29015.386      27554.315      2.6070715      28.728285      28.828681      33.270179      0.11809131   
        55  -16857.564     -7.8044279      28978.012      27554.315      2.6070715      28.728285      28.828681      33.270179      0.10288908   
        60  -16857.633     -7.8044599      28956.914      27554.315      2.6070715      28.728285      28.828681      33.270179      0.12865853   
        65  -16857.685     -7.8044837      28970.689      27554.315      2.6070715      28.728285      28.828681      33.270179      0.1322872    
        70  -16857.721     -7.8045006      28929.283      27554.315      2.6070715      28.728285      28.828681      33.270179      0.12260488   
        75  -16857.752     -7.8045149      28916.674      27554.315      2.6070715      28.728285      28.828681      33.270179      0.087020644  
        80  -16857.785     -7.80453        28885.423      27554.315      2.6070715      28.728285      28.828681      33.270179      0.13895582   
        85  -16857.821     -7.8045469      28971.027      27554.315      2.6070715      28.728285      28.828681      33.270179      0.16790821   
        90  -16857.856     -7.804563       28976.409      27554.315      2.6070715      28.728285      28.828681      33.270179      0.12333129   
        95  -16857.887     -7.8045773      28995.294      27554.315      2.6070715      28.728285      28.828681      33.270179      0.18603192   
       100  -16857.916     -7.8045907      28968.37       27554.315      2.6070715      28.728285      28.828681      33.270179      0.15248741   
       105  -16857.943     -7.8046035      28955.16       27554.315      2.6070715      28.728285      28.828681      33.270179      0.17323809   
       110  -16857.971     -7.8046161      28942.257      27554.315      2.6070715      28.728285      28.828681      33.270179      0.17711988   
       115  -16857.999     -7.8046294      28922.897      27554.315      2.6070715      28.728285      28.828681      33.270179      0.24177146   
       120  -16858.032     -7.8046442      28905.321      27554.315      2.6070715      28.728285      28.828681      33.270179      0.2341612    
       125  -16858.061     -7.804658       28882.293      27554.315      2.6070715      28.728285      28.828681      33.270179      0.21382178   
       130  -16858.086     -7.8046694      28915.864      27554.315      2.6070715      28.728285      28.828681      33.270179      0.21262633   
       135  -16858.106     -7.8046787      28942.318      27554.315      2.6070715      28.728285      28.828681      33.270179      0.17131393   
       140  -16858.121     -7.8046857      28960.368      27554.315      2.6070715      28.728285      28.828681      33.270179      0.16590108   
       145  -16858.134     -7.8046915      28955.501      27554.315      2.6070715      28.728285      28.828681      33.270179      0.14040049   
       150  -16858.144     -7.8046964      28939.124      27554.315      2.6070715      28.728285      28.828681      33.270179      0.12217985   
       153  -16858.149     -7.8046987      28927.032      27554.315      2.6070715      28.728285      28.828681      33.270179      0.11372917   
Loop time of 744.014 on 6 procs for 153 steps with 2160 atoms

460.3% CPU use with 1 MPI tasks x 6 OpenMP threads

Minimization stats:
  Stopping criterion = max force evaluations
  Energy initial, next-to-last, final = 
     -16707.2951043521  -16858.1477010148  -16858.1492388669
  Force two-norm initial, final = 89.229793 0.27728418
  Force max component initial, final = 4.5226135 0.086648963
  Final line search alpha, max atom move = 0.39042306 0.033829753
  Iterations, force evaluations = 153 300

MPI task timing breakdown:
Section |  min time  |  avg time  |  max time  |%varavg| %total
---------------------------------------------------------------
Pair    | 743.97     | 743.97     | 743.97     |   0.0 | 99.99
Neigh   | 0.01606    | 0.01606    | 0.01606    |   0.0 |  0.00
Comm    | 0.0066313  | 0.0066313  | 0.0066313  |   0.0 |  0.00
Output  | 0.0040104  | 0.0040104  | 0.0040104  |   0.0 |  0.00
Modify  | 0          | 0          | 0          |   0.0 |  0.00
Other   |            | 0.01316    |            |       |  0.00

Nlocal:           2160 ave        2160 max        2160 min
Histogram: 1 0 0 0 0 0 0 0 0 0
Nghost:           3332 ave        3332 max        3332 min
Histogram: 1 0 0 0 0 0 0 0 0 0
Neighs:              0 ave           0 max           0 min
Histogram: 1 0 0 0 0 0 0 0 0 0
FullNghs:       118922 ave      118922 max      118922 min
Histogram: 1 0 0 0 0 0 0 0 0 0

Total # of neighbors = 118922
Ave neighs/atom = 55.056481
Neighbor list builds = 5
Dangerous builds = 0
System init for write_data ...
Generated 0 of 1 mixed pair_coeff terms from geometric mixing rule
=========== STAGE 2: box/relax iso 0 bar ===========
Generated 0 of 1 mixed pair_coeff terms from geometric mixing rule
Setting up cg style minimization ...
  Unit style    : metal
  Current step  : 153
WARNING: Energy due to 1 extra global DOFs will be included in minimizer energies
 (src/min.cpp:228)
Per MPI rank memory allocation (min/avg/max) = 9.371 | 9.371 | 9.371 Mbytes
   Step         PotEng         v_epa          Press          Volume         v_dens           Lx             Ly             Lz           c_maxf    
       153  -16858.149     -7.8046987      28927.035      27554.315      2.6070715      28.728285      28.828681      33.270179      0.11372999   
       155  -16860.219     -7.8056571      17714.629      27719.972      2.5914914      28.785742      28.886338      33.33672       0.14883153   
       160  -16862.279     -7.8066107      3389.5764      28022.725      2.5634934      28.89016       28.991122      33.457647      0.39025327   
       165  -16864.029     -7.807421       3251.5206      28318.127      2.5367522      28.991321      29.092636      33.574801      0.52551353   
       170  -16864.034     -7.8074232      2997.9321      28346.105      2.5342483      29.000866      29.102214      33.585854      0.56039379   
       175  -16864.041     -7.8074263      3255.9394      28374.479      2.5317141      29.010539      29.111921      33.597057      0.60150703   
       180  -16864.046     -7.8074287      2999.3307      28404.263      2.5290595      29.020686      29.122103      33.608808      0.61946733   
       185  -16864.052     -7.8074316      3265.83        28431.274      2.5266568      29.029882      29.131331      33.619458      0.63545438   
       190  -16864.057     -7.8074336      3017.1953      28458.521      2.5242376      29.039153      29.140635      33.630195      0.63419853   
       195  -16864.062     -7.8074361      3262.2629      28482.145      2.5221439      29.047186      29.148696      33.639498      0.62748305   
       200  -16864.066     -7.8074381      3006.944       28507.326      2.5199161      29.055744      29.157284      33.649408      0.60981924   
       205  -16864.072     -7.8074407      3240.7285      28529.365      2.5179695      29.063229      29.164795      33.658077      0.58228623   
       210  -16864.077     -7.8074429      2970.6915      28553.764      2.5158179      29.071512      29.173107      33.66767       0.54771596   
       215  -16864.084     -7.8074463      3211.1472      28576.235      2.5138395      29.079136      29.180758      33.676499      0.49406764   
       220  -16864.092     -7.8074498      2861.7181      28604.257      2.5113769      29.088638      29.190293      33.687503      0.4313564    
       225  -16864.111     -7.8074586      3168.1787      28636.813      2.5085218      29.09967       29.201363      33.700279      0.41464517   
       230  -16864.308     -7.80755        4190.6345      28694.182      2.5035064      29.119089      29.22085       33.722769      0.35028501   
       235  -16866.156     -7.8084056      2498.5398      28571.03       2.5142975      29.077371      29.178986      33.674455      0.80070958   
       238  -16866.355     -7.8084979      3095.7889      28552.472      2.5159317      29.071074      29.172667      33.667162      0.73227969   
Loop time of 394.644 on 6 procs for 85 steps with 2160 atoms

462.4% CPU use with 1 MPI tasks x 6 OpenMP threads

Minimization stats:
  Stopping criterion = energy tolerance
  Energy initial, next-to-last, final = 
     -16858.1492496391  -16866.3554241106   -16866.355490149
  Force two-norm initial, final = 1323.6797 3.930787
  Force max component initial, final = 1323.6796 3.2370708
  Final line search alpha, max atom move = 0.00063433741 0.0020533951
  Iterations, force evaluations = 85 164

MPI task timing breakdown:
Section |  min time  |  avg time  |  max time  |%varavg| %total
---------------------------------------------------------------
Pair    | 394.62     | 394.62     | 394.62     |   0.0 | 99.99
Neigh   | 0.0030729  | 0.0030729  | 0.0030729  |   0.0 |  0.00
Comm    | 0.0030999  | 0.0030999  | 0.0030999  |   0.0 |  0.00
Output  | 0.0021783  | 0.0021783  | 0.0021783  |   0.0 |  0.00
Modify  | 0          | 0          | 0          |   0.0 |  0.00
Other   |            | 0.01427    |            |       |  0.00

Nlocal:           2160 ave        2160 max        2160 min
Histogram: 1 0 0 0 0 0 0 0 0 0
Nghost:           3290 ave        3290 max        3290 min
Histogram: 1 0 0 0 0 0 0 0 0 0
Neighs:              0 ave           0 max           0 min
Histogram: 1 0 0 0 0 0 0 0 0 0
FullNghs:       115658 ave      115658 max      115658 min
Histogram: 1 0 0 0 0 0 0 0 0 0

Total # of neighbors = 115658
Ave neighs/atom = 53.54537
Neighbor list builds = 1
Dangerous builds = 0
System init for write_data ...
Generated 0 of 1 mixed pair_coeff terms from geometric mixing rule
=========== STAGE 3: atoms again ===========
Generated 0 of 1 mixed pair_coeff terms from geometric mixing rule
Setting up cg style minimization ...
  Unit style    : metal
  Current step  : 238
Per MPI rank memory allocation (min/avg/max) = 9.371 | 9.371 | 9.371 Mbytes
   Step         PotEng         v_epa          Press          Volume         v_dens           Lx             Ly             Lz           c_maxf    
       238  -16866.355     -7.8084979      3095.788       28552.472      2.5159317      29.071074      29.172667      33.667162      0.73227967   
       240  -16866.555     -7.8085902      3952.537       28552.472      2.5159317      29.071074      29.172667      33.667162      0.98554321   
       245  -16867.114     -7.8088489      5203.9393      28552.472      2.5159317      29.071074      29.172667      33.667162      0.28997102   
       250  -16867.319     -7.808944       7941.3968      28552.472      2.5159317      29.071074      29.172667      33.667162      0.37238632   
       255  -16867.427     -7.8089938      7090.2845      28552.472      2.5159317      29.071074      29.172667      33.667162      0.23266343   
       260  -16867.48      -7.8090185      7554.7609      28552.472      2.5159317      29.071074      29.172667      33.667162      0.12589509   
       265  -16867.507     -7.809031       7682.2388      28552.472      2.5159317      29.071074      29.172667      33.667162      0.12538893   
       270  -16867.524     -7.8090391      7670.0546      28552.472      2.5159317      29.071074      29.172667      33.667162      0.09493811   
       275  -16867.535     -7.809044       7603.6535      28552.472      2.5159317      29.071074      29.172667      33.667162      0.06880688   
       280  -16867.542     -7.8090471      7698.1895      28552.472      2.5159317      29.071074      29.172667      33.667162      0.065651022  
       285  -16867.546     -7.8090489      7707.7938      28552.472      2.5159317      29.071074      29.172667      33.667162      0.042042393  
       290  -16867.548     -7.80905        7669.2589      28552.472      2.5159317      29.071074      29.172667      33.667162      0.029766592  
       295  -16867.549     -7.8090507      7700.012       28552.472      2.5159317      29.071074      29.172667      33.667162      0.03256755   
       296  -16867.55      -7.8090507      7708.4635      28552.472      2.5159317      29.071074      29.172667      33.667162      0.029650172  
Loop time of 278.93 on 6 procs for 58 steps with 2160 atoms

460.3% CPU use with 1 MPI tasks x 6 OpenMP threads

Minimization stats:
  Stopping criterion = energy tolerance
  Energy initial, next-to-last, final = 
     -16866.3554880414    -16867.54941743  -16867.5495523169
  Force two-norm initial, final = 2.2299001 0.09527051
  Force max component initial, final = 0.56691313 0.021982541
  Final line search alpha, max atom move = 1 0.021982541
  Iterations, force evaluations = 58 116

MPI task timing breakdown:
Section |  min time  |  avg time  |  max time  |%varavg| %total
---------------------------------------------------------------
Pair    | 278.92     | 278.92     | 278.92     |   0.0 |100.00
Neigh   | 0          | 0          | 0          |   0.0 |  0.00
Comm    | 0.0024457  | 0.0024457  | 0.0024457  |   0.0 |  0.00
Output  | 0.0015743  | 0.0015743  | 0.0015743  |   0.0 |  0.00
Modify  | 0          | 0          | 0          |   0.0 |  0.00
Other   |            | 0.005005   |            |       |  0.00

Nlocal:           2160 ave        2160 max        2160 min
Histogram: 1 0 0 0 0 0 0 0 0 0
Nghost:           3281 ave        3281 max        3281 min
Histogram: 1 0 0 0 0 0 0 0 0 0
Neighs:              0 ave           0 max           0 min
Histogram: 1 0 0 0 0 0 0 0 0 0
FullNghs:       115030 ave      115030 max      115030 min
Histogram: 1 0 0 0 0 0 0 0 0 0

Total # of neighbors = 115030
Ave neighs/atom = 53.25463
Neighbor list builds = 0
Dangerous builds = 0
System init for write_data ...
Generated 0 of 1 mixed pair_coeff terms from geometric mixing rule
Total wall time: 0:23:45
