LAMMPS data file via write_data, version 2 Aug 2023, timestep = 5000, units = metal

2160 atoms
2 atom types

-0.13095198564362853 30.269865365641856 xlo xhi
-0.13140961780978877 30.375648137808874 ylo yhi
-0.15165527673719126 35.055480726733364 zlo zhi

Masses

1 15.9994
2 28.0855

Atoms # charge

684 1 -1.2 4.542445665455912 1.266074575260405 1.1425758821380956 0 0 0
1864 2 2.4 4.833222611926863 2.578348863771461 2.263389231953764 1 0 1
2009 1 -1.2 6.511522726987224 2.3934975656023005 2.6195287894512114 1 1 1
1921 2 2.4 11.814844643546612 1.2413608480552183 2.0017763746374557 1 0 1
425 1 -1.2 11.237315680453996 2.11082976507872 0.8297063032208635 1 1 0
658 1 -1.2 13.517472815842385 1.687180728736189 1.9925364524325968 0 1 0
1140 1 -1.2 24.73463613890974 1.3853377022380333 1.3836640730929746 0 1 1
1657 2 2.4 24.93340215187499 2.7880410009765493 0.4629901849325845 -1 1 1
528 1 -1.2 27.872118061216433 0.22541234794114173 2.7519993133253435 -1 0 0
1134 1 -1.2 28.457225769255135 2.3292109531516845 1.7982456120471144 0 0 0
678 1 -1.2 28.82232690117393 -0.12165035000693325 0.31182861052781957 0 1 0
485 1 -1.2 4.364502912733012 4.04055917045461 1.705337474455549 1 0 0
240 1 -1.2 11.175341012670945 4.19563605721011 2.2709714383942745 0 1 0
963 2 2.4 11.796903719388027 3.8121900007708094 0.8450080306724607 0 0 1
2074 1 -1.2 13.325558663162736 4.176260561022278 0.5981409094191908 0 1 1
996 1 -1.2 11.167823396681285 4.624345602675161 34.88562567008037 0 0 -1
1677 1 -1.2 15.657217137527836 2.686380432189625 0.9190900662499174 0 1 0
1828 2 2.4 14.275263537888423 3.137694576120362 1.6180803477613728 0 0 1
1972 2 2.4 19.11025275406341 3.8239248016375713 -0.024971915756534974 0 1 1
380 1 -1.2 19.411414197878308 2.701760060671592 1.2716876772073094 -1 1 0
1317 1 -1.2 23.51681051132675 3.7299628923517707 0.6600137395356229 0 0 1
1561 2 2.4 23.127243001276625 4.694198215134567 1.9196986850630868 0 0 0
1867 1 -1.2 26.341324276002553 3.4725938792596227 0.7558141795491424 0 1 1
66 1 -1.2 27.66567213945619 4.781334718161401 2.5025387096592815 0 0 0
1384 2 2.4 27.801411227931098 3.730089150652462 1.2798561040172873 -1 0 1
1879 1 -1.2 28.81023376303458 4.4747778255011195 0.014298103294201576 -1 0 1
1593 1 -1.2 1.1234772187286648 6.79740645672174 -0.004907270389365384 0 0 1
1671 2 2.4 2.5013137616576637 7.455040321498399 0.3324763162695293 0 0 1
134 2 2.4 4.805587763820417 5.611949961478583 1.631359499566665 1 0 0
129 1 -1.2 3.550881795388412 6.489350273709254 0.969617558289123 1 -1 1
857 1 -1.2 5.09264810156676 6.391682417946893 3.0703138539595645 0 2 0
1281 1 -1.2 6.112979504927013 5.823290202675651 0.5940993926903292 1 0 1
260 1 -1.2 15.197190917201688 6.979389222724332 0.482000781662771 0 0 -1
161 1 -1.2 18.185370078849406 7.689559496860393 0.5686741001936224 -1 0 0
1270 1 -1.2 19.86880110187738 6.895418760977137 2.763273354331868 1 0 1
2028 1 -1.2 19.754817462018835 5.2643374307642254 0.39364585966453713 0 1 0
145 2 2.4 19.681144508036578 6.88149516000715 1.1633843216359805 0 1 0
180 1 -1.2 20.904183272026618 7.785096417781002 0.754091569364101 0 0 0
1984 2 2.4 22.492035889720043 7.43467826172677 0.5875703855186157 0 0 1
2093 1 -1.2 23.332490023064995 6.331918493574166 1.512200400870796 0 1 1
140 1 -1.2 28.202429084523384 6.914814281338157 0.7159364246682479 0 0 0
280 2 2.4 28.089232503201167 6.356409960051471 2.289071697452477 0 0 1
1438 1 -1.2 2.553423533598084 8.685349543960017 1.5418569234336084 1 0 1
432 1 -1.2 9.823598295295051 8.761563030264062 1.6130826138744168 0 0 0
615 2 2.4 10.29310642790547 9.681355945427681 0.3257775130817736 0 0 1
515 1 -1.2 9.256750381670056 11.041997690502008 0.24157257627172088 0 -1 -1
702 1 -1.2 11.788078500670329 10.390606632637576 0.6677435289277539 0 0 0
598 1 -1.2 14.410787568701263 11.27337128907917 1.1866760738612336 0 0 1
444 1 -1.2 16.21030665117557 9.461077339235409 0.5813193176094135 0 -1 1
1456 2 2.4 15.574369305813535 10.901817559338904 0.07794051944306761 0 0 1
1558 1 -1.2 23.374047372040305 8.729034364425791 0.7409343178261495 0 1 1
98 2 2.4 24.462983639616308 9.83859347945584 1.3492179124233201 0 0 0
1896 1 -1.2 23.94783449399983 11.358396990973672 1.52188206438253 -1 0 1
120 1 -1.2 25.782632113680425 9.75003493385955 0.3150934688268571 0 -1 0
1660 2 2.4 27.3381200995677 10.388089543847121 0.2519669710305181 -1 0 1
516 1 -1.2 28.221312930055696 9.646520677321686 1.5242028091707687 -1 0 0
879 2 2.4 1.7328047244162825 12.209815169040327 2.240202052590684 0 0 0
1752 1 -1.2 0.2345973240870257 13.11865513270124 2.075750950423711 1 0 1
1015 1 -1.2 2.602734260054097 12.18381172756089 0.9800714248789031 -1 1 1
991 1 -1.2 4.761234663147626 13.43874642684461 1.9834574830951925 1 0 0
1010 2 2.4 6.339038027101961 13.19129089720325 1.6402555815051862 -1 0 1
284 1 -1.2 6.995628237152563 12.027121970002574 2.450058651888434 1 0 0
1129 2 2.4 12.826005918140684 11.540898376006135 1.0580132902394934 0 0 1
1577 1 -1.2 12.696424971245747 13.12684221384709 0.4127961950121646 0 0 1
1220 1 -1.2 12.286070692508254 11.728032891618492 2.6286851846681785 1 0 0
286 1 -1.2 16.699635201465572 11.957382552145447 0.3643943654208944 0 0 0
243 2 2.4 17.89363705013314 12.936601524701416 0.77443044001917 0 0 0
1169 1 -1.2 17.25393858942318 13.412099989226672 2.3016269026987297 0 0 1
1234 1 -1.2 19.203576980000545 12.060926141385222 0.6982951941197058 0 0 0
618 1 -1.2 21.05068553212256 10.94338802022043 2.4000808379929564 1 0 0
2101 2 2.4 20.791235302026337 11.727675626272994 0.9482440243912158 -1 0 1
302 2 2.4 24.797668172919046 12.514797789256955 2.280340020837714 -1 0 0
197 1 -1.2 23.847953711791305 13.527243172926015 3.127957547180539 0 -1 0
574 1 -1.2 25.526457987070803 13.592004156570754 1.1558695277714452 1 0 1
1702 1 -1.2 27.403716572739565 12.01070694317865 0.5404895301967174 -1 1 1
701 1 -1.2 1.8830850997694735 15.427804638712962 0.820891185971214 0 0 0
1186 1 -1.2 3.4147588653632575 15.528818954500007 2.8444858573635057 1 1 0
1094 2 2.4 2.811670594637607 16.511126751134825 1.7793744752382294 -1 0 0
152 1 -1.2 7.145609923658957 14.618609518068661 1.7512302643595903 0 0 0
877 2 2.4 8.59276027855739 15.058127427445783 2.2856293464221373 0 -1 0
1055 1 -1.2 9.404993016710915 15.079448598157432 1.0196919512738838 0 0 0
2038 1 -1.2 13.962087957898389 15.540617120330289 0.6297250766161646 0 0 1
1928 1 -1.2 21.767718573945583 13.171524690536101 0.7535594925287711 0 0 1
1696 2 2.4 21.747554676218613 14.841049485935951 0.6618239641111884 0 1 1
1590 1 -1.2 20.235192883157378 15.479262084533161 0.5330291850145347 0 0 0
1760 1 -1.2 22.302465167746355 15.387365252623837 2.0833568650522163 0 0 1
587 1 -1.2 27.13976657920779 16.512295561857908 2.1348657534395397 -1 0 0
1457 1 -1.2 27.813149632996787 14.592258385649068 0.4121441314758663 -1 1 1
542 2 2.4 28.106895879346542 15.21195131212212 1.80605759709342 0 0 0
982 1 -1.2 29.695803818653037 15.553752602675054 2.1493333876118035 0 0 1
1219 1 -1.2 2.0074972631887293 17.685993629020953 2.5228641619422714 1 0 1
1160 1 -1.2 0.43625935239816377 17.373610160427965 -0.1443936230451381 0 0 1
1295 1 -1.2 4.081105485590253 17.144854699259177 0.8290031202018775 0 1 0
1444 2 2.4 2.6955829557590976 19.15778469580398 3.0402896384473546 1 0 1
1006 1 -1.2 6.888933154283806 17.380792613397173 1.3988400145840647 0 0 1
1754 2 2.4 5.585041964029208 17.71659068855854 0.2808211896745194 0 0 1
1391 1 -1.2 11.07798361758772 19.3144496895288 1.388974264814639 0 0 1
453 1 -1.2 8.69975756132844 19.077577900271827 2.2148463864325616 0 -1 0
396 1 -1.2 13.178496711612366 18.02331178137753 1.1410448984118933 0 0 0
1070 2 2.4 12.415694601876856 19.47141809150627 0.5557618537962222 1 0 0
530 2 2.4 14.401412120054523 17.074338516503147 0.45835004182505307 0 0 0
874 1 -1.2 15.651694437009835 17.595173335782807 1.3677773588419888 0 -1 1
673 2 2.4 16.34440213642514 19.12894465132852 1.7215728558642585 0 0 0
1197 1 -1.2 25.144688900050646 16.538837909789848 0.2792136650148611 0 0 0
1683 2 2.4 25.57810462662232 16.78450940698949 1.8769159011740495 -1 0 1
200 1 -1.2 25.36530258358734 18.383800741769978 2.207256102154401 0 0 0
1449 1 -1.2 0.6463628876345522 19.93546917953495 0.3337104193593848 0 0 1
1024 2 2.4 2.0216925826128196 20.843826767044476 0.6035832072178734 0 0 1
106 1 -1.2 2.9846407304010785 20.133078088708285 1.76121095137251 1 0 0
353 1 -1.2 6.4929202948948985 21.448317237155898 1.7368576884143418 0 0 0
1885 2 2.4 6.181677992576043 20.94360644937654 0.1368802594065956 0 0 1
2104 2 2.4 10.146820096348932 19.833274796398637 2.5906468467197117 0 0 1
703 1 -1.2 12.958776252680309 20.85935724542468 1.0191833475504843 1 0 0
2090 2 2.4 14.2099910679655 21.53120307891962 1.8829905693677227 0 0 1
1698 1 -1.2 15.345055697785142 20.45500124416099 1.6749608134567058 0 0 0
1607 1 -1.2 17.815633873422563 19.512839227495636 0.9050090075141473 0 0 1
1274 2 2.4 18.573674591806174 20.92210814809465 1.6383999354185932 1 1 0
1846 1 -1.2 20.082399255523264 20.92934794269484 1.1019027245037105 0 -1 1
1560 1 -1.2 24.73226921644609 20.183221565028127 0.30379039421325954 0 0 1
1189 2 2.4 25.822674405824152 19.764889452733176 1.396177988802058 0 -1 0
2001 1 -1.2 25.496945662805157 20.96523036110793 2.4493044057192597 0 0 1
1583 1 -1.2 27.126883620083834 19.740927499771114 0.5810086426017266 0 0 1
338 2 2.4 1.6308524003449707 23.84488722440248 0.1341938291356966 1 0 0
245 1 -1.2 1.1272766386730662 24.67607627856165 1.459730512381378 1 0 -1
1892 1 -1.2 2.0055384235024687 22.412431722038843 0.7938194938201498 0 -1 1
1250 2 2.4 6.741924620420486 22.97528011200578 1.8482350193232606 0 0 0
2112 1 -1.2 7.465857658022857 23.802937006964488 0.5015585498704073 -1 0 1
682 1 -1.2 10.429711325834322 23.688449377913035 1.540919411956607 0 0 1
1105 2 2.4 9.723598681629337 23.01369965311169 2.8139221200946234 0 0 1
1151 1 -1.2 14.30504377630361 23.140625847783685 1.5027625609206592 0 0 0
939 2 2.4 14.878217730632764 24.38354438880519 2.5109649899089037 -1 0 0
372 1 -1.2 17.433972378715747 22.147588036592126 1.361147407096844 -1 0 0
1653 1 -1.2 16.49322662961613 24.42357240802342 2.3636196177434625 1 0 1
745 2 2.4 17.725517501402646 23.560883356824633 1.7287960745876716 0 0 0
2014 1 -1.2 17.87835657347949 24.472054927827184 0.2906089650254301 0 0 1
1482 1 -1.2 21.809838818080177 22.59803425646034 0.07185703882620871 0 0 1
83 1 -1.2 24.31651111109713 22.98693700948157 0.9477853336194026 -1 -1 0
38 2 2.4 23.125412253670998 23.447939888833705 -0.021359927408138454 0 -1 0
1114 1 -1.2 0.4043948951827319 26.644786947363915 3.2346920885147044 0 0 1
1710 1 -1.2 4.989701310884073 26.494880982318342 0.5048493432266732 1 1 1
1361 1 -1.2 7.159360775174431 27.07994604570667 1.7901494227714163 1 -1 1
1592 1 -1.2 12.110810924973716 26.882860703616306 0.6265913963818021 0 0 1
1851 2 2.4 13.597876767371043 26.995663521338454 1.2028694514098415 0 -1 1
708 1 -1.2 13.957434353243912 25.671625436435033 2.1633023643922864 0 0 0
198 1 -1.2 14.609768496292219 26.999157603927607 34.95756773603661 0 0 -1
149 1 -1.2 18.05449134296854 26.907443284312187 34.65029764674207 0 -1 -1
63 2 2.4 21.615060414422352 25.888375954221626 1.164302260732041 0 -1 0
1422 1 -1.2 21.242146283934144 25.47296820641245 2.7301885095942917 1 0 0
2142 1 -1.2 21.876488107124466 27.491556101337398 0.9039354692452536 0 0 1
1145 1 -1.2 22.891149200512363 24.91281036738461 0.7236820517163162 1 0 0
365 1 -1.2 26.767425378656 26.232444593699235 0.8611628675302763 -1 0 0
722 2 2.4 27.834169835650638 26.766037878574192 1.9651677594074273 -1 -1 0
16 2 2.4 -0.03307685747192665 25.23838682081507 2.4239728609358693 1 -1 0
295 1 -1.2 28.972151030403666 25.682668213533336 1.7881129161954565 -1 -1 0
1884 1 -1.2 1.4830883992033046 28.341942760605086 1.1360986825513422 0 -1 0
746 2 2.4 1.3242314635266224 27.942650399916122 2.728220838130184 1 0 0
2018 2 2.4 5.075505911016421 -0.09863298196433685 0.16730051146255853 0 0 1
1048 2 2.4 6.085067967128572 27.60555027368026 0.589570862828487 0 -1 1
633 1 -1.2 5.626156944179916 29.06741383855034 1.0409869241278298 1 -1 0
104 1 -1.2 9.646067459111896 28.065864560576774 -0.02514766172128884 1 -1 0
262 1 -1.2 11.593478503836854 30.184565064906863 2.076962807440148 0 -1 1
8 1 -1.2 13.695524427849248 28.340797829299042 2.1484505724067393 0 -1 0
1354 1 -1.2 17.34139209318535 28.569192803768253 1.422418186500965 0 -1 0
568 2 2.4 18.197041425361483 28.43788158996608 -0.11280198803575443 0 -1 0
50 2 2.4 21.319753926820862 28.602436990916924 -0.09067265195401644 0 -1 0
275 1 -1.2 21.824725393938714 30.147520081484803 -0.08569279306430223 0 -1 0
1187 1 -1.2 19.76648146194089 28.751583964389344 34.97403924983213 0 0 -1
956 1 -1.2 23.665791620345594 29.49015057694509 1.9944497899209548 0 -1 0
2125 2 2.4 24.777564730266672 30.30326390025987 1.1049703905495991 0 0 1
741 1 -1.2 26.153658161763175 29.585611355649515 1.0602896257489567 -2 -1 0
410 2 2.4 27.81022364920155 29.702545629156752 1.5336680375432876 0 0 0
1668 1 -1.2 28.38496490867128 28.235984742905213 1.6592080261696223 0 0 0
1782 1 -1.2 30.26530967541501 1.3526090171059164 3.2896037775122258 0 1 1
437 1 -1.2 2.1673058466581665 0.5219120976039924 4.21720425403767 0 0 0
2092 2 2.4 0.5351767611650158 0.13928739780870647 4.0756506508806485 0 1 1
1912 2 2.4 3.484776244849414 1.222591521883565 4.75207836313199 1 0 1
898 1 -1.2 4.125845968922504 2.458017020563112 3.7967985061636083 0 1 1
41 1 -1.2 4.668385097168494 0.13053765904035933 4.716378061903392 1 0 0
1304 1 -1.2 8.914027586437413 3.3356391900836146 3.305175077537362 0 0 1
1386 1 -1.2 11.325170728072381 1.9690067039422114 3.488532649163386 0 1 1
1940 1 -1.2 15.441161550433812 1.0005020605327586 5.037038015334478 0 1 1
1002 1 -1.2 18.899077093978182 1.6443505686703577 3.883352692201313 1 1 1
229 2 2.4 20.06445906667233 1.511330720750659 4.990166989150239 0 1 0
972 1 -1.2 20.549036057419872 -0.04983587547120403 5.347067436239731 0 0 0
1262 2 2.4 24.382163750519172 1.4599112937850813 5.405582864140158 -1 1 0
2075 1 -1.2 24.16909338601006 2.7439394611655006 4.5737427302539695 0 0 0
1065 1 -1.2 23.792254570552323 0.27134096281775877 4.471462588178697 0 0 0
471 2 2.4 28.728448540230122 1.60958235297245 3.096773462223819 -1 0 1
1043 1 -1.2 28.22989282871483 2.4581765064655867 4.4891432911624625 -1 0 1
803 1 -1.2 7.374892519708608 4.967265394549168 3.6214644607935274 -1 1 0
1464 1 -1.2 7.097140393978504 2.7694439495604937 5.070221986109683 0 0 1
1647 2 2.4 7.343158693150169 3.352633358287411 3.616378790941576 1 0 1
1453 2 2.4 10.497411260013845 3.280058534660658 3.54108182974214 0 0 0
60 1 -1.2 10.939586730523423 4.179681325522739 4.884845989643102 0 0 0
768 1 -1.2 14.510879685943621 3.989607382509875 3.021307138866634 0 1 0
1534 1 -1.2 15.73530172721175 3.4622756523154092 5.37601232471935 0 0 1
1537 2 2.4 15.866805510336558 4.171583527195825 3.967048642087118 0 0 0
1156 2 2.4 18.65203749725195 2.9096523870825246 2.7945354952133665 -1 0 0
549 1 -1.2 17.12829308880186 3.311311686207281 3.102417938040072 0 1 0
2012 1 -1.2 21.433019166316477 2.4032820190786057 4.725942141497311 1 0 1
2109 1 -1.2 19.543377429478998 4.068271901362362 3.5500189662342656 0 1 1
795 2 2.4 21.004418160001833 3.919505631981901 4.139002114246321 -1 1 0
1606 1 -1.2 21.911695565197984 4.332765689987657 2.7289923100812685 -1 1 1
642 1 -1.2 24.220301236404648 5.616776143996654 4.998157170656677 -1 1 0
34 1 -1.2 24.63214122120973 4.475230021354205 2.792384526712572 0 0 0
364 2 2.4 24.946983340542104 4.310913235094935 4.29536590497931 -1 1 0
869 1 -1.2 26.359871786666076 3.979741391586735 4.893988912196302 -1 0 0
1837 2 2.4 27.7682213364941 3.5786018879965096 5.63662839788306 0 0 1
89 1 -1.2 28.849331016021157 4.835445310972451 5.6274499053427105 0 0 0
155 1 -1.2 1.2854095156696626 7.916816024634531 3.7281451283722395 0 0 0
1711 1 -1.2 7.635314722261867 7.453533454591709 2.8644742996873216 0 1 0
1900 2 2.4 6.687117053507288 6.445037756497686 3.7448681375649393 0 0 1
948 1 -1.2 6.481141462626743 6.9276688233008334 5.211906577354707 0 0 0
1506 1 -1.2 9.955877711437228 7.881037229009958 4.1173331881693835 0 0 1
1056 1 -1.2 16.220576726288478 5.731996927428385 4.232722618393776 0 0 0
1636 2 2.4 16.782899895725404 6.838928401182582 5.288877468437999 1 1 0
989 1 -1.2 18.405054820201926 7.1016444174604585 5.075722233717949 0 0 0
706 1 -1.2 20.679246186096922 7.548236024996847 5.246359491012893 0 0 0
1948 2 2.4 19.612212597713 7.823682520937942 4.147166596815889 0 1 1
1475 1 -1.2 26.939408100825073 7.235524165757352 2.8992961094884104 -1 0 1
1040 1 -1.2 25.46616076633733 8.440818954481088 5.235345426410306 -1 0 1
493 2 2.4 25.998750522653847 8.463245135136457 3.6416243888076454 0 0 1
867 2 2.4 30.15381488960783 7.760429670290235 4.088479009925491 -1 -1 0
981 1 -1.2 29.984135257481118 7.354572842823003 5.542371726012096 -1 0 0
931 1 -1.2 29.46483266501858 6.59091944343327 3.105028542731718 0 0 1
292 2 2.4 2.0087351634767674 9.239641018829051 2.965807140432115 0 1 0
163 1 -1.2 1.1874304330374439 10.75361320562077 2.7525685692783672 1 1 0
561 1 -1.2 4.5692970332729566 8.804270879507477 5.63786897762435 1 0 0
1990 1 -1.2 3.2109322686648127 9.795446522857471 3.95739689575551 0 0 1
27 2 2.4 4.412562953281473 10.204735408626387 5.039794137605189 0 0 0
297 1 -1.2 6.002863376080558 10.670400990721566 4.677824931782246 0 0 0
1620 1 -1.2 8.355272755672019 9.91598592727141 3.38359998931991 -1 0 1
1120 2 2.4 8.963496991376173 8.43105874254833 2.9637620759389156 0 1 1
596 1 -1.2 15.98156004301539 8.303199152058578 4.8839928473054455 0 0 0
341 1 -1.2 13.744910483382212 9.635435101185207 5.482879362245085 0 1 0
2111 1 -1.2 19.678871428854116 9.414949957155786 4.128928680196948 -1 1 1
384 1 -1.2 24.756534260320233 9.03733209610139 2.785482930949516 0 1 0
228 1 -1.2 27.036082817947104 9.634757910917756 3.78838894005495 -1 0 0
1165 2 2.4 28.48482763820366 9.955127654579096 3.075091299243664 -1 0 0
1218 1 -1.2 29.594933722851064 9.167593218063313 3.822135034515118 0 0 0
1944 1 -1.2 2.4603259372943262 12.991920398199984 3.478323833940686 1 0 1
254 2 2.4 3.798500940338389 14.045490403518786 3.243201184682795 1 0 0
891 2 2.4 7.366528297835824 11.121161044612498 3.740452593779415 0 0 0
1182 1 -1.2 8.462107582293212 11.912423285219294 4.72565351400447 0 0 0
1171 1 -1.2 9.790169861421745 13.884720461057931 6.001279938035354 0 1 0
750 1 -1.2 11.671479611741406 11.400752289334935 5.245982650174562 0 1 0
1826 2 2.4 12.642392178942512 12.312175871721177 4.1771527669669855 0 0 1
789 1 -1.2 11.97598623688011 13.800159453717749 4.264367559459941 0 1 1
1497 1 -1.2 14.228131425614126 12.260811462615655 4.584740387702019 1 0 1
73 2 2.4 15.476544248585933 12.420576911547146 5.739194398325314 0 0 0
1415 1 -1.2 16.730733730590767 13.071045449975644 5.144452851427511 0 0 0
2055 2 2.4 17.80664201181451 13.056374206226211 3.924562990507944 0 0 1
1799 1 -1.2 18.55812408700356 11.520934349609174 3.737688736251573 0 0 0
1516 2 2.4 20.04119705630113 10.90319301274488 3.7454246660987756 0 0 0
1728 1 -1.2 21.189908695844448 11.606093234231176 4.790503473062618 0 1 1
21 1 -1.2 25.888099351058024 12.021031458196598 3.2415317145010136 -1 0 1
1924 2 2.4 27.370290917795625 12.572375777454038 3.777997191580075 0 0 0
1967 1 -1.2 27.51341426585967 13.205547412683313 5.260782001098101 -1 0 1
731 1 -1.2 28.70689611982175 11.519533706802255 3.5782484888986095 -1 0 0
96 1 -1.2 29.96297949708974 14.103677701367731 4.615830504035073 -1 0 0
1755 2 2.4 28.858314622777684 13.94500999382166 5.793639133943988 -1 0 1
1446 1 -1.2 4.669451120785381 14.07827220984883 4.526866382961615 0 -1 1
1201 2 2.4 5.764344469498036 14.955159847557663 5.374482964342455 1 0 1
1726 1 -1.2 7.2678773447036775 14.462956249362989 5.182072510869494 1 1 1
315 2 2.4 8.685431368929885 13.533197542398772 4.772220020174498 0 0 0
800 1 -1.2 9.351360952920116 14.036184624428408 3.376087211021445 0 1 0
1388 1 -1.2 10.952024955563681 16.070711907627462 5.567101590981405 0 0 0
1333 2 2.4 11.258768797548996 14.464338670408193 5.601005500694344 0 0 1
794 2 2.4 17.999070172761165 15.587769092177725 5.206701876885124 -1 1 0
2105 1 -1.2 18.70398055736455 14.43074385727223 4.416918247768547 -1 1 0
917 1 -1.2 19.34952675424501 16.35984258831312 5.766412925275389 0 -1 0
301 2 2.4 23.35281173089417 15.008537665880974 3.305077550479774 0 0 0
1518 1 -1.2 22.474770316750003 15.510999060923604 4.679112592009075 0 0 0
223 1 -1.2 24.63846441920999 15.905891259143992 2.9775970245891457 -1 0 0
421 2 2.4 29.880910906932133 14.15803253965715 3.0369412552795 0 0 0
1700 1 -1.2 27.949363739956997 13.930128266423832 2.847298673125371 -1 0 1
1329 1 -1.2 5.464887468584143 16.478854384556843 5.08938345497589 1 0 1
1272 1 -1.2 4.073470819765857 18.54574003929527 3.8180224129746896 1 1 1
1429 2 2.4 5.402887172555973 18.129813645584832 4.6175242811626225 1 0 0
1118 2 2.4 7.722790289848537 17.868728863980426 2.6165348997427085 1 0 0
1452 1 -1.2 6.606612905170076 18.441941255251102 3.6530010662338266 0 -1 1
2100 1 -1.2 8.710772470459274 16.578915278255728 2.9807989113062217 0 0 1
1427 1 -1.2 10.584337708332777 19.145065548999316 4.098933643828799 0 0 0
257 1 -1.2 16.91767992305084 19.181666236787787 3.3881432098800963 0 1 0
600 1 -1.2 17.359403853280362 16.68471665680538 4.175744274414601 0 0 0
1408 2 2.4 17.791360510300258 18.210312601073028 4.425134377123437 0 0 0
1740 1 -1.2 19.40895884748093 18.66112314540394 4.054630465739644 -1 0 1
910 1 -1.2 27.41115268925851 19.37839072685084 5.128752104336132 -1 0 0
248 1 -1.2 30.166396066876207 19.534228988559246 5.554502618216798 -1 0 0
1897 2 2.4 28.71150235578157 19.320961714467987 6.182231899631985 0 0 0
868 2 2.4 0.7483109665697283 20.68025984881712 5.006324314395899 0 0 1
392 1 -1.2 1.4791819105649051 19.884821891219428 3.8072581923559685 0 1 0
299 1 -1.2 0.03210117755844434 21.865587003273887 4.233082922896857 0 -1 0
1306 1 -1.2 10.263351801874403 21.434253211040517 3.1245190577468547 1 0 1
194 2 2.4 10.803533083159506 19.67147560812242 5.622004014670761 0 0 0
2076 1 -1.2 12.151632761918238 20.537812643810202 5.779389694751366 0 0 0
309 1 -1.2 13.877532950706971 21.635993349485222 3.463668146323523 0 0 0
1878 1 -1.2 18.68361105906878 20.969557679608602 3.169044039560691 0 0 1
818 2 2.4 19.803040981919132 20.17296839092283 4.184566702473608 0 0 0
1685 1 -1.2 21.394750818125367 20.51887564463803 3.8013885522567614 0 1 1
2140 2 2.4 22.26091345377496 21.79935295982602 4.450556311417321 0 1 1
354 1 -1.2 26.40279618138609 22.02090989844956 5.610992094589123 0 0 0
903 2 2.4 26.586028646541322 20.45582758072006 6.0472881523165265 0 -1 0
2094 1 -1.2 30.09666934996091 24.33257408571404 3.7255702789084757 -1 0 1
1111 1 -1.2 5.5942520754568426 23.996357881910072 2.550604940876415 0 0 0
1860 1 -1.2 8.167011880871854 22.981909788211382 2.718422428099848 1 0 1
216 1 -1.2 5.500930835260379 23.509244325143715 5.129075563339675 0 0 0
567 2 2.4 5.595766612860677 24.732423389575505 4.073750958425636 1 0 0
1553 1 -1.2 10.027175868692332 23.90177859367155 4.208800124029487 0 0 1
1381 2 2.4 11.220982794036871 24.394950811479273 5.186520735935955 1 -1 0
899 1 -1.2 12.484731607668067 23.679252696556492 4.478766583790896 0 -1 0
1420 2 2.4 13.764195639089035 22.7790843160413 4.624444396467997 0 0 1
559 1 -1.2 14.85002716090766 23.97484930008536 4.061054527304797 0 -1 1
1883 1 -1.2 19.176361574507727 23.63125207810381 2.540576385185169 -1 0 1
343 1 -1.2 21.310810446836705 23.324529701089823 4.215850508245243 0 -1 0
157 2 2.4 20.28063418836498 24.34319339828869 3.5561248689484453 0 -1 0
1228 2 2.4 24.638840997321456 22.351516983515 2.3287697952499187 -1 1 1
1569 1 -1.2 23.19967281424472 22.161093192143532 3.1769035474795673 0 0 1
812 1 -1.2 25.690092119575844 23.287542309979557 3.102260238795445 -1 -1 0
1166 2 2.4 26.44267857440574 23.18273923542332 4.447465567857644 -1 0 0
2151 2 2.4 29.51243222351539 23.193993848848955 4.567507544699297 0 1 1
342 1 -1.2 28.068921590943745 23.167742294695127 3.990537376812636 1 0 0
1758 1 -1.2 4.279459604971587 25.743693525186718 4.306855728409211 1 -1 1
1336 2 2.4 3.5676303170783257 27.180915362020606 4.757161682304945 1 -1 1
2062 1 -1.2 6.874960316317749 25.88103970022299 4.22311775448511 0 0 1
1611 2 2.4 7.481729896844062 27.305562987856153 3.448484563112482 0 0 0
1460 1 -1.2 11.090320388136654 25.901526928290853 4.947982791275632 0 0 1
1430 2 2.4 18.80083350803368 26.6985023437096 5.08761520861584 0 -1 0
594 1 -1.2 17.72498241281681 27.051642966532707 3.7363498626593104 0 0 0
1626 1 -1.2 19.66672014492164 25.19943080616501 4.797716797637423 0 0 0
1222 1 -1.2 27.313152995456633 26.7003158521278 3.52102336445054 1 -1 0
663 2 2.4 27.333676515955933 27.522922820434037 5.094061137937293 0 -1 0
141 1 -1.2 0.44401125590493934 29.289743640541374 3.2940126745141693 1 0 0
1806 1 -1.2 2.949151704509131 27.826065223956675 3.382534369945357 0 0 1
449 1 -1.2 4.837385074857618 28.055884963807603 4.96114953765132 1 -1 0
1566 1 -1.2 6.886499775349937 28.871176501914555 3.903007193644813 1 0 1
1526 2 2.4 5.782474133373352 29.379753040034345 5.124318727303885 0 -1 1
1920 1 -1.2 9.131115292879208 27.0396883889124 3.7535169498324525 0 -1 1
1598 2 2.4 10.363749580582702 27.46425514211973 4.627998012402937 0 0 1
1372 2 2.4 12.450450226602307 29.089271203714922 3.0451565409787924 0 -1 1
667 1 -1.2 11.348177865254469 28.515553183219637 3.972909683396054 0 0 0
2145 1 -1.2 13.300107428969811 29.9400321783633 4.336865284641558 0 0 1
985 2 2.4 15.033909780188473 29.878407600609933 4.73101832694632 1 -1 1
1115 1 -1.2 16.01738587674212 29.171168221215236 3.73695752196903 0 -1 1
1803 2 2.4 17.502326820419025 28.561194199114933 3.0218332403990855 0 -1 1
414 1 -1.2 18.919394768490175 29.316487055464364 3.319354509884279 1 0 0
407 1 -1.2 19.792876152440865 27.90022773802445 5.380835333347326 0 0 0
1214 2 2.4 20.215002195678256 29.252227176934042 4.379895087429715 0 0 1
670 1 -1.2 21.555603870458274 29.063108298249997 3.4689738746380856 0 0 0
1374 1 -1.2 23.962054001128546 28.025093202131483 4.185102607376398 0 -1 0
866 2 2.4 23.28129943556973 29.367864369409443 3.53762575854247 0 -1 0
1521 1 -1.2 30.167488065831765 0.10257842839991403 5.592219444901962 -1 1 0
1089 1 -1.2 28.7018977768309 28.307913391286046 5.2844733299454765 -1 -1 1
1524 1 -1.2 1.874611079749859 2.194389587856827 8.53490038186624 0 0 1
9 1 -1.2 3.1829170384557726 1.9101314807539256 6.356575212189201 0 0 0
1681 2 2.4 3.174391322135774 2.8385158866209026 7.762656767527327 0 1 1
644 1 -1.2 8.445395587135192 1.3173088827094912 6.921675324583792 1 0 0
399 2 2.4 9.438667620160292 0.8828414648167947 8.171585338418971 0 1 0
524 1 -1.2 10.842037559020248 1.7202402812729178 7.9959643776770015 0 0 0
290 2 2.4 15.729925537209263 2.0897512857850136 6.167068856262307 0 1 0
139 1 -1.2 14.129944225350027 0.019370163830300935 8.355098052998608 1 -1 0
1337 1 -1.2 14.64420331271224 2.449699866898766 7.308849682342572 0 0 1
660 1 -1.2 17.187760281242618 2.0475065456284294 7.143829685996901 -1 1 0
481 2 2.4 18.695830743261507 1.7143040688018951 7.544974190280153 0 0 0
144 1 -1.2 19.035459081778942 0.07611412084004543 8.087175942134744 0 0 0
77 1 -1.2 19.725685585015352 2.192566481791865 6.461662085806641 0 1 -1
503 1 -1.2 23.531150047341207 1.548605701330836 6.833165602906747 0 0 0
834 1 -1.2 25.98639208926461 1.542116411700898 5.9911338418396305 0 1 0
184 2 2.4 26.796019441526404 1.704402270335603 7.41241875260151 0 0 0
979 1 -1.2 25.59593612022947 1.9569009569611289 8.514687549856166 0 1 1
1097 1 -1.2 28.01435738826249 0.6849413067500076 7.546762951534547 -1 1 0
1133 1 -1.2 2.778455802571856 4.36177268026238 7.452719713671415 1 1 0
1753 2 2.4 3.706162050736175 5.5804142617809225 8.04176726601191 0 0 1
785 1 -1.2 6.572578791913252 3.369600250245966 7.4120425419752936 1 0 0
52 2 2.4 7.825332013569192 2.873535557852978 6.490868935295468 1 0 0
1318 1 -1.2 8.931409667731117 4.045251420565507 6.744975736913822 0 0 0
195 2 2.4 10.432754961917892 4.7290295045579125 6.481298331483426 0 0 0
150 1 -1.2 11.493422944858024 4.294462369655184 7.570509969300854 0 0 0
1383 2 2.4 11.423453379804611 3.065541067221764 8.734791980242719 0 0 0
2063 1 -1.2 21.197691017172584 5.006575025171534 5.382890122409357 0 0 0
2116 2 2.4 24.061277292074724 2.4620837237989033 8.199206804464344 0 1 1
1243 1 -1.2 24.119970570944965 3.8806637989356356 7.4480666845391434 -1 1 0
2002 1 -1.2 27.745332313557345 3.137934388835666 7.20318896673391 0 1 0
2087 1 -1.2 4.020428527145385 6.675537207616423 6.905849126853153 1 0 0
147 2 2.4 5.338969052295016 7.580886921657849 6.332158817398182 0 1 0
912 1 -1.2 6.222739735642047 8.182302918642499 7.510922589795446 1 0 0
630 1 -1.2 10.39830060582476 6.351586974783191 6.314985848737339 1 0 0
255 2 2.4 10.057081407942878 7.866229443305255 5.725902437081212 0 1 0
1649 1 -1.2 13.654306405033537 6.480411512902575 7.5954597536619355 0 1 0
807 2 2.4 15.297355540778383 6.948318510180537 7.738442070270725 -1 1 0
1248 1 -1.2 16.292882268329492 6.1630361632848745 6.751260317116853 0 0 0
409 2 2.4 21.19601146468645 6.459244263588616 6.245644673425206 0 1 0
945 1 -1.2 20.16364957901221 6.6286683844890755 7.529189174834434 -1 -1 0
423 2 2.4 24.067518047702922 5.433787694988948 6.639812659632962 0 1 0
552 1 -1.2 22.589652865455893 6.093517261092265 6.8435709242210505 0 0 0
1373 1 -1.2 25.241722261376662 6.370552867620627 7.33335388078619 -1 0 1
1981 2 2.4 26.022910283644944 7.595766191311714 6.560356060784394 0 0 1
2123 1 -1.2 27.456138668971047 6.997702737859599 6.099415241544349 -1 0 1
1757 1 -1.2 29.337736473118834 6.05295941121157 7.848259164294485 -1 0 0
806 2 2.4 28.97976952597064 6.258033565953041 6.343596670214764 -1 0 0
1545 1 -1.2 2.70946935440221 10.763309401152839 8.749239367341396 1 1 0
1104 1 -1.2 3.5604025138374915 11.191188743935484 6.062232232866686 0 0 0
136 2 2.4 7.773718974236548 8.669948634085417 7.601079517767487 1 -1 -1
1362 1 -1.2 7.899128822245757 10.26113429766215 7.781672382709614 1 0 1
56 1 -1.2 5.418312665938382 10.970191353207865 7.9133213572894086 0 0 0
1061 1 -1.2 8.664927621501697 8.444606561856764 6.2490555877795195 1 0 0
1229 1 -1.2 11.39350356301061 8.766462375626194 6.41122051171978 0 0 0
950 2 2.4 12.332525822621525 10.211334371353162 6.216948050899084 0 0 0
751 1 -1.2 12.541509298983566 11.068913126929477 7.765543031236054 0 0 0
522 1 -1.2 15.778056456699062 10.810993830000328 6.320842409870832 1 1 0
112 2 2.4 15.220166647890961 9.311199390560676 6.064772752683539 1 0 0
954 1 -1.2 15.389640322781618 8.54080599269716 7.5377787817715 0 0 0
1555 1 -1.2 20.372447105620537 9.07462227435435 8.505648548565032 0 0 0
1861 2 2.4 21.920762724424893 9.527002810517686 8.700864177139245 0 0 0
210 1 -1.2 22.271385613164316 10.230739795030479 7.063621336210825 0 0 0
791 1 -1.2 26.063081985592035 8.98856431857865 7.520935656120301 0 1 0
1343 1 -1.2 1.113677020325191 13.052909739399166 8.921646437151065 0 0 1
1730 2 2.4 3.882232706783953 11.372970588298386 7.724892417986002 0 0 1
908 1 -1.2 3.688072831033524 12.93225635315302 8.160544869386635 1 0 1
308 1 -1.2 7.1346802402255305 12.858506992962594 8.126272080930491 -1 0 0
1432 2 2.4 6.998551318573737 11.28149699126835 8.547520603237913 1 0 1
2046 1 -1.2 15.250174794388883 13.433150773422714 7.097934941177985 0 0 1
466 1 -1.2 17.78937757341224 13.108153600606673 8.02518589631305 0 0 0
1254 1 -1.2 20.15296788127071 11.635333410697847 7.476122042755339 -1 0 0
2005 2 2.4 21.53035813336287 11.568091576712987 6.404079048654901 1 0 1
1095 2 2.4 20.476608831543288 11.961070321501314 9.028342473654996 -1 0 0
1244 1 -1.2 22.3504802501131 12.929704919775537 6.738750343893982 -1 1 0
588 1 -1.2 24.447254258997557 12.991677025447245 8.559461721513737 0 0 0
752 1 -1.2 29.46969913078656 13.013902474704645 6.922049480771639 -1 1 1
1009 2 2.4 29.975845477531504 12.806336857492838 8.495537739695264 -1 0 0
1762 1 -1.2 5.308402351706096 14.638866139968206 6.983512007609675 0 0 1
759 2 2.4 6.290847939614045 14.31843219459974 8.258221180273859 1 1 0
1715 1 -1.2 12.231313283135842 14.113718888546801 6.8228894258756805 0 1 0
578 2 2.4 11.879077092409435 14.85135644616464 8.26262926267998 0 0 0
876 1 -1.2 11.093302273462019 16.262454922493504 8.115115781942832 0 -1 0
1877 1 -1.2 15.893347795988925 15.30822977227886 8.634900530539724 -1 0 1
231 2 2.4 16.545707368534554 14.210089865682658 7.744089176348188 0 0 -1
907 1 -1.2 17.133972223274974 15.139360749209246 6.506152455175759 0 0 0
1853 1 -1.2 21.563680443681008 16.341997431633857 7.009797869020755 0 -1 1
1502 2 2.4 23.325287684943373 13.863483406088868 7.880307977502659 0 0 1
238 1 -1.2 23.817945320280074 15.09387749337825 6.950202492025114 -1 0 0
76 2 2.4 22.997432173064986 16.224841664379817 6.187733831753817 -1 -1 -1
2147 1 -1.2 28.406206703956524 15.409274249915013 6.06347545561679 0 0 1
1326 1 -1.2 27.722815732262983 15.819046757388078 8.326034216686201 -1 0 1
1033 2 2.4 27.610146034059746 16.670838148160676 6.847074408194139 -1 0 0
405 1 -1.2 5.393863583881674 19.016326003627235 6.046337628143269 1 0 0
852 1 -1.2 6.177839471690901 17.638271070933076 7.863305371347337 1 0 0
123 2 2.4 7.675569228356177 17.008085708997832 8.165705147067607 0 0 0
927 2 2.4 6.084956364338285 19.24792558882935 7.462606387214227 1 0 0
1339 1 -1.2 8.713080855211143 17.00841249069379 6.883675862623324 0 0 0
952 2 2.4 10.395765880308506 16.942560131071765 6.810701368625713 0 0 0
2155 1 -1.2 10.806169102246706 18.487999630859097 6.72908387270471 1 1 0
512 1 -1.2 17.105376816242398 18.596084030013255 6.016104440354587 0 0 0
693 1 -1.2 19.368933423086208 16.37846866921268 8.444787775802276 0 0 0
208 2 2.4 20.063388640934765 16.997352161444375 7.016351193625523 0 0 0
539 1 -1.2 20.117363875587554 18.60199710995538 7.190102838228463 0 0 0
187 1 -1.2 23.761799283045093 17.770389451513605 6.196247328712928 0 0 0
1092 1 -1.2 24.736848212122204 17.920093732395173 8.7375192937706 -1 0 0
174 1 -1.2 26.031599022867304 16.964593082093607 6.543073829599416 0 0 0
122 2 2.4 25.06314565562138 18.17885916539826 7.123368896815536 0 0 0
1894 1 -1.2 28.55000515702445 17.918959348257314 6.874286408302157 0 0 1
1257 1 -1.2 1.9307294976174791 21.18195165310338 6.013624393619268 0 0 0
1360 2 2.4 1.725405808315231 21.57078129112869 7.560195260091166 1 -1 1
439 1 -1.2 0.6140839809716825 20.397232795208797 8.207975668656125 0 -1 0
1658 2 2.4 4.670879673608413 21.4554820604468 8.32081839973014 0 0 1
737 1 -1.2 5.407380250772865 21.720632848296287 6.933350605318161 0 0 0
1461 1 -1.2 3.07237350650427 21.365249296282276 8.289926187064525 0 0 0
1289 1 -1.2 7.620988535344909 19.765095832168075 7.363433505918403 1 0 0
72 1 -1.2 9.796743993848276 20.727277271616057 6.1884778223247325 1 0 0
724 2 2.4 8.573089179758469 21.12105250992092 7.021770775712756 0 0 1
859 1 -1.2 8.735027337795636 21.856865605121033 8.523212095153628 0 0 0
1724 1 -1.2 13.02517341950668 20.715970028897384 8.057038511729772 1 0 1
316 2 2.4 13.454422142255826 20.857268198027423 6.461138441138638 0 0 0
20 1 -1.2 14.446621926716125 19.686250358779446 5.97323777845609 -1 0 0
734 2 2.4 16.218596925955687 19.94414736645756 6.249602436039936 0 0 0
138 1 -1.2 16.009450255782127 20.3623346966817 7.970955186155788 0 0 0
226 1 -1.2 16.878728610030272 21.39954663915888 5.9049910988005045 0 0 0
725 1 -1.2 18.42656096061392 20.803778471178934 8.04152242196133 0 0 0
2102 2 2.4 17.157772121033442 21.639090780940187 7.5582961688580035 0 0 1
886 1 -1.2 19.777409736387643 20.78566720677376 5.698854199840825 0 -1 1
267 2 2.4 19.829599085192942 20.217941164426982 7.238715913901275 0 0 0
838 1 -1.2 21.196547979183606 20.930308316443707 7.970750010341217 0 0 1
651 2 2.4 22.39536762146209 21.911880734849454 7.530613694850306 -1 0 0
586 1 -1.2 22.878430904094973 21.597148591740613 5.902965752665594 -1 0 0
413 1 -1.2 25.231397106474407 19.705611800537124 6.812711468935061 0 1 0
1158 1 -1.2 28.041189799288833 20.58052486975827 7.038463434227066 -1 0 0
1233 1 -1.2 1.2191611937900482 23.130772879741258 7.641473646214228 0 0 0
1646 2 2.4 0.11372358032133321 24.160208556255675 7.1829830971004895 1 -1 1
677 1 -1.2 7.78490272804449 22.158134660567 6.042033439570902 0 0 0
967 1 -1.2 6.587228456725975 23.978191030125203 7.5356547763942965 0 -1 0
1957 2 2.4 6.413951795503068 22.95834959538525 6.343987680018599 0 0 1
1625 1 -1.2 11.197542956008146 24.019835624627184 6.760579819430165 0 0 1
638 2 2.4 11.664183237193367 24.276785421036873 8.339227606229912 1 -1 0
502 1 -1.2 12.824863972569965 23.369226424118676 8.869611083003896 0 -1 0
1471 1 -1.2 14.284216843478784 22.270506228016604 6.055992402408987 0 0 1
1919 1 -1.2 17.241832920437165 23.2733657932996 7.7208573583989235 0 -1 1
1407 2 2.4 18.02028499178177 24.393576634412696 8.585623053756557 0 0 1
320 1 -1.2 19.49760021210444 24.983600848259037 8.205565124740083 0 0 0
219 2 2.4 21.201190499246284 24.904463719614576 8.219060692180163 -1 0 0
1445 1 -1.2 22.00404566819817 23.53909571737636 7.7663993316948305 -1 0 1
1787 1 -1.2 25.89193822727952 24.38792835930932 5.2607501912188726 -1 -1 1
2160 1 -1.2 26.108409080489487 24.380026271808436 7.901127913550529 1 0 1
1490 2 2.4 26.003959614875576 25.421255791367095 6.553924560603518 0 0 0
1256 1 -1.2 29.57613627671949 23.58064904850748 6.126197999113595 0 0 0
2086 1 -1.2 29.773680952771514 24.86292679537276 8.452725792947499 0 0 0
1224 1 -1.2 0.6775093049772358 25.41021124230977 6.197662575517791 1 0 0
1084 2 2.4 1.2688217931938 26.813500482652387 6.633067158461934 0 -1 1
476 1 -1.2 0.88048087889528 26.864651391956258 8.22233808074108 1 -1 0
1305 1 -1.2 2.8439057474037073 26.781453739137447 6.095796671796683 -1 -1 0
233 1 -1.2 5.133956169426575 27.542378637780274 7.614396573809957 0 0 0
1162 1 -1.2 8.068927874711969 27.49966423251395 7.748159790863756 1 0 0
2131 1 -1.2 17.750676336719245 26.99103016460732 6.262902932443678 0 1 0
1563 2 2.4 17.426502974602577 27.28789019996487 7.763065768062017 0 0 1
91 1 -1.2 17.28783044569399 25.82166854020657 8.679359915544108 0 -1 0
1193 1 -1.2 21.77331064041705 26.11170709323218 7.30680482228843 0 0 0
2113 2 2.4 24.565668157501875 27.881548062915158 5.77792645639961 -1 0 1
153 1 -1.2 24.610226574344573 26.258518845135868 6.180036229782076 -1 0 0
1705 2 2.4 22.402714148410798 27.56040030272333 7.7169893625319625 0 0 0
720 1 -1.2 27.272466707576374 26.375873838428227 6.209134849418898 1 0 0
2047 1 -1.2 0.7452653144586596 28.225068236084873 6.023650055149819 1 0 1
188 1 -1.2 6.469854142723526 29.6825121779074 6.544955820926625 1 -1 0
507 2 2.4 6.5869968253864615 28.58430987778428 7.8057518901473015 0 0 0
417 1 -1.2 10.121432622909593 28.209526911194764 6.0936705740552055 0 0 0
1690 1 -1.2 9.438724583951082 29.801205080577326 8.308539141950087 1 0 0
1899 2 2.4 9.568320547142246 28.32752489270641 7.7184959917334615 1 -1 1
635 1 -1.2 10.778753363383965 27.70260714282544 8.46459750029124 0 0 0
1567 1 -1.2 13.41879509517516 27.997280419421926 7.888032041420451 0 0 1
271 1 -1.2 14.828168416822244 29.177412594712415 6.136803634434424 1 0 0
4 2 2.4 14.727514178281465 29.03880422807092 7.734497576246226 0 -1 0
2061 1 -1.2 16.169273205824993 28.42977721402297 8.129329446362096 0 -1 0
599 1 -1.2 21.11014197212459 28.635208286618145 7.878383268319973 0 -1 0
1863 2 2.4 19.695397760569275 29.099826197681306 8.592015014984408 0 -1 1
382 1 -1.2 23.53908443291982 28.464929251399226 6.825603060296184 -1 0 0
190 1 -1.2 26.090329009296017 28.51143624237508 5.750241740790338 0 0 0
1 2 2.4 29.789345937474074 29.065828696597137 6.159627939690307 0 -1 0
767 1 -1.2 29.163397839145635 29.102767896013066 7.605233955594862 -1 1 0
1887 2 2.4 28.864081727721818 30.319553337224246 8.655461031445853 -1 0 1
1263 2 2.4 0.9928744825840978 1.5397568725993542 9.783863486934935 1 0 0
533 1 -1.2 1.9092012501469127 0.6953048509929143 10.781634317474513 1 0 0
1519 1 -1.2 0.39709562468593107 3.030306368649823 10.24582678167021 1 0 0
1963 1 -1.2 4.501984450055368 2.3410465160430176 8.43951557540199 0 1 1
1352 1 -1.2 4.604669714906965 0.11347312453407372 11.26063946659146 0 0 0
121 2 2.4 7.8372014920930955 2.311672552533274 10.709626108562919 1 0 0
30 1 -1.2 8.668254493433821 1.6766076743433576 9.4171595410393 1 -1 0
2033 1 -1.2 12.886866976251529 2.621176306358648 9.15605709401517 0 1 1
817 2 2.4 14.194271461546368 1.758935400347734 8.753990207210578 0 1 0
1100 1 -1.2 14.90943275377745 1.927301696443342 10.303298111030442 0 0 1
45 1 -1.2 18.989965976490545 2.3492917055810985 9.069586812383422 1 0 0
2021 1 -1.2 21.133031195597855 1.8064423876943094 11.27931508068499 0 1 1
247 1 -1.2 22.969710682818317 2.362662887910902 9.35786550208665 -1 1 0
1570 1 -1.2 -0.09541783929598603 0.4848756035484967 9.232199472642176 1 1 1
763 1 -1.2 28.30823154571814 2.3014481869747385 11.26529020394794 0 0 0
845 1 -1.2 4.944011523078738 4.8126506908154365 8.762738465682503 1 1 0
327 2 2.4 5.787029444124087 3.4428888789884757 8.766633041351021 1 1 0
691 1 -1.2 6.623613365656853 3.306001826607872 10.148292617179948 0 0 0
1773 1 -1.2 10.663739951386292 3.8887254753473224 9.865129395680087 0 1 1
792 1 -1.2 16.296543814944314 3.6568254163014537 11.707526325143396 0 0 0
1952 1 -1.2 18.293210937976987 4.998030503241759 8.899346548656066 0 1 1
395 1 -1.2 18.85479262130846 3.8707462004190285 11.28350234609093 0 2 0
1804 2 2.4 19.149690384809478 3.822193548961821 9.722763035467844 0 0 1
1185 1 -1.2 20.887522455196397 4.206689350227927 10.072294123625532 0 0 0
352 2 2.4 22.008767302067604 3.0718226508642146 10.524362613053562 0 1 0
1331 1 -1.2 23.265144776980872 3.8856179182116612 11.26723059135148 -1 0 0
205 2 2.4 29.388707343584922 3.460000096711453 10.983950547792906 0 0 0
632 1 -1.2 28.49581206270655 4.372913851310115 9.897140675201484 0 0 0
1368 1 -1.2 1.6860443699160976 7.904082863193463 10.797644497833154 1 0 1
1933 2 2.4 0.09425818290587865 8.023425344636058 11.156266613503433 1 0 0
261 1 -1.2 2.848755571674515 5.931456131650025 9.337882072877061 1 2 0
592 2 2.4 2.67493443285209 6.590986013985385 10.91279525184822 0 1 0
1042 1 -1.2 4.062385796691674 7.191146273684726 11.549953109224482 0 1 0
1807 1 -1.2 6.6358111977319 7.516401365514699 10.849411583750474 0 0 1
278 2 2.4 8.204138875020213 7.622704158203073 10.460352451857828 1 0 0
728 1 -1.2 9.097310775444669 6.099023154951954 10.78707945661929 0 0 0
675 2 2.4 10.612395776926634 5.533202749807497 10.217970808569735 0 0 0
1830 1 -1.2 11.189201941049376 6.399653734255153 9.013486152085544 1 0 0
1575 2 2.4 12.727815003280861 6.941484113705482 8.895061498590211 0 0 1
828 1 -1.2 11.459081394129205 5.844047073227504 11.65698427181054 -1 1 0
90 1 -1.2 13.400379048325764 6.3895922336975675 10.205093305427765 0 0 0
1269 1 -1.2 15.923427372660584 6.25404723648152 9.116826444245124 0 1 0
1183 1 -1.2 18.138157812984403 7.661269450227634 8.943788293856288 0 0 0
462 1 -1.2 17.487277936669443 6.1294262013576555 11.260527455892962 0 0 0
434 2 2.4 17.4166406253258 6.248830552385641 9.62685144712622 0 0 0
1825 2 2.4 19.841001863072194 7.3567595220994315 8.835902903038832 0 0 1
564 1 -1.2 20.488785888933798 6.9602457895516885 10.247742722957875 0 0 0
949 2 2.4 22.002342189323027 7.604455113071506 10.55648885423664 0 0 0
319 1 -1.2 22.926492045561826 6.386514650854254 11.392660788974391 0 1 0
551 1 -1.2 25.167343764389642 5.611902456174059 10.358826015930527 -1 0 0
1226 2 2.4 26.284041276972935 6.814476072150227 10.537473526446812 -1 2 0
1451 1 -1.2 27.187852721576125 6.593501154285874 9.115138277954403 -1 0 0
305 1 -1.2 29.580419070830704 7.071349159735428 10.228454129739124 -1 0 -1
1612 2 2.4 28.67226178572564 5.92978527237189 9.346928821763267 0 1 1
1572 1 -1.2 -0.0981939482034964 9.607838583672423 10.746426712669082 0 0 1
1261 2 2.4 8.131642106162769 10.541059116792383 11.49868074849202 0 1 0
1241 1 -1.2 8.4447485583437 7.830450492471146 8.84789819978721 0 1 1
1279 1 -1.2 8.68117767186443 8.916786879692692 11.326317324027972 1 1 0
1514 2 2.4 12.694050630649523 10.158889775182464 9.130459467664629 -1 1 0
1978 1 -1.2 12.702355850925969 8.596786098385094 8.79156004599161 0 0 1
884 1 -1.2 14.159284139632675 10.270039114107998 10.017984858435076 0 0 0
67 1 -1.2 22.233636780261495 8.808622208031787 11.58469025087964 0 0 0
1076 1 -1.2 22.712581210451123 8.230572061536254 9.166496066591568 0 0 0
1511 1 -1.2 25.66184640317919 8.491598170646753 10.208748455822004 0 1 0
1732 2 2.4 26.177419849191228 9.565427276113622 9.113369812866912 -1 -1 1
849 1 -1.2 25.44109386609929 10.98153394002224 9.32253397774069 0 1 0
1794 1 -1.2 27.787998472273422 9.860491488913812 9.252688745485477 0 -1 1
457 2 2.4 29.049499348300014 10.522292909393785 9.96575051815823 0 0 0
1790 2 2.4 2.4886752063008073 12.472985699808273 9.154846531666166 1 0 0
761 1 -1.2 2.54988400568285 12.598990289810958 10.811154863678665 0 0 0
1714 1 -1.2 7.272793311366587 11.0638411137278 10.130704904395825 1 1 1
943 1 -1.2 11.509651410996954 10.238293494328717 10.25383828212524 -1 0 0
2079 2 2.4 15.725916840650997 10.600174700619993 10.78558038074384 0 0 0
259 1 -1.2 16.63426865296925 11.00514814736641 9.324831343829072 1 0 0
815 1 -1.2 19.0547264252093 11.565394520381409 9.985629978551286 -1 0 0
986 2 2.4 17.736977905795495 12.293251204902901 9.518648509564462 0 0 0
1749 1 -1.2 17.376884311126055 13.774788216269815 10.351033733627721 -1 0 1
1844 1 -1.2 21.744377740887586 10.994428802095454 9.60446621903368 0 0 0
1997 1 -1.2 20.480177960391263 13.495059240278389 9.309706683300346 0 0 1
1039 1 -1.2 26.9545485455087 13.349314766451204 8.918801714780713 -1 0 0
1144 2 2.4 25.673444202701535 12.532674794154655 9.397491973738239 0 0 0
415 1 -1.2 25.687892275068002 12.901293730114181 11.014156121424817 0 0 0
1686 1 -1.2 29.84422755067235 11.23636134108735 8.786631046529267 0 1 1
1964 1 -1.2 28.682219174976957 11.770380290235552 10.959933430193615 -1 1 1
2121 1 -1.2 4.9776826819407045 16.396713833241655 11.26223487099707 0 1 0
1608 1 -1.2 7.50173350394782 15.403774213046425 8.505559559169697 0 0 0
1172 1 -1.2 5.39746624283602 14.349897321029111 9.605004309081977 -1 1 0
1107 2 2.4 5.487183941140618 14.791515224182954 11.208177256917509 0 0 0
1051 1 -1.2 9.457296042755095 13.909749922590258 11.590713575884402 0 0 0
1027 1 -1.2 11.224584170213445 13.936911413909462 9.566653852897051 0 0 0
649 2 2.4 11.09419481794076 13.940575766979938 11.250319554740356 0 0 0
500 1 -1.2 13.302124911310262 15.42124459480185 8.775826291450255 0 0 0
222 1 -1.2 11.900938105236149 15.337363980652343 11.46855158963635 0 0 0
69 1 -1.2 14.708766707055727 14.606300014862589 10.859855834812032 0 0 0
517 2 2.4 14.742702058645943 15.658358121107996 9.546128844050251 -1 -1 0
1995 2 2.4 15.950954756246341 13.798624736835245 11.407007608577315 0 0 0
1271 1 -1.2 18.065618746610863 16.534264283593952 10.772222163776574 0 1 0
577 2 2.4 21.37541198353759 14.382851213241327 10.167665751402604 -1 0 0
348 1 -1.2 20.61678029057777 15.761832345548736 10.301155252880383 0 0 0
450 1 -1.2 21.560988482148723 13.656017694997526 11.609678449780729 -1 -1 0
282 1 -1.2 22.720959443031276 14.478604866695521 9.302580551433973 1 0 0
116 1 -1.2 27.592359653555878 15.087386333896818 10.969763846002502 0 -1 0
1925 1 -1.2 29.374354061044915 14.21603949587262 9.023175320457826 0 0 1
253 2 2.4 27.8667506212791 14.614610408633991 9.42565416823937 0 0 0
1327 1 -1.2 0.7871917565512879 18.96566648336888 10.556512810390576 0 -1 0
306 1 -1.2 6.856112825074052 18.103140111743976 11.734789241459591 0 0 0
2066 2 2.4 8.328359702987182 17.950019203680373 10.946395733401367 1 0 1
65 1 -1.2 8.322416820883864 17.905902350265976 9.307081378341698 1 -1 -1
1433 1 -1.2 14.791176563540615 17.186970253566752 10.113813579349682 0 0 1
1852 2 2.4 14.763840656493436 17.862600870323675 11.449600172195433 0 0 1
88 2 2.4 19.33726627318952 16.768146513192335 9.959369912519021 0 0 0
403 1 -1.2 19.905337331255847 18.33859412070365 10.039246144473989 0 0 -1
1150 1 -1.2 24.988998236740258 17.382333975858657 11.462038091236662 0 0 0
1131 2 2.4 25.231545482215164 18.39609385406239 10.218686314282943 0 0 0
1258 1 -1.2 26.906388997771575 18.418214212765392 10.088131426485413 0 0 0
1035 2 2.4 28.14641835685445 18.99349703019492 10.923452109945108 -1 0 0
895 1 -1.2 0.37793602591832387 21.593890935719077 10.731882578264322 0 -1 1
518 2 2.4 0.10206115784880646 20.241783013294633 9.756215601237097 1 -1 0
2070 1 -1.2 5.152627673732508 19.935681692986662 8.616041492727227 1 0 1
1178 2 2.4 12.775294774586307 21.76915522000518 9.250969368370887 0 0 0
1161 1 -1.2 11.10491904586772 21.825377356012236 9.73030194028109 0 0 0
419 1 -1.2 13.866183663237546 21.580850139995285 10.331259059687776 0 0 -1
1684 2 2.4 15.185381132128516 21.13824590233846 11.282025697262101 0 0 0
1980 1 -1.2 15.152779139625006 19.475695684881536 11.311292705656397 0 0 1
929 1 -1.2 21.63783533655595 20.055320231454512 10.736557944894361 -1 -1 0
1426 1 -1.2 23.421856671720015 21.460768911644102 8.640046729148562 0 0 0
1478 2 2.4 23.077944971414627 20.696554554663027 10.239693245505384 0 0 1
1663 1 -1.2 24.389330072856364 19.75308414359626 10.538683272177067 -1 0 0
1783 1 -1.2 23.435293052122564 22.044298676963905 11.027902819529606 0 -1 0
379 1 -1.2 28.978332662706183 19.93515503902085 9.875165704634593 -1 0 0
605 1 -1.2 5.0760668508339135 22.817014635595726 9.179196215364323 0 1 0
1370 2 2.4 5.864291560365811 24.154620997535677 8.840713036084178 -1 0 0
1223 1 -1.2 7.020763282741049 24.529814880729187 9.825741452542033 1 0 0
166 1 -1.2 10.174513482026166 24.310658467621504 9.02857210838213 0 -1 0
386 2 2.4 9.712315374125025 22.73133297996143 9.53614779285757 -1 1 0
498 1 -1.2 8.806017525925437 22.75087709200066 10.884643271794605 1 0 0
1074 1 -1.2 16.36101219611843 22.330443948582705 10.851317475636025 0 0 0
2119 1 -1.2 18.428213658439038 23.681508410496743 9.961254497632789 0 0 1
2008 2 2.4 17.455699490640967 23.45287431044527 11.264887801416402 0 0 1
186 1 -1.2 21.470830610070465 25.32854877967235 9.772558590492299 0 -1 0
773 1 -1.2 25.799490789086615 23.032802991386138 10.417440455243584 -1 1 0
880 2 2.4 25.701919161281225 24.51834441833481 9.550761811202412 0 -1 0
22 1 -1.2 1.2811953938173837 25.11020696564737 10.287162051510172 0 0 0
170 2 2.4 0.143022313042688 25.998570351246116 9.332537838195618 0 0 0
771 2 2.4 2.2889617160826363 26.39941777531478 10.916859098319648 1 0 0
1987 1 -1.2 4.676971977449957 25.300745161666217 8.80586216317875 0 1 0
310 1 -1.2 3.2741955748402374 27.2712603781523 9.717016356826717 0 0 0
1119 2 2.4 4.733182817386641 26.884222803255337 9.034395719563966 0 0 0
1536 1 -1.2 6.011862735886998 27.179123491859986 10.075077371967284 0 0 0
1774 1 -1.2 12.304617086262422 25.741006709412083 8.591928544734781 1 -2 1
1455 2 2.4 12.325205552804693 27.30295735765595 8.905874307226025 0 0 1
1203 2 2.4 22.87019729514494 25.9642140206182 10.094325462710895 0 0 0
1196 1 -1.2 23.26024585175984 27.201898706420394 9.106679387710614 0 0 0
1210 1 -1.2 24.11857399925411 24.735539654937455 9.659115413536213 1 0 0
947 1 -1.2 26.688084778437236 25.83215250896078 10.063593302576692 -1 -1 1
381 1 -1.2 29.23281206984982 26.643265580836466 10.008551991326826 0 0 0
1345 2 2.4 27.84086944289895 26.43988225049311 10.974528119133842 0 -1 0
2084 1 -1.2 6.857846449777005 29.51938454334367 9.198794525423843 0 0 1
448 2 2.4 7.025793758433462 28.390913332651575 10.346054314900469 0 -2 0
486 1 -1.2 8.670614177876619 28.28252428982647 10.754394293213256 0 -1 0
201 1 -1.2 12.793067516769963 27.84813796912114 10.323794618109346 0 0 -1
143 1 -1.2 15.201594669149761 29.724633615538647 10.732197676385976 0 1 0
1292 1 -1.2 18.666576096298336 27.978450535658528 8.40377177472347 0 0 0
1893 1 -1.2 17.827569975268442 29.46400223719002 11.400653660051914 0 -1 1
930 1 -1.2 19.955661599796784 29.0567217072258 10.240354726711717 1 -1 0
1996 2 2.4 19.287499319436506 28.805857654483784 11.650791180481647 0 0 1
769 2 2.4 26.87940236133267 29.537727711568124 11.203835965952306 0 0 0
1363 1 -1.2 25.181639652347272 29.83348120859587 11.320127215408093 0 -1 0
1307 1 -1.2 27.926218340289754 30.006870308970264 10.017521142166922 -1 -1 1
1875 2 2.4 2.0792340337391977 1.9414325979349834 14.019610275329333 0 0 0
631 1 -1.2 3.1192424749882233 1.5782971298786939 12.903744962489963 0 0 0
148 2 2.4 3.1518429154029306 0.2693403243224674 11.77790672575788 1 1 0
1236 1 -1.2 7.069363161866548 1.029704951929617 11.362124136259256 0 1 0
1221 1 -1.2 5.7154230506514825 0.14987681555242083 13.645228787602765 1 0 0
2089 2 2.4 6.007409127365349 0.009893664482949802 11.96375318229086 0 1 1
334 1 -1.2 8.434925517990957 1.8146205114060525 14.121668601904016 1 1 0
1501 2 2.4 8.886515417341903 0.32881001717739505 14.16169118902684 1 0 0
1727 1 -1.2 16.05710664594893 1.592543318505187 12.923106440739925 0 1 0
723 2 2.4 15.266410172678938 2.4577465794478885 11.778522851255381 -1 1 0
760 2 2.4 16.24441525432672 0.532776855045422 14.265398815302719 0 0 0
1276 2 2.4 21.410217436762842 0.6044519689039588 12.371161762029512 1 1 0
1821 1 -1.2 21.149420608290548 1.3337872359245462 13.763847597329491 -1 0 1
984 1 -1.2 22.983507509127882 0.4576458752027517 12.18575390646022 1 0 0
1316 1 -1.2 26.551732475162378 2.3443422327079357 13.567646638728421 -1 0 0
1351 1 -1.2 27.364840941663868 0.004694665117223542 12.470536325408142 -1 0 0
579 2 2.4 27.768097966951427 1.5642175509530836 12.700349524799655 -1 0 0
933 1 -1.2 28.974925608622137 1.490590081535896 13.833010740362655 0 0 0
864 1 -1.2 1.0473379113896368 2.9937376719895883 13.409661756807449 1 1 0
556 2 2.4 0.04536403326819741 4.174720496546144 13.861283022275064 1 0 0
1314 1 -1.2 1.2765737121247906 5.024825259498473 14.433853208019356 0 0 0
1364 1 -1.2 4.077533653875004 4.860996159593229 13.518387924052494 1 0 1
1717 2 2.4 5.743180499173347 4.912045311907294 13.87680727495087 1 1 0
1941 1 -1.2 6.546296970222555 3.4610454954146057 13.296062339093098 1 0 1
135 2 2.4 8.201110138735045 3.162903969770375 13.199394692228697 1 0 0
1014 1 -1.2 8.802767469106286 2.9312155261838964 11.760081737914522 0 0 0
1532 1 -1.2 9.259544777820736 4.361403898021824 13.77321439053294 0 2 0
488 1 -1.2 12.033510978923074 3.949119890398098 14.051970965678072 1 0 1
2138 2 2.4 13.550131065951609 4.4236863004254205 13.555129951391136 0 1 1
946 1 -1.2 13.978391436311078 3.0422253492121567 12.659958586572285 0 1 0
1624 2 2.4 17.550583607057558 4.645702394598181 11.828144829439225 0 0 1
355 1 -1.2 17.556388239961848 4.650207172216658 13.454405268359398 0 1 -1
591 2 2.4 18.837884684019816 4.832499604563933 14.372987075580024 0 1 0
1841 1 -1.2 20.01666599474166 3.700089020444332 14.325717992462497 0 0 0
1462 1 -1.2 24.61120416580375 5.205709717121562 12.92624004339865 0 1 0
1751 1 -1.2 29.498847843454648 4.40194068550284 12.398008564502843 -1 0 0
550 1 -1.2 -0.09980357542748113 7.961954472546502 12.744785872016237 1 0 0
1437 1 -1.2 2.084450357242641 5.573718508603069 12.089508030317303 1 0 0
3 2 2.4 2.7029586553821385 5.499790704469899 13.44052076722878 0 0 0
780 1 -1.2 2.957229111641263 6.844918965928433 14.214526202658233 2 1 0
892 2 2.4 5.531149317403372 7.45024634146913 12.041141983185916 0 1 0
2022 1 -1.2 6.226250854870613 6.399145016534937 13.183766203392386 0 0 1
28 2 2.4 12.843490325276177 6.627531125977612 11.68421461485578 0 0 0
1127 1 -1.2 13.065661606533073 8.266876557893143 12.118753806758727 0 0 0
33 1 -1.2 13.828813016046771 5.783462937718237 12.785890021890244 0 0 0
1164 1 -1.2 19.501247565314724 6.33634272162483 13.860494187686992 -1 0 -1
639 2 2.4 24.05137468173122 5.189798350502897 11.486834406888843 0 0 0
277 2 2.4 25.278039883176525 5.427996631135576 14.397543607957024 0 1 0
19 1 -1.2 26.938789589597818 6.998924122856031 12.00672233013109 0 0 -1
699 2 2.4 29.868078835001707 7.818638020265489 14.305370163600562 -1 1 0
851 1 -1.2 4.500691856715117 11.247123381431743 12.2491590502164 0 1 0
1301 1 -1.2 5.5582204505809605 8.772467065426538 12.87861722778516 0 -1 1
1538 2 2.4 5.5908599598757975 10.403405975375115 13.144682248780159 0 0 0
808 2 2.4 12.529653212665368 9.02110234413493 13.374895714007211 0 0 0
1313 1 -1.2 11.417496702132501 10.149694374589847 13.154021928033703 0 -1 0
408 1 -1.2 15.85305341542568 8.064405288489858 13.884547033970138 0 1 0
71 1 -1.2 16.42483736686906 9.47116963759157 11.645054293486568 0 0 -1
1836 1 -1.2 13.944442246309121 9.778338641209137 13.79802731050323 0 0 0
1393 2 2.4 16.98477526323481 8.962270085313149 13.124319577127503 0 0 1
527 1 -1.2 18.56093977678708 8.786682384667909 12.923967121685894 0 0 -1
376 2 2.4 19.700110859666037 7.9517513090717635 14.038642340024385 0 1 0
1699 1 -1.2 21.155841448184045 8.625209388751616 13.87627855638079 0 1 0
2044 2 2.4 22.37658567470682 9.306626980908794 13.057146407271738 0 1 1
1793 1 -1.2 23.77234301138735 8.702945188437747 13.536199629426871 1 0 0
196 2 2.4 25.040044843426088 8.547846969162453 14.515722271017603 0 0 -1
1835 1 -1.2 26.30911955352524 9.284807104362397 13.838232537852475 0 0 0
62 2 2.4 27.658717052445454 9.865655747396106 14.452098434325698 0 -1 -1
911 1 -1.2 28.808329349997734 8.885563922803454 14.813478023139808 -1 0 0
1442 2 2.4 1.1236013011613 13.414708967278774 13.913507330656731 0 0 0
1412 1 -1.2 2.4225588588128426 12.53951837525684 13.406639613771867 1 0 0
1167 2 2.4 3.5236622281821646 12.59084869248826 12.133611027169326 0 1 0
1053 1 -1.2 4.660359866614329 13.751060457547046 12.194912807718977 0 0 0
2146 1 -1.2 7.127022647358973 11.012005226320097 12.805782444518464 1 0 0
2015 1 -1.2 5.25731117139146 10.73537662031316 14.733077559195149 1 1 0
816 1 -1.2 9.573670583103171 11.192879691877826 11.664184257148293 0 0 0
887 1 -1.2 11.665059728433565 12.515911854815965 11.98492317601816 -1 -1 0
159 2 2.4 11.072009476761444 10.945120337411097 11.696945901300161 0 0 0
479 1 -1.2 15.661822610805906 12.148850154218955 11.478332196260563 0 0 0
281 1 -1.2 16.69623187560972 10.279382573528508 14.265003951577146 1 0 0
218 2 2.4 22.203452760350263 12.252720292822447 14.214756085086984 -1 0 0
2016 1 -1.2 20.52993695981772 12.540940853591689 14.124320474839164 0 0 0
1829 1 -1.2 22.498150917665455 10.960429435779597 13.235197407969853 0 -1 0
942 1 -1.2 28.4985244130545 10.724947968773453 13.392319130586504 -1 0 1
1293 1 -1.2 30.209526106914616 12.799591032956751 13.08773416112117 0 0 0
1489 2 2.4 28.775661711587357 12.192324375914609 12.624178809630259 0 0 0
460 2 2.4 1.7991900467797262 16.434099452083633 13.875445893248921 0 -1 0
1342 1 -1.2 1.144193264083376 15.007707251406643 13.667094015803217 1 0 0
263 1 -1.2 3.4445919085734533 16.225182537357092 14.003490854552926 0 0 0
729 1 -1.2 7.068644959269634 14.777673209320378 11.63284228062082 0 1 1
865 2 2.4 8.553126995131688 15.142340476615843 11.88994162723158 0 -1 0
1638 1 -1.2 8.727201529535229 15.51930793503975 13.510133231710885 0 0 1
461 1 -1.2 13.334892525058649 15.387718200175762 13.539940569431625 -1 -1 0
915 2 2.4 12.469114106178209 16.298031250310803 12.634275273977194 0 0 0
1481 1 -1.2 16.648081799492413 14.72662047245957 12.550862003053584 0 0 1
499 1 -1.2 20.64388129109048 15.343634767134107 13.15913692089584 -1 -1 0
1346 2 2.4 22.086767667128953 14.683003254696144 12.840523766433082 0 0 0
1523 1 -1.2 22.94813959688787 13.626423896655082 13.815878721968582 0 0 0
321 1 -1.2 23.027020395697814 15.871346959199903 12.170388454257022 0 0 0
829 2 2.4 24.604934323463752 16.181361173674166 12.496871284306128 -1 0 0
2091 2 2.4 26.6602400361976 14.067776259575414 11.83382841946966 -1 1 0
2036 1 -1.2 25.55376803101389 14.905140044165913 12.731190883725107 -1 0 1
2158 1 -1.2 27.56529126928789 13.273987939574427 12.983913302255452 -1 1 0
1533 1 -1.2 1.5366261590015304 17.263237580278293 12.505781887320332 0 0 0
1731 2 2.4 0.48870243497550886 18.382874973750376 11.994803036840082 0 0 0
978 1 -1.2 4.304005299443807 18.569207104441638 12.12872039631059 0 -1 0
565 2 2.4 5.558683226670605 17.51413673797691 12.30867923240234 1 0 0
535 1 -1.2 5.942492953880563 17.025961916176485 13.912975844786537 1 0 0
1124 1 -1.2 9.049065502145899 16.489715362396403 11.040543034242233 0 1 0
340 2 2.4 9.651472901133625 16.668034644172668 14.131343031914223 1 1 0
1691 1 -1.2 8.929236320540044 18.156161221878325 13.807514056275021 0 1 0
690 1 -1.2 11.093937139114809 16.843574286094405 13.438742965483014 0 0 0
1589 1 -1.2 13.261332025443137 17.686075635519327 12.13514781817363 -1 0 0
1413 1 -1.2 16.192970694227782 17.425187394790143 12.26554218419643 0 0 0
687 2 2.4 17.32993645662592 16.275977061999402 12.18532256671876 0 0 0
1721 1 -1.2 18.36564433842856 16.420374118519863 13.595373043225063 1 1 0
710 2 2.4 20.00618355092743 16.85718382958345 13.492487581102719 0 0 -1
103 1 -1.2 20.541265855696064 17.955968289232374 12.426153166383294 0 0 -1
1645 2 2.4 20.390030992762863 19.233737284550422 11.344930291422095 0 0 1
548 1 -1.2 24.429345901744114 16.81650985521442 13.980977941620395 0 0 0
162 1 -1.2 27.281755526280822 19.875533944308845 11.990303049430377 -1 -1 0
283 1 -1.2 29.266699467643104 18.01220538209499 11.607321430769877 0 0 -1
489 1 -1.2 0.29007132877294717 19.670089873559213 12.908513333044473 1 0 0
388 2 2.4 0.9280733627638407 21.14949883553233 12.265461210123203 0 1 0
1678 1 -1.2 2.476684982570727 20.517317300319554 12.144938815705045 0 0 0
733 2 2.4 3.9212223409460067 20.135109389661935 12.583762232358954 0 0 0
883 1 -1.2 5.081248831666053 21.266820831195865 12.182834530916084 0 -1 0
107 1 -1.2 8.415291899168597 20.847751591723544 13.831017153801158 -1 0 -1
1664 1 -1.2 8.920027466272849 19.39441194631609 11.576628519321421 -1 0 0
1093 2 2.4 9.345381523306338 19.649329376760495 13.259448076291653 0 1 0
969 1 -1.2 10.804699020507435 20.30931941085927 13.157180790744652 0 -1 0
595 1 -1.2 12.63415744572507 21.604418964954128 13.851928623761403 0 -1 0
608 1 -1.2 15.24270533490722 21.71138750604153 12.935659430425218 -1 0 1
436 2 2.4 18.905865946587202 21.474128014127686 13.234649858710629 -1 -1 0
1932 1 -1.2 17.64816630773588 20.73712240659166 14.050152578771955 1 -1 1
2141 1 -1.2 19.299543282457055 20.344292477803357 11.92227655270776 -1 0 0
1031 1 -1.2 20.392621663070408 21.544187606023037 13.728291827409194 0 0 0
433 2 2.4 26.384789434804038 20.248273097889793 13.262414527170522 0 -1 0
1483 1 -1.2 25.46516602101963 21.550764613655986 12.782417166193323 -1 0 0
1375 1 -1.2 27.568257880590178 20.850390191558898 14.362699309577131 -1 -1 0
1895 1 -1.2 1.0642886610885887 22.508916988427206 13.069038907092898 0 1 1
1240 2 2.4 0.6295676116694581 23.68909099923653 14.277503146320855 0 0 0
1037 1 -1.2 1.8401436771717021 24.864647516126116 14.104149171040632 0 0 1
1954 1 -1.2 4.212456507964212 23.642124944178562 13.400326447729826 0 -1 1
169 2 2.4 7.7589349904141915 23.88298243541839 11.271337511574014 0 0 0
1756 2 2.4 5.489256239449793 22.58172934454553 13.031383671443194 0 0 1
298 1 -1.2 6.499599870192386 23.393568653598567 12.16085528446712 0 0 0
1216 2 2.4 13.982756629047744 22.375598131638696 13.664146388995812 0 -1 0
1067 1 -1.2 13.940495772239784 23.818408689564805 12.823772942985778 0 -1 0
1596 1 -1.2 18.25030590096455 22.83244889464731 12.619533214103738 -1 0 0
1486 1 -1.2 21.974214059197227 24.735549474930966 13.763987386472571 0 0 0
2083 1 -1.2 24.246105539725455 23.994366029116392 12.660548459555686 0 0 1
435 2 2.4 24.730999183591145 22.606887605823474 11.808622389247684 -1 0 0
1366 1 -1.2 27.011569798352077 23.40041651792479 13.911594379421478 0 -1 0
331 1 -1.2 29.707369797104576 24.455801318843164 13.76020767150817 0 1 0
904 2 2.4 28.103774641974983 24.735911815859104 13.635637875318741 0 0 0
368 1 -1.2 1.4031942381906883 27.656728480147002 11.458858593042397 -1 0 0
544 2 2.4 3.3632815559998104 25.049798186514842 13.64081460756331 1 -1 0
607 1 -1.2 3.185600231778693 25.72804283279804 12.020545962218169 0 -1 0
1881 1 -1.2 6.957829784604276 25.671263064022707 14.064098848130927 0 0 1
1761 1 -1.2 8.568270912006314 24.947794747556813 12.211621412849615 0 -1 1
1417 2 2.4 8.44569346503681 25.89139104543405 13.493743271541797 1 -1 0
1163 1 -1.2 8.833910244817403 27.349804779380065 13.077612807408869 -1 -1 0
400 2 2.4 12.983869919946951 25.116132350345534 13.51245639310367 0 0 0
1927 1 -1.2 12.324939344877171 25.96753930704615 12.127393674634352 0 -1 0
1675 1 -1.2 14.032636073011425 26.04502811364431 14.169603386122784 0 0 1
2072 1 -1.2 17.12745117037189 25.031058349890024 11.60306118912273 0 0 1
111 2 2.4 17.453430939147907 26.39351608201688 12.221025610189146 0 0 0
234 1 -1.2 17.58469267677489 26.13575111839058 13.778734032012746 -1 0 0
2048 1 -1.2 16.31216266086258 27.483131279708875 11.910791003924652 0 0 1
1530 1 -1.2 18.889613126310824 27.349165422975283 12.103795674049776 -1 0 0
443 1 -1.2 23.20814984256685 26.10199735328641 11.773984513777126 -1 -1 0
1312 2 2.4 23.2802215564271 25.23540780292527 13.082558727734853 0 -1 0
1332 1 -1.2 23.807150309832632 26.319204853951636 14.319805003731854 -1 -1 0
784 2 2.4 23.485440409283605 27.94678241795463 14.498049602031431 0 0 0
1689 1 -1.2 27.788829044109328 25.329641721674953 12.165223946298648 -1 1 0
700 2 2.4 1.3347768458482412 28.722266113654563 12.690582408819836 1 0 0
173 1 -1.2 30.26179288242699 29.56908402326844 12.470278794513256 -1 1 0
909 1 -1.2 2.7990160132317294 29.366980138228996 12.486437046236395 0 -1 0
655 1 -1.2 6.245475876909843 28.924928150067647 11.770105705542703 0 -1 0
300 1 -1.2 9.375009756941493 30.111735649698744 12.769490769802962 0 -1 0
1480 2 2.4 9.434414586715864 28.58115501632393 12.17811858782352 1 -1 1
555 2 2.4 12.424839331572745 27.66065414937776 11.902005446801349 0 0 0
801 1 -1.2 10.935739300454557 28.439146809863143 11.971925278073433 0 0 0
2110 1 -1.2 13.340977958902645 28.289843793685538 13.1551008719253 0 1 1
2065 2 2.4 14.274038256092116 27.65798645763836 14.512556718483749 0 0 1
2095 1 -1.2 16.0629571242045 29.583243538830512 13.432208375731078 0 0 0
1792 2 2.4 16.27902775354548 29.21415679689202 11.805780779423346 0 -1 1
418 1 -1.2 20.451254574587935 29.78512040867754 12.426117372544043 0 0 0
1823 1 -1.2 23.738645692134263 28.55513828728679 12.99623193566212 0 -1 0
1780 2 2.4 24.267643588271078 30.11612231589753 12.570480690594085 0 -1 0
2117 1 -1.2 25.158880195037362 0.314414308630186 13.798183255278152 0 1 0
1635 2 2.4 29.919589726507816 0.12346700777258439 13.753847356302273 0 1 0
585 1 -1.2 27.316729765122314 27.851613483256262 11.532735841708734 -1 -1 0
1977 1 -1.2 0.9809244327088147 0.6876413656216421 14.225092891709185 1 0 0
1619 1 -1.2 1.965449381845655 0.6754323239694051 16.903791933498322 0 1 0
901 2 2.4 2.410431351206817 2.245857881318784 16.916799499634973 1 0 0
671 1 -1.2 2.7042215827862397 2.545797209755015 15.376577774837072 0 0 -1
264 1 -1.2 5.672297667412532 0.05129196266217156 16.19939385164526 0 1 -1
584 1 -1.2 10.322296812388752 0.6697009849516434 15.039324079170687 0 0 0
940 2 2.4 10.92855596249642 1.5721622668886786 16.27558224281049 0 0 0
1041 1 -1.2 12.687308033607167 1.5547767407902744 16.04522355822565 0 0 0
1347 2 2.4 14.255266823429498 1.347813180715355 16.556854254486005 0 0 0
330 1 -1.2 15.114115564662916 0.8239853768566127 15.353682994798863 0 0 0
1290 1 -1.2 17.814349347547953 0.2825594051490279 14.627035019926875 0 0 0
511 1 -1.2 17.862530068544874 0.703725875365143 17.227678600343424 0 0 0
469 2 2.4 18.79454319305625 0.645884563963864 15.918833374262471 0 0 0
606 1 -1.2 19.91938817132194 1.7439306573042987 16.087163159556983 0 0 0
569 1 -1.2 24.955420865305495 2.174954723323042 15.776174217256791 0 0 0
398 2 2.4 25.96451236723235 1.4399168479242697 14.836824499575403 -1 2 0
850 1 -1.2 27.170842679909498 0.7149646672715974 15.556625166350736 0 1 0
1007 1 -1.2 29.61232538584688 0.6324595989751574 16.957597498488443 1 1 0
1550 2 2.4 28.033568892203235 0.47721106995880735 16.981939863976024 0 0 0
740 1 -1.2 5.983474639846959 4.941207835535463 15.543252959095488 0 0 -1
709 2 2.4 10.7097228212424 4.519673544120182 14.779347958736182 1 0 0
774 1 -1.2 10.471229414947585 3.1654671999268458 15.906311540419138 1 0 0
490 1 -1.2 14.422385685910221 4.234574430147201 14.939316944611233 0 0 0
1603 1 -1.2 15.024355854471581 2.8320794732884793 16.72464257439366 0 1 0
1669 2 2.4 14.788361228624318 4.370205669409794 16.428586161354758 0 0 0
941 1 -1.2 18.41385750312713 4.7816647213901255 15.952815593645717 0 0 0
2114 2 2.4 20.927736071507997 2.4026372893970693 14.886694423004126 0 1 0
1423 1 -1.2 22.365873775025516 3.0237028869792013 15.34353501166295 0 0 0
1000 2 2.4 23.76266113679266 3.2528988862574058 16.043451550403823 0 0 0
2130 1 -1.2 24.576279208808838 4.554199166228459 15.608562662504697 0 1 1
1508 1 -1.2 29.290491737618417 3.9823260641409384 15.095994232953203 -1 0 1
2108 1 -1.2 0.8301400471863829 8.296263894980038 15.18664668281695 0 1 1
2017 2 2.4 2.353255551010037 7.749919599222149 15.427922822254608 0 1 0
6 1 -1.2 2.3938746655426955 6.932780033777801 16.939365378648038 -1 0 -1
482 2 2.4 6.349424492061198 5.360788123185186 17.072205861350255 0 0 0
1353 1 -1.2 7.25493511276667 6.854785555133559 16.94204037962026 0 0 0
130 1 -1.2 10.344690828443001 8.258620757974281 16.27653069391615 0 0 0
167 1 -1.2 10.51783165443228 6.0065130064684595 15.36349207589793 -1 0 0
2103 2 2.4 11.41742908485069 7.290171908574962 15.830345202746184 0 0 0
2098 1 -1.2 12.49817517823602 7.31977856161343 16.964755220810503 -1 1 0
1582 1 -1.2 15.910119801655583 5.628941485572854 16.55627967338727 0 1 0
467 1 -1.2 13.546465861171198 5.012393088971053 17.372153261099687 0 0 -1
1071 2 2.4 17.477526472693285 5.794883926315098 17.02939689971291 0 0 0
1474 1 -1.2 17.88502026904547 7.44019978072855 17.061253942491216 -1 0 0
1441 2 2.4 19.25589872333493 8.248114735040378 16.966137499546228 0 0 0
717 1 -1.2 25.20978751935166 6.929704628958288 14.991086321350945 0 1 0
2144 1 -1.2 26.674886388929156 4.791430347334501 14.609888080885142 0 1 0
447 2 2.4 28.231438351745208 5.273933665922984 15.158204691597248 -1 0 0
1099 1 -1.2 28.052862989200246 5.718547242249567 16.789755870331746 -1 0 0
1003 1 -1.2 29.12750575573388 6.423047214502884 14.548648340419913 1 0 0
5 1 -1.2 30.106521567106334 11.13859224735817 16.180970552271273 -1 -1 -1
224 1 -1.2 3.2384717211559613 9.064867997593604 15.433841347054127 -1 0 -1
961 2 2.4 4.725490106024679 9.749669044956072 16.027109980138228 0 -1 0
1106 2 2.4 6.846908566462998 8.3335164920259 17.154926580764087 0 0 -1
1554 1 -1.2 5.609850458161612 8.413271563915213 16.14026694670412 1 0 0
236 1 -1.2 8.128407492573187 9.390955792521336 16.992072400276008 0 0 0
619 1 -1.2 12.003919603742636 7.851724864676468 14.40795649553562 1 0 0
1515 2 2.4 15.317146466609348 9.453351421742248 14.673699891307523 -1 0 0
1434 1 -1.2 15.126085237340812 9.684223506485408 16.247110214376054 0 0 1
1341 1 -1.2 19.38338468629779 8.755106068558515 15.43612535134771 0 0 0
1775 1 -1.2 24.576999396762222 9.536911470453848 15.77551255321109 0 0 0
1983 2 2.4 23.812783462051687 9.303662210688431 17.208676547191924 0 1 1
288 1 -1.2 27.436537346468434 10.66609796393476 15.89780104782947 0 0 0
1285 2 2.4 0.7972052904066883 12.210582130460043 16.57431359324923 1 0 0
1781 1 -1.2 0.7157204850093593 13.484333028296245 15.476935103773638 1 0 0
1716 1 -1.2 2.3579840273956187 11.627138817439661 16.6730137865181 1 1 0
473 1 -1.2 4.7546083415552385 10.553338585704918 17.400810384247215 1 0 0
1052 1 -1.2 4.37246053029574 13.282168478907979 17.247407564427245 1 0 0
770 2 2.4 3.725256880178379 11.847262210399114 17.689121826547648 0 0 0
2059 1 -1.2 15.810359315736884 12.421818380641849 15.90671204686648 0 0 0
938 2 2.4 15.981647481738849 11.066264905936295 16.813440617192747 0 0 0
648 1 -1.2 18.146166422144553 13.723179469666684 14.829070585141961 0 -1 0
1602 1 -1.2 19.45468263981282 11.98439917472799 16.534764096097604 0 0 1
51 2 2.4 19.58206220796374 13.246364871940335 15.375062868447824 0 0 0
154 1 -1.2 22.54778308654224 12.306583899301284 15.781979215047851 -1 0 -1
916 2 2.4 22.638458323396357 11.978039706193488 17.27205861750222 0 0 0
520 2 2.4 28.617798563737892 11.200402203692573 16.89889220816699 -1 0 0
1722 1 -1.2 28.437218282078998 12.754854902429877 17.166154505581613 0 0 0
350 2 2.4 4.739513550967797 16.538252447738834 14.98771861806256 1 0 0
1733 1 -1.2 5.298779448547731 15.352459325839462 16.01540932839418 0 0 0
483 2 2.4 5.309842097775573 14.466138314660677 17.357329998566197 0 0 0
614 2 2.4 9.522558574505693 16.059901265087134 17.254265292209965 0 0 0
1917 1 -1.2 9.232031714417388 14.5466900898069 17.17051340559639 0 0 0
756 1 -1.2 12.974196283840744 15.300615879343487 15.988276512434751 0 1 0
1209 1 -1.2 15.512833685623262 14.824580178952417 14.741889576017877 0 1 0
458 2 2.4 14.121387537593849 15.523216500086725 14.877876572770548 0 -1 0
1334 2 2.4 16.69989526390471 13.837491645891639 15.56965605696315 0 0 0
1188 1 -1.2 20.20878339216987 14.684589790595012 15.961822472958909 0 0 0
1840 2 2.4 20.76089121474048 16.267387056343495 16.285712288517477 0 -1 0
1217 1 -1.2 22.32715920065516 16.239967528288357 16.693498662408487 0 0 0
1601 1 -1.2 27.771782943206627 15.191523486578 17.344223007358195 -1 0 0
1529 1 -1.2 1.3558726650950519 17.28980127949028 15.322543613183136 0 0 1
1670 2 2.4 1.8339595246451181 18.033578736944797 16.7166166079208 0 0 0
2013 1 -1.2 2.2840607726435667 19.519318350524628 16.258971488334794 1 0 1
521 1 -1.2 4.205789016530377 17.877170207063653 15.73551604088475 0 -1 0
758 2 2.4 3.8815822419563086 19.427322471319094 15.69765292482952 1 0 0
571 1 -1.2 9.769605547687476 16.81057745217178 15.826809115505824 1 0 0
1242 1 -1.2 12.770681368675989 19.182005504790986 15.140479427267133 0 0 0
1324 2 2.4 13.900404227794509 18.480923849748912 16.172855942358158 0 -1 0
1470 1 -1.2 14.60545747139561 17.303297390146877 15.163978396353608 0 0 1
814 1 -1.2 20.600250961148642 17.336291299859372 14.989031234136846 0 0 0
1296 1 -1.2 22.25446501599531 18.823789896888815 17.69255731683665 0 0 0
1548 1 -1.2 24.29722598683906 18.093113564396845 16.315877022319796 0 -1 0
472 2 2.4 23.137377080524406 17.51527502165878 17.272996050321662 0 -1 -1
109 2 2.4 25.217760777399093 17.724660088582628 15.099475888327209 0 0 0
1286 2 2.4 27.27431326341455 16.80477935523242 17.09653728810043 0 0 0
1629 1 -1.2 26.773284030554322 17.275693693277066 15.626181459472287 0 0 1
1064 1 -1.2 28.496083127459958 17.90311061008002 17.341887307883493 0 0 0
654 1 -1.2 4.328352844804184 20.06168012943795 14.35163866596802 0 0 0
1080 1 -1.2 4.807544939159677 19.87789247236658 16.935166273407084 1 -1 0
888 1 -1.2 6.923642918388745 21.08484236752257 16.347731179815298 -1 -1 0
1876 2 2.4 7.594294251283793 21.761545517737886 15.012921854191102 0 0 1
252 1 -1.2 10.795055171100982 20.83038730289449 15.778179984406155 1 0 0
580 2 2.4 11.791385518479121 20.43154594542028 14.493774979403739 0 0 0
646 1 -1.2 15.022240783990133 19.401413956544104 16.85716410294515 0 1 -1
378 1 -1.2 17.615526644397793 19.682175952263236 16.583289509450903 0 0 -2
590 2 2.4 17.471827067553914 21.056963501373822 15.639605547131113 -1 0 0
1278 1 -1.2 18.794831681451456 21.995203927443615 15.953487915808784 0 0 0
1642 1 -1.2 20.870387556229165 20.549648295279656 16.40327155166432 0 0 0
1994 2 2.4 20.302262569254477 21.744931073425196 15.432643568789812 0 0 1
337 2 2.4 21.9987239977487 20.365498341265404 17.548930487540538 0 0 0
1148 1 -1.2 23.32574003293994 21.085200462217102 16.848131835620215 0 0 0
272 1 -1.2 25.5040974799128 19.080887432516604 14.192678199386487 -1 0 -1
1389 1 -1.2 25.868324539135646 21.735144441230446 15.966118875825638 0 1 0
523 1 -1.2 29.592416908917766 20.335694558603027 16.494438765544036 -1 0 0
506 2 2.4 29.885183147319133 22.02339138455556 16.61332249426947 -1 -1 0
1101 1 -1.2 0.5531712442769163 22.634763934358542 15.446258760838305 0 0 0
576 1 -1.2 6.0914274701391244 22.218350504116874 14.503627517332484 1 -1 -1
824 1 -1.2 8.43630371034826 22.991799187038232 15.79138638959127 0 1 0
665 1 -1.2 10.402485499279319 24.235904233175148 16.787488872234473 0 -2 0
998 2 2.4 9.131336770950318 23.430477960789183 17.23403471903901 1 -1 0
1764 1 -1.2 16.10312852808474 21.772789534849593 16.068546772761398 0 0 0
24 1 -1.2 14.12429743856222 22.77669346493749 15.198136288029067 0 0 -1
2115 2 2.4 14.993173210666146 22.73395247606898 16.547709822203824 0 0 0
1029 1 -1.2 15.687478903798498 24.04793830139059 17.200176935844425 0 -1 0
906 1 -1.2 21.342254377800458 22.968185883522054 15.831559311348174 0 -1 -1
1695 2 2.4 21.308692306610407 24.5771501652022 15.343075078275605 0 0 0
1173 1 -1.2 24.287835169779587 23.660011321502846 16.513450234210552 0 -1 0
999 2 2.4 24.52045467981416 22.15260960520293 16.945393863113342 0 0 0
1130 2 2.4 27.11646800814314 22.34924952083374 15.09292855829515 -1 0 0
1662 1 -1.2 28.517115844008 22.731597735287025 16.021051529874835 -1 0 0
168 1 -1.2 29.683493106356302 27.0314219276583 16.09295117029016 -1 -1 -1
402 1 -1.2 4.196544013827878 25.863979165176115 14.802991506054711 1 0 0
158 2 2.4 5.715987856884328 26.457267697296956 15.069857229145633 0 0 0
357 1 -1.2 6.049286467413304 26.331477280214635 16.77991184852316 1 0 0
156 1 -1.2 9.626348248307549 25.58222939939191 14.503916234258508 0 -1 0
1610 2 2.4 10.70702495648217 25.161755948184936 15.448279063511643 0 -1 0
647 1 -1.2 11.181523833732655 26.632516964396256 16.139977512202474 1 0 0
2118 1 -1.2 11.986430123189267 24.44354019825306 14.566762276541015 0 0 0
1299 2 2.4 12.557323282585768 27.02519186863265 16.853559939706425 0 0 0
1989 1 -1.2 13.554114847200871 25.590665211235894 16.817307237152292 0 0 1
363 2 2.4 18.507480157873324 26.00444181914726 15.14788349062195 0 0 0
1416 1 -1.2 17.31944767308349 26.053812690017324 16.223364361512207 0 -1 0
918 1 -1.2 19.67811189331693 24.865754369729306 15.458798780339256 1 0 0
1542 1 -1.2 22.1471310587128 25.115419749541754 16.647989651388848 -1 0 1
698 2 2.4 23.648457857102198 25.044046291825715 17.080081069872946 0 0 0
1701 1 -1.2 24.67652722828712 26.239014819488876 16.669974463358553 0 0 0
84 1 -1.2 26.898442509120013 27.618056630698028 15.933051101958563 -1 -1 0
890 2 2.4 25.223918027273022 27.800266618713273 16.487529694892068 0 -1 0
102 1 -1.2 27.785091060437978 25.875713316259777 14.648004530632411 0 -1 0
2020 2 2.4 28.15970229330719 26.573060845384255 16.10372028594733 -1 0 1
2010 1 -1.2 1.0729551990652355 28.168080081068194 14.226702222711747 1 0 0
64 2 2.4 -0.01219102825524815 28.39375403196233 15.565575946648519 1 -1 0
477 1 -1.2 0.6780946415579666 28.90714653549446 16.889444635068404 1 -1 0
960 1 -1.2 5.7182311045413865 27.980291350402098 14.398698468716427 0 -1 0
531 2 2.4 6.27935025673517 29.665772058594253 14.785369440137158 1 -1 0
1414 1 -1.2 7.860873188795569 29.786477517877987 14.834957635149829 1 -1 0
1320 1 -1.2 13.334587087188119 28.18900884514687 15.889203914089652 0 -1 0
1109 1 -1.2 15.806822518840551 27.708689014282 15.16276223951364 0 0 0
988 2 2.4 16.49259609088592 27.455940576088555 16.6118818991385 1 -1 0
837 1 -1.2 17.464291495021833 28.596949225943938 17.02227565762644 0 0 0
1340 1 -1.2 19.583327660497915 27.24956372345723 15.175942191248325 0 -1 1
1159 1 -1.2 19.694964108824795 29.71329336469744 16.065216818449898 -1 -1 0
841 2 2.4 20.542176162418453 28.369921072235485 15.90907245544157 0 0 0
2082 1 -1.2 20.870019387382815 27.86443379336573 17.436567448433152 1 0 1
1796 1 -1.2 21.99335580474085 28.234918175053444 15.203244816704725 0 -1 1
1820 1 -1.2 24.568694397580856 28.78813756522507 15.381767548710636 -1 -1 1
1090 1 -1.2 29.28918218129932 29.54619947237712 14.961907050207104 -2 0 0
1371 2 2.4 0.501617532709126 -0.025403016796953195 17.501497976400493 0 1 0
1410 1 -1.2 0.6864982861844031 0.09951954728406073 19.174285887139796 1 0 0
1022 2 2.4 2.0723839346693813 0.017848057265391678 20.069150570569104 0 0 0
2039 1 -1.2 4.072043921014563 2.310778310174456 17.466782791190735 0 1 0
1179 2 2.4 4.6524347178596 1.8649256055269317 18.975126958863424 0 0 0
185 1 -1.2 3.3210251296318303 0.8849670399505878 19.386113342945723 1 0 0
1001 1 -1.2 5.996541426445833 0.7741411082087858 18.935121217795114 0 0 0
1868 1 -1.2 8.348556361488543 2.3341342465032864 18.300155116044387 1 0 1
762 1 -1.2 10.591402610070379 1.230099141073644 17.85512309596952 1 1 0
686 2 2.4 9.214997776119745 0.9508014158855527 18.620934161713866 0 1 -1
788 1 -1.2 9.214263652545958 0.9047750294763587 20.241696480584093 1 0 0
293 1 -1.2 12.507310390111803 1.7833991070201016 19.71146674797458 0 0 0
566 2 2.4 13.563041859717549 0.5939349416041604 19.543959073947043 0 0 0
119 1 -1.2 14.118715999190352 0.5187493874602815 18.021070839338055 0 0 -1
1019 1 -1.2 14.834963128376554 1.0131234609005626 20.508384576930634 0 0 0
176 1 -1.2 16.578311148248854 30.073260018452686 19.27415802328193 -1 0 0
1213 2 2.4 16.42013452580586 0.6573840013041975 20.545829192339 1 0 1
1791 2 2.4 26.52336152898756 1.452008164243947 19.24504637909505 0 0 0
1030 1 -1.2 27.484648034121182 1.751934374302113 17.961291194143335 -1 1 0
1556 1 -1.2 25.749470738592397 0.06148145047243208 19.062070709327678 -1 0 0
1472 1 -1.2 1.4838979595965842 3.2040077087948453 17.81660372487209 0 0 0
2019 2 2.4 1.5170579733809075 4.0559267596516575 19.14569146464216 0 1 1
1655 1 -1.2 1.5545428207326863 3.3630385554348834 20.60120672772881 1 0 1
1026 1 -1.2 4.959154699936436 2.8707551432983083 20.07302304675259 0 0 0
203 1 -1.2 7.041587588980855 4.491205523356122 18.18261604279967 1 -1 0
1142 2 2.4 8.312858842039276 3.8035288134275396 19.046635559490575 1 0 0
451 1 -1.2 9.759025693277245 4.722501370788906 18.874333111711024 0 -1 0
1013 1 -1.2 8.230862811478461 4.238089393250702 20.694178043603653 0 0 0
1310 2 2.4 9.910047315608569 4.72476623233618 20.53389551815878 0 0 0
572 1 -1.2 15.576467400683283 5.10763963732312 20.311349751230278 1 0 0
2037 1 -1.2 17.745718501396997 4.9600991338495275 18.375750404064625 -1 1 1
747 2 2.4 17.307708026393723 5.291138744480098 19.874933458000985 0 0 0
1640 1 -1.2 21.96113423210955 5.584933325608841 18.073840082211944 0 1 1
858 1 -1.2 21.67045891982602 3.122144112037186 19.87123889177133 0 1 0
1974 1 -1.2 23.32475994602588 3.2157629932250145 17.673224407959797 0 0 1
268 2 2.4 22.591649401047107 4.2004480754127895 18.7837679768107 0 1 0
669 1 -1.2 23.723268122452936 4.694792241235148 19.84423187118602 0 0 0
836 1 -1.2 25.24294849618675 2.363763306529402 19.462914083675095 0 1 0
1564 2 2.4 25.179884335696347 3.999777385698077 19.674994460727937 0 0 0
1004 1 -1.2 26.079613568290746 4.599113886139619 18.317926174158252 0 0 0
1544 1 -1.2 -0.010537840273082482 4.631367964805399 19.084111927624065 0 1 0
597 1 -1.2 2.5619673701202728 5.3113479803063655 19.03876314826698 0 0 -1
1149 1 -1.2 30.175217629774714 7.191301407461176 20.075907446714563 0 1 0
2026 1 -1.2 4.809241511365313 5.601013980846261 17.37886939257848 0 0 0
529 2 2.4 3.4077174624377764 6.353047276330757 18.049825984270385 1 0 0
1207 1 -1.2 3.9941096660537703 7.612217608501327 18.963667282153388 0 1 -1
1600 2 2.4 13.300535256305837 6.489113234354007 18.154423877000582 -1 1 0
1325 1 -1.2 11.885714865630632 6.3880879929520304 18.930130014823213 0 0 -1
1522 1 -1.2 14.58835375269874 6.9778944310539295 19.021730925153296 -1 0 0
2069 1 -1.2 17.681009302210697 6.930035785155215 19.88582375430087 0 1 0
894 1 -1.2 20.571648758593234 7.4566913421425935 17.457526133200265 0 0 0
601 2 2.4 21.912005816424372 7.115617919070222 18.197875128357516 0 0 -1
944 1 -1.2 23.105104717498428 7.740409178364499 17.13997279461305 -1 0 1
322 1 -1.2 22.186397628388487 7.599393307003095 19.62447353785091 0 1 -1
1198 1 -1.2 26.41063101878826 7.280538723349213 18.061569340341663 0 0 0
1190 2 2.4 27.111224579593763 5.849681075390363 18.10070090394618 0 -1 0
1913 1 -1.2 28.069153005374087 5.848239181466891 19.414307217292265 0 0 0
1168 2 2.4 29.577888227517978 5.628724219279008 20.077587187997416 -1 0 0
1970 2 2.4 5.277742900310522 8.21443543177162 19.68633510606654 0 0 0
1398 1 -1.2 6.311120561863136 8.69788144432554 18.72980520562451 0 0 0
86 2 2.4 9.77086758791199 9.176576673651711 17.372696169473922 0 0 0
1847 1 -1.2 10.47886971409932 10.669755874575612 17.48011016957213 0 0 0
2058 1 -1.2 9.92188832397946 8.551072836341401 18.882722267308647 0 1 0
70 1 -1.2 19.276608560971834 9.462951744770717 18.044363902500752 1 0 0
604 2 2.4 18.790528613482632 10.942341936028903 17.767118144683735 0 -1 0
1128 1 -1.2 22.605699785656743 10.314873070407703 17.5658998948218 0 0 0
1966 1 -1.2 25.055761465086473 9.622951125348214 18.446637804471678 0 1 1
1322 2 2.4 25.787636995414413 8.31387206545764 19.089625952859418 0 0 0
1463 1 -1.2 27.182380660002035 8.953356774607863 19.8485458548353 0 0 0
1227 2 2.4 28.362344115219962 9.982168648204299 19.89671734159945 -1 1 0
754 1 -1.2 28.505304103632053 10.314496794934882 18.260651791445177 -1 1 0
371 1 -1.2 29.695002507545 9.675445679677395 20.554836077606055 -1 0 0
1951 1 -1.2 0.5649836243720286 13.008407418503479 18.037443152732912 0 1 1
325 2 2.4 1.7816297401909906 13.353731172748496 19.122658578160014 0 0 -1
935 1 -1.2 3.0666209247276095 12.283813487300957 19.19605531888362 0 -1 0
428 1 -1.2 10.298886788733064 10.779084579197102 20.189735076056014 1 1 0
1630 1 -1.2 8.981441913751201 12.271128276250595 18.282224900831803 0 0 0
1012 2 2.4 10.39412821493648 11.644787400728337 18.733659617475027 0 0 0
1401 1 -1.2 11.656111005280836 12.655709709230438 18.72829002548875 0 0 0
1498 1 -1.2 15.376743279214676 11.328054795920412 18.251267742194575 0 0 0
2 2 2.4 15.586106931919723 12.334387381440026 19.538024300372687 -1 0 -1
993 1 -1.2 16.5513457214595 13.344950392716994 18.794497233046883 0 0 0
429 1 -1.2 17.462573375796044 10.527602767544682 16.956520964391068 0 1 0
1798 1 -1.2 19.23246210944966 11.898552271616536 19.027752147791528 1 0 1
1369 2 2.4 20.62124923469459 12.482929829561394 19.764836901846213 0 0 0
2064 1 -1.2 21.522490855311766 12.568757282040837 18.295503151171896 0 0 -1
1063 1 -1.2 24.071736642170325 12.781275266217778 17.47674853628823 0 0 0
805 2 2.4 24.82271704423984 13.609593165212752 18.662250616759533 0 1 0
318 1 -1.2 26.27197636403759 13.223721957300743 18.142679970267633 0 0 0
1245 1 -1.2 28.22946636100413 13.721500745959679 19.763798487869636 -1 0 0
992 1 -1.2 2.2706081933772198 14.883028922512716 18.702239410499036 0 0 0
2006 2 2.4 3.3651947121764625 16.10177096065961 18.77945893910333 1 0 0
1979 1 -1.2 4.746499679789572 15.443194779407898 18.731452926941202 0 0 0
1882 1 -1.2 6.873096338041584 14.143588443867793 17.87032240408624 0 0 0
1525 2 2.4 8.308600997811647 13.795977295727301 18.330878997085307 0 0 0
1206 1 -1.2 8.804435770377228 14.592308591409164 19.885962962629513 1 1 0
1477 2 2.4 12.662925339935853 15.956940450536491 17.437188987304193 0 0 0
688 2 2.4 12.729062671734262 13.750627398547506 19.48626470603452 0 -1 0
452 1 -1.2 13.339496072859378 14.802350431640296 18.48401790562523 0 -1 0
1747 1 -1.2 15.804289609679161 15.805155678708653 18.844036515449613 0 -1 0
1811 1 -1.2 17.08071670870974 14.932003706552724 16.785850739530858 0 0 0
1191 2 2.4 16.978225932913507 14.824986900435835 18.374832394964905 0 0 0
538 1 -1.2 18.204482776477896 15.421575057854549 19.400884822495847 0 0 0
1694 2 2.4 19.590432195308317 16.49799750786136 19.07752892433896 0 0 0
1355 1 -1.2 19.902726046465737 16.77252856341937 17.51863149976403 0 0 0
2133 1 -1.2 20.77125360034748 16.00292753096101 20.219660070235392 -1 0 0
1176 1 -1.2 24.452624674275153 15.176279394834491 18.625331902727005 0 1 0
1789 2 2.4 27.749749148669668 13.782960330949551 18.262976684912836 0 -1 0
1113 1 -1.2 0.47753392602691985 18.20385721653898 17.580460574855213 0 0 0
1102 1 -1.2 2.832186792117209 17.280940276283733 17.72902335622893 0 -1 0
2097 1 -1.2 3.250322028774957 16.928417037394823 20.230025480310026 0 0 0
966 1 -1.2 7.266359809902724 19.477802435636356 18.339813999278217 1 0 0
1931 1 -1.2 8.466909010662372 16.993637406563487 18.064632188961006 1 -1 0
1971 2 2.4 8.58715766211471 18.58724173165816 18.495945567548027 0 0 0
1541 1 -1.2 9.183892353395072 18.381204836867937 19.9767960315981 0 0 0
1962 1 -1.2 13.305520039767462 17.40348387631908 17.31846224873256 0 0 0
1277 1 -1.2 11.068105445846694 16.17853774476895 18.09488139838594 1 1 0
721 2 2.4 16.070725120384424 17.33063585628881 19.543324145445265 -1 0 -1
617 1 -1.2 14.539816348207811 18.02162625392913 19.97255295608081 0 0 0
896 1 -1.2 16.767902160113344 17.894916031228114 18.18496218363073 0 -1 0
1152 1 -1.2 19.120337721014458 17.880796408568884 19.649722928853006 1 -1 -1
965 1 -1.2 23.93477769294006 17.595231704967677 18.745841383704352 -1 0 0
928 2 2.4 25.03584991706499 16.581374837861 19.07713254441528 0 0 0
1580 1 -1.2 26.37796679879225 17.26868656618528 18.40781087632047 0 0 0
628 2 2.4 29.509215287282593 19.111033432853677 17.574038716530016 0 0 0
1077 1 -1.2 5.626767689109418 21.749241472017093 18.67370984975775 0 0 1
830 2 2.4 6.070677727248873 20.566117203986412 17.64877634449682 0 0 -1
1467 2 2.4 10.539846604824152 20.664215365435634 17.296260141333892 0 -1 0
1126 1 -1.2 10.054368154540295 19.12740234459236 17.860485342701757 0 0 0
704 1 -1.2 9.681910124489109 21.977207742665318 17.84208578864699 0 0 0
846 1 -1.2 12.08311414634623 20.516748450853292 17.819811614601328 1 1 0
640 2 2.4 13.071962413793218 21.462046508823125 18.744869940918434 0 0 0
1247 1 -1.2 13.587099922718071 20.154598538360883 19.506287780389016 -1 0 0
1273 2 2.4 16.334956721719866 19.352524464324926 17.63012622876706 0 0 0
1907 1 -1.2 16.432597727019658 20.40358140486979 18.872744512609156 0 0 0
844 2 2.4 21.516565739642004 21.349133596801305 20.404802351313098 0 0 0
679 1 -1.2 21.27825978291652 21.094901158152584 18.754238932509093 0 -1 0
1616 1 -1.2 28.96393786792269 19.765637363629896 18.87941937405212 -1 0 0
764 1 -1.2 0.2879674825594118 24.388157292768657 19.873921937554414 0 0 0
270 1 -1.2 -0.029070325032603157 22.485648995245356 18.095640909819547 1 0 0
541 2 2.4 5.349096392696506 22.19754143425596 20.264664302649724 1 -1 0
871 1 -1.2 5.346854432758583 23.809139898861925 20.14851824788428 -1 -1 0
329 1 -1.2 8.361477244743327 24.29749346767438 18.403741468725254 0 0 0
1622 2 2.4 9.069560782381831 24.4190895532865 19.8968774368241 0 0 0
1049 1 -1.2 12.260409743659643 22.442084631303615 19.7608745677923 0 -1 0
1246 1 -1.2 14.019038637310853 22.109630351694246 17.64143676502693 -1 0 0
672 1 -1.2 20.29652382259109 22.322868887317377 20.943733801832316 0 0 -1
374 2 2.4 24.582164247230672 22.204119747223967 20.071022636950605 0 0 0
1473 1 -1.2 25.03447523792409 22.17382501367844 18.57400081109784 0 0 0
1718 2 2.4 29.74166779365937 23.120812868186604 19.394528682029467 0 0 0
1805 1 -1.2 28.31855580460101 23.743695275574602 19.529573764986804 -1 -1 0
1739 1 -1.2 6.039176912844043 26.257230575101744 19.32680827003913 0 -1 0
554 2 2.4 6.679981538312693 27.102086281532678 18.15770664156559 0 -1 -1
164 1 -1.2 8.269778721555632 27.25198147144085 18.61013078771802 0 0 -1
389 1 -1.2 9.981637458256772 25.866882313666203 19.945985067935762 0 0 0
15 2 2.4 9.174407252638797 27.324299088195588 19.886967347339663 0 -1 0
1505 1 -1.2 15.418825150958451 26.90031363229874 17.73943216074783 0 -1 0
1239 2 2.4 14.880402904369644 25.299292999021326 17.8560919749941 0 0 0
1291 1 -1.2 14.513372734861582 25.07477357828992 19.496254009102326 1 0 0
1005 1 -1.2 16.933321673550036 26.246492049379714 20.021571218566255 1 -1 0
39 2 2.4 18.564435934771208 26.182730539497722 20.378512985960498 0 0 -1
953 1 -1.2 19.419522188070992 27.15626005999736 19.562631531927604 0 -1 0
1112 1 -1.2 23.63762076186624 25.053299016498155 18.72947679820103 -1 0 0
1143 2 2.4 24.809603578658393 25.050658460790675 19.813095600709634 0 0 0
478 1 -1.2 26.302741685432967 25.286352800978715 19.271973072327544 0 -1 0
491 1 -1.2 28.3626894189607 25.58921918333138 17.37551617768057 -1 -1 0
1396 2 2.4 27.972143224056012 25.218113565101394 19.000129271323402 0 -1 0
209 1 -1.2 28.64875685107578 26.38758390224515 19.800906977892335 1 0 0
1025 1 -1.2 8.11331334469325 30.290852615555156 18.003629288741244 0 0 0
47 1 -1.2 6.103717457409562 28.55715793763456 17.80391638042955 1 -1 0
532 2 2.4 6.357850266784506 30.270743913581743 17.66426300761671 0 -1 0
1409 1 -1.2 10.435572463728512 28.165259194192267 19.41014126005374 1 -1 1
1499 1 -1.2 12.51909935843698 27.623473673561833 18.330059879429236 0 0 0
1911 2 2.4 12.09527890376906 28.318712145818566 19.669911428084106 0 0 0
1184 1 -1.2 12.860345227014626 29.751337849664043 19.713056285883475 0 0 0
1777 2 2.4 17.796702151838975 29.86007306541158 18.095693622389557 0 -1 0
2154 1 -1.2 19.280257825301064 29.569058967494936 18.630656473600453 0 0 0
2080 2 2.4 20.301289275888895 28.345429892237473 18.89438544639014 0 0 1
2096 1 -1.2 21.35454862804614 29.02724895470854 19.917425981585378 0 0 0
1110 1 -1.2 25.375697332413125 28.213209536853856 18.150687669728423 0 -1 0
962 2 2.4 26.42627354965218 29.171848751083537 18.80488700537188 -1 -1 0
1942 1 -1.2 27.259496955097124 28.600205823759126 20.211670439015723 0 -1 1
53 1 -1.2 27.66096876949923 29.486987604190745 17.75675608518312 0 -1 -1
57 1 -1.2 1.4458223877812393 0.6786418364236424 21.500229159561588 1 1 0
925 2 2.4 1.8729927206247943 2.277338089190272 21.874990305089845 1 0 0
823 1 -1.2 7.788529806109101 1.486166745570917 22.218561028194774 0 1 -1
913 2 2.4 9.26167112744844 0.6692107618423171 21.76027997626143 0 0 -1
1365 1 -1.2 10.850152540781409 1.162782323577314 22.066928936145 0 0 0
914 2 2.4 11.85749625472785 2.267005333670627 21.20645722964234 1 0 0
32 1 -1.2 12.860347582565705 2.7717795001020096 22.38295213201751 0 -1 -1
2057 1 -1.2 15.219793944144605 3.542766174832059 23.290887292948867 0 1 0
581 1 -1.2 16.681540035569867 30.307431059914382 21.973566947900103 -1 0 0
23 1 -1.2 17.54813359421733 1.876132995046793 20.277591066668297 0 0 0
1788 1 -1.2 17.576037768517825 2.6303164863277586 22.753732285824814 0 0 0
695 1 -1.2 21.47760876134526 0.9881877480949754 21.040091017765842 0 0 0
970 1 -1.2 25.090371213600825 0.6697370000132897 22.009293496076914 -1 1 0
1587 2 2.4 26.594882734729126 1.2289549861003672 22.04908892544017 -1 1 0
1349 1 -1.2 27.429402233852553 1.541395729389808 20.573572949594393 -1 0 0
863 1 -1.2 0.9091633421957426 2.628046832310067 23.17045264234333 1 1 -1
2045 1 -1.2 3.5680032214230315 2.669838620573043 22.23023813171611 1 0 1
637 2 2.4 4.703535970827424 3.5705527530448555 21.517281394565433 1 0 0
657 1 -1.2 4.373558122050669 5.2075908129686015 21.367072304666465 0 1 0
361 2 2.4 7.06946215949695 2.7648322959963143 23.15751626371995 -1 1 -1
1121 1 -1.2 6.202147122880649 3.777360303648849 22.285744384716892 0 1 -1
1175 1 -1.2 10.839202977472151 3.5068742059130424 21.02290816451026 0 0 0
620 1 -1.2 17.93416542969505 4.556912663112216 21.05581073579882 0 0 0
1659 2 2.4 18.244252440370012 2.9806634846186064 21.3665568430245 0 1 -1
496 2 2.4 21.434883247838073 2.568409637205188 21.38583308482592 0 0 0
860 1 -1.2 20.000222907875763 3.172231220405105 21.76795881668867 0 1 0
2073 1 -1.2 22.584894692091257 2.7729835921496986 22.556532094438328 0 1 0
1692 1 -1.2 26.883892831336073 2.5475991878614512 23.02549415018602 -1 1 0
1822 1 -1.2 25.87176529733919 4.290077570964219 21.067271720141612 0 0 0
973 2 2.4 26.30243780923082 4.052625880034828 22.605192377262505 0 0 0
1249 2 2.4 28.920932570121302 5.5145548046660355 23.292233172092157 -1 1 0
1910 2 2.4 4.924120371032692 6.6527988583581585 21.913272323082417 0 0 0
1769 1 -1.2 3.6506964717003463 7.65603218146348 21.994440343330353 0 0 0
621 1 -1.2 5.8884197276337105 7.308959797366119 20.8320510157928 1 0 0
1656 1 -1.2 10.36251977821106 6.046320756039398 21.392713588032805 0 1 0
1707 2 2.4 11.704095129679239 6.771805053274666 20.45147448144001 1 1 0
1066 1 -1.2 13.14861591509148 6.299474235675055 21.124181834033323 0 0 0
424 2 2.4 14.762703974886476 6.4339622665986544 20.501034332264872 0 0 0
285 1 -1.2 15.71266586196799 7.55404374898261 21.377712310653926 0 1 -1
1765 2 2.4 17.31410062985781 7.972095818375616 21.145113200172066 0 0 0
778 1 -1.2 18.49306490293905 7.6347007244800995 22.30714615767374 1 0 0
777 1 -1.2 20.778186735545265 6.71988312019326 23.41662554506698 0 1 0
1535 1 -1.2 22.844491882370328 7.0230718315151135 22.05440170479542 0 0 0
1082 2 2.4 23.30443077744888 8.047943980613391 20.831546845612735 -1 0 0
454 1 -1.2 24.8959830636948 7.609027836986287 20.314187765081034 -1 0 0
1771 1 -1.2 29.386290997461565 5.435466197720006 21.73980676253642 -1 0 1
1929 1 -1.2 0.32689791017925823 8.449789559136594 22.58651474208726 1 1 0
465 1 -1.2 1.7440310366385594 9.061935938428716 20.50802089812257 0 0 0
1406 2 2.4 0.3026797437852315 8.480452843482531 20.948523920440103 0 0 0
1302 1 -1.2 4.541562451397927 9.58191551948371 20.31671391477704 0 0 0
611 1 -1.2 3.20563540699338 10.183665464174387 22.438734676604525 1 -1 0
843 2 2.4 3.2940241938298813 9.11349291099857 21.244104671431145 1 1 0
641 1 -1.2 6.860498793713725 10.438794815632901 22.715162478676746 1 0 -1
1597 2 2.4 10.04498376549128 9.201006044020696 20.31960725105657 0 0 0
1934 2 2.4 8.184426615112883 9.615990884011657 22.60505088581298 1 0 0
1973 1 -1.2 8.516046653095962 9.094236369093252 21.08676058915869 0 0 0
715 1 -1.2 11.38363420092073 8.318802470086588 20.79121902619599 1 1 0
885 1 -1.2 14.132507976539985 10.40213554231958 21.772551989745846 0 0 -1
926 2 2.4 15.925249104099722 10.400332619843136 21.745523601784278 1 0 0
1651 1 -1.2 17.114842411835557 9.582114853289458 20.87195547542003 -1 0 0
1458 1 -1.2 21.699568347775536 10.436868979969633 23.18285248347153 0 1 0
1378 1 -1.2 23.257456842450008 9.585477159582322 21.184865983037994 -1 0 0
385 2 2.4 22.451231599822886 10.815285044667412 21.87821152325566 0 1 0
802 1 -1.2 1.0637786372086506 13.595682189022627 20.624493193488696 0 0 0
367 1 -1.2 2.492583864943385 12.522696179358094 22.80304439925332 0 1 -1
1623 2 2.4 3.8163774911350616 11.618694048175326 22.82791296237023 0 0 0
1986 1 -1.2 5.105893134567341 12.116544800854788 21.8675776160351 1 0 0
124 2 2.4 6.647205268121727 11.957450297246295 22.367042225938143 1 0 0
2156 1 -1.2 7.762230210161426 12.461790320333705 21.2263772163506 1 0 1
736 2 2.4 13.310623694613186 11.122215073408851 22.99201896394422 0 0 -1
1294 1 -1.2 12.21157348056002 12.235450578541501 22.581884470246838 1 1 0
127 1 -1.2 13.974535895179432 12.826913189149105 19.80824631004057 1 -1 -1
1494 1 -1.2 16.131732086291358 11.776347299834033 20.873374362070233 0 0 0
1493 1 -1.2 21.56423057025714 11.465240662720483 20.661273054379368 0 -1 0
202 1 -1.2 20.215370254670937 13.71094430522048 20.690866951033414 0 0 -1
713 1 -1.2 24.27925613074953 13.218242413777201 20.201806845120245 0 -1 0
1594 1 -1.2 23.426684908270598 12.103254927817039 22.278112849382495 -1 -1 0
508 2 2.4 23.652413489359375 13.55960225820893 21.579560000042772 0 0 0
732 1 -1.2 27.36026967446708 13.475381453187193 22.245684297211067 -1 0 -1
1734 1 -1.2 27.640379221763876 11.283098541562508 20.827785990510908 -1 -1 0
74 2 2.4 28.13057462698721 12.724246472516596 21.010250860088682 -1 -1 -1
2003 1 -1.2 29.646148351670398 12.65508695037232 21.74190948800377 0 0 0
7 1 -1.2 0.8479566582934003 14.204215116763683 23.16714420145053 1 -1 -1
937 2 2.4 0.03804506842103251 13.965143358305017 21.812625798247733 0 -1 0
1736 1 -1.2 3.1580974904156016 15.083359095694163 22.1177746627845 0 0 0
360 1 -1.2 7.830434028232323 15.209972808927068 22.357068878668866 1 1 -1
1212 1 -1.2 9.909064368655347 13.536287501202862 22.128818328686997 0 0 0
853 2 2.4 8.583400433222943 13.953529776347358 21.416462183553715 1 0 0
674 2 2.4 11.550185229629331 13.640048209687215 22.40671384399426 0 0 -1
1854 1 -1.2 12.266281902716237 14.305437884963643 21.013020443365182 1 0 0
2129 1 -1.2 20.402350492449006 15.239085528033119 23.05676766245026 0 1 0
1036 2 2.4 20.877291673182807 15.035670195242487 21.545811757296974 0 0 0
1759 1 -1.2 22.38279747316752 14.451526710556383 21.72556071666629 0 -1 0
1385 1 -1.2 24.769526868026965 14.448643933632907 22.54271444126149 0 0 0
49 2 2.4 25.107198904782024 16.018979871402173 22.202671602503155 0 -1 0
714 1 -1.2 26.499952450230108 16.40232432441523 23.090443776802058 1 0 0
1404 1 -1.2 29.613949641981513 15.222311295116675 21.433794254679825 -1 0 0
1205 1 -1.2 1.291671381391022 17.044425206154294 21.714097668245962 1 0 0
1443 2 2.4 30.03646680838271 16.810813746293526 21.725408888486417 -1 0 0
976 2 2.4 2.85186727994183 16.69092494705431 21.698616424386 1 0 0
1953 1 -1.2 3.6361904423738816 17.724128018225567 22.70626989207839 0 0 1
1507 1 -1.2 10.77316719949172 18.270165349634237 21.844458617329213 0 0 0
1155 2 2.4 12.200459697220674 18.242496654379273 22.66163103802175 -1 0 0
1697 1 -1.2 13.56167401856632 18.928546987197908 21.991428389622833 0 1 0
1356 1 -1.2 17.102331823308155 17.50469930567847 20.880533213434788 0 -1 0
2128 2 2.4 18.44037724537833 18.291690771655965 21.03869379972003 0 0 0
1614 1 -1.2 19.34517566371251 18.14220688001144 22.33085509592832 0 0 0
416 1 -1.2 22.08897356814797 18.31835714179907 22.527199049831523 0 0 0
589 2 2.4 23.649846589480763 18.56388201441612 22.93718776487689 -1 0 0
1448 1 -1.2 25.30311234889741 16.453436204363033 20.67409772939572 -1 0 0
1282 1 -1.2 27.480926278628047 19.46940373212939 21.282492882704485 0 1 0
1617 1 -1.2 29.26511912366024 17.57695794948038 20.30059575825273 -1 0 0
1180 2 2.4 28.80083328687352 19.156974692181116 20.349771660452124 -1 0 0
1613 1 -1.2 29.624523179719137 17.48730800593159 23.05642524002027 -1 -1 0
54 1 -1.2 1.4713261354996003 21.180129977349917 21.787619661540624 1 -1 0
613 2 2.4 30.25240819066806 21.12615853039281 21.710405105608984 0 -1 -1
878 2 2.4 4.723510055473302 18.750097265346174 23.288067630567223 0 0 0
142 1 -1.2 3.914894213229245 21.53698292496946 20.856974757151956 1 -1 0
359 1 -1.2 5.888211535004011 19.327882517186996 22.38982200618547 0 0 0
1335 2 2.4 7.03134320301831 20.629406377457638 22.306151741108618 0 0 0
659 1 -1.2 6.499142439244102 21.420887536343212 21.05156532927324 -1 -1 -1
664 2 2.4 9.676040705253047 19.307612416090592 21.147871503461364 0 0 0
1869 1 -1.2 8.394833476522026 19.94535058032506 22.045703127829842 1 0 0
214 1 -1.2 10.501738120918425 20.638443393114404 20.797516570568867 1 -1 0
932 1 -1.2 11.827036735190676 22.626872109771984 22.258436525093977 1 0 0
1958 2 2.4 14.195667187817806 19.403691066049742 20.671314815726593 0 0 0
1044 1 -1.2 15.401442526602748 20.34956577678923 21.25528228609123 0 0 0
1153 2 2.4 16.803674977064254 20.798983604623817 20.426870808827275 0 0 0
509 1 -1.2 18.070813444086145 19.858537402007826 20.88625249470536 0 0 0
1238 2 2.4 20.77723739771114 19.155143655451504 22.27990171649974 0 1 0
101 1 -1.2 21.042589488068668 19.882077822334974 20.759414486266664 0 0 0
1146 1 -1.2 20.39578543434527 20.408933792693322 23.18034404966122 1 0 -1
1676 1 -1.2 23.028219362671233 21.74137192731698 20.70208258999277 -1 -1 0
1283 1 -1.2 24.99880175399619 19.265271082563622 22.247840691409706 0 0 -1
2122 1 -1.2 25.727356972118955 21.291273901464116 20.72370445033151 0 0 0
1562 2 2.4 26.30214387520692 20.269608719426632 21.83278500850257 0 0 0
296 1 -1.2 26.629842685968732 21.1953176073379 23.155230787775967 -1 0 0
1800 1 -1.2 30.11686250232297 19.485385836901283 21.290277826785978 0 -1 0
81 1 -1.2 29.53628402647521 21.443889100786667 23.14922366001193 -1 0 0
696 1 -1.2 2.3341987261286263 23.713996444084756 21.540382545495227 1 0 0
825 1 -1.2 30.26932535328138 24.61002568919949 22.765047236360854 0 0 -1
735 2 2.4 2.7179282965289286 22.149297186241103 21.663244106156018 0 0 0
1135 1 -1.2 9.82763467753506 23.105466534502973 20.451964234888493 0 0 0
160 2 2.4 11.112175855157128 22.163704343516688 20.87329419686034 0 0 0
312 1 -1.2 13.96719895185339 23.75721529412569 23.71627511550897 0 0 -1
1428 1 -1.2 15.472788365984432 25.105583103436114 21.90021375750164 1 -1 0
232 2 2.4 14.627841368911062 25.15438822234796 23.24720774934585 0 -1 0
1315 1 -1.2 17.502330017507102 22.375803004249974 20.50211511708948 0 -1 0
1528 2 2.4 18.813195540434467 23.12146977409887 21.14212695439693 0 0 0
237 1 -1.2 18.35879882377275 23.536582805802453 22.673511278894694 -1 0 0
1459 1 -1.2 18.87130611393662 24.555973687946906 20.219648149162133 0 -1 -1
776 1 -1.2 24.957438821804256 23.67609644242311 20.691791976464426 -1 0 -1
118 1 -1.2 29.738473977930543 22.01844385324327 20.472644747701697 -1 0 0
2152 2 2.4 0.9900411831349283 24.74258987902912 21.417309143591417 1 0 0
1784 1 -1.2 1.8362203969957613 26.283399157262025 21.716301925924697 0 -1 1
1838 2 2.4 5.211944732711731 27.362591486738314 22.707400442030615 1 0 0
743 1 -1.2 3.808544921607955 28.081182864918055 22.07736665614672 0 -1 0
1017 1 -1.2 7.745431794932823 24.618914981821714 20.861486269525308 -1 -1 0
474 1 -1.2 5.467441444249658 25.825900372164746 21.9655302840547 1 -1 0
1969 2 2.4 6.264402508862539 25.204553324573883 20.698749499002105 1 -1 0
560 1 -1.2 8.498914180174983 27.46244709745698 21.425186482725532 1 -1 0
1858 1 -1.2 12.369325161670346 27.506346663855766 21.006106521624563 1 0 1
171 2 2.4 13.517948618240029 27.697448775708995 22.04605725441959 0 0 -1
2106 1 -1.2 13.508049691766047 26.326983563505948 23.18210921173127 0 0 0
1778 2 2.4 15.391004029548766 26.02230045126772 20.573570044553275 0 -1 0
1999 1 -1.2 14.866327420058589 27.527741265976616 21.020269672282463 0 0 0
344 1 -1.2 19.01050259681767 26.432464711523497 21.949114883389008 0 0 -1
811 1 -1.2 24.528352611707327 26.434696004529936 20.779211045592024 -1 0 0
304 2 2.4 25.37865071783414 26.759946947702137 22.180498207272006 -1 -1 0
1939 1 -1.2 26.879479841693065 26.741440634840217 21.875686882406708 0 -1 1
855 2 2.4 28.127164792987834 27.35919227737305 21.065961893621505 0 0 0
1199 1 -1.2 2.14909491322115 28.859778792492584 20.439177675362583 0 0 0
193 2 2.4 2.2221864313789896 27.862734589811268 21.721385134486784 1 -1 0
126 1 -1.2 1.298570172526322 28.22601261733199 23.15619581993349 1 -1 -1
2134 1 -1.2 6.507695395887044 28.40576574812714 22.529672237766096 0 1 0
519 2 2.4 8.033037816786097 28.549411763745347 22.689618340919477 0 -1 -1
1738 1 -1.2 9.053050905192991 29.73961324504834 22.354409857979437 -1 -1 0
2120 1 -1.2 13.577015245569548 29.08197705162145 22.88735716993899 0 0 0
1088 1 -1.2 17.924524743881843 28.736715305865875 23.23445495756907 0 -1 0
616 2 2.4 19.26271934144712 27.81403260807535 22.88746534244725 0 0 0
1959 2 2.4 21.469757813402353 29.80942068592159 21.40042060964667 0 -1 0
2051 1 -1.2 20.05349970554005 29.00804303515288 22.121713738247102 -1 -1 1
1073 1 -1.2 22.73276079134788 29.473394876456524 22.342958875826834 0 0 0
1492 2 2.4 24.33338135244047 29.770580794815995 22.57556794145635 0 -1 0
235 1 -1.2 25.14443283787562 28.466081237674775 21.901451312823447 -1 0 0
1905 1 -1.2 29.178141818773184 28.012622302188053 22.004348124211607 -2 0 0
1503 2 2.4 30.105076531275973 28.10369943258074 23.38666767492256 0 0 0
1834 1 -1.2 3.819353541948908 1.5083334295227067 25.11375914350761 1 1 0
459 2 2.4 4.136877230836968 0.130851079100972 25.97113600541988 0 1 0
668 1 -1.2 6.039508338916515 2.3516665377874806 24.291339862900813 0 1 0
1079 1 -1.2 14.180757518240222 0.9308531068941986 23.682868074190175 0 0 0
99 2 2.4 13.92753024527376 2.578343969753072 23.619316032160963 0 0 -1
217 2 2.4 17.78662196102121 1.4498631834088922 25.822852348587247 0 0 -1
251 1 -1.2 16.659342816957746 2.6647969994051395 25.367141116810696 0 0 -1
1411 1 -1.2 18.159000562110602 0.6008957229431428 24.36243274540373 0 1 0
151 1 -1.2 19.256968121740858 1.8494872015762964 26.150014407895117 -1 0 -1
1195 1 -1.2 21.276360607306952 0.01049877624585234 25.86130407594851 0 1 0
1998 1 -1.2 27.43768312909265 0.20277824608266504 22.9843541170981 0 1 0
335 1 -1.2 27.80423862015808 0.4635289936239517 25.43824770084493 0 1 -1
370 1 -1.2 0.6157676322005707 2.997455629680648 25.869587567615554 1 1 0
1139 1 -1.2 1.784005029561731 4.878128957198968 24.246654191469663 0 0 0
387 2 2.4 0.7165412568122768 3.633269055596592 24.342302532970635 0 1 -1
61 2 2.4 4.858795666238937 2.748345167946576 25.300866015433794 1 0 -1
1745 1 -1.2 4.159600007473773 4.290610166752141 25.230517801124392 0 -1 0
1915 1 -1.2 8.51765755372466 3.2513543758084493 23.892555321465778 0 0 0
13 2 2.4 8.924494246876172 4.524231782664983 24.889485209981373 0 0 -1
1908 1 -1.2 10.55305580089555 4.200273284780733 24.962451046471067 0 0 0
1709 1 -1.2 13.224979263095687 3.1899732706767105 24.96087172662472 0 1 0
2032 2 2.4 12.051535189508067 4.214284803516715 25.61292951088659 0 1 0
2126 2 2.4 16.713323498115845 3.4091399081214013 23.868910872988977 0 1 0
1403 1 -1.2 17.285048021646176 4.7769784667084245 24.152512095110232 0 0 0
653 1 -1.2 24.653919099212985 4.250651947904209 23.230836833203604 0 0 0
1450 1 -1.2 23.5118928248721 2.6539659687839614 25.070135639292307 0 0 0
1839 2 2.4 23.307760368953875 3.6669157251683897 23.814899440242705 0 0 1
29 1 -1.2 22.500023901921093 5.036560426347289 24.09001265103491 0 0 0
1627 1 -1.2 27.270617974490168 5.210374851977916 23.109908744380974 -1 2 0
2027 1 -1.2 29.503556992301267 4.223304256657678 24.17014227878767 -1 1 0
1141 2 2.4 2.974274052644753 5.381303481960509 25.302829424221336 0 1 0
827 1 -1.2 3.1652163581680486 6.988935023597061 25.005211829798643 0 1 0
1208 1 -1.2 5.709790002208451 6.427624486199725 23.284720036695226 0 1 0
1816 2 2.4 6.974148725055426 7.154307746438465 24.145866100845627 0 0 0
1880 1 -1.2 6.698843717151323 7.8642215827521875 25.575684374622334 -1 0 0
1308 1 -1.2 8.113348906955917 5.796461442865091 24.42531589833752 0 -1 0
1818 1 -1.2 12.52902907989692 5.7639071453467405 25.78391591545657 0 -1 0
786 1 -1.2 15.958115400509998 6.2266488361002805 25.819853505826977 1 1 -1
1923 2 2.4 17.473525008396926 5.682559642079185 25.4302926266146 1 0 0
1665 1 -1.2 18.67264293688149 6.774118844314675 24.957336694072445 0 1 0
1491 2 2.4 19.40051706135584 7.500373127330713 23.67124875916624 0 1 0
1960 2 2.4 22.367430316409887 6.680941755291573 23.62186792503759 0 0 0
1181 1 -1.2 22.859789355765983 7.895556109527236 24.59833923346647 0 0 0
189 1 -1.2 28.98311681946601 6.90305205025957 24.15238793469714 -1 0 -1
951 2 2.4 30.03734859684447 8.210944756232669 24.10050793559719 0 0 0
1938 1 -1.2 0.7872353117763452 8.107218271038748 25.187888629350876 1 0 1
1540 2 2.4 2.409563596703014 8.295639297255448 25.612201094956614 0 0 0
1350 1 -1.2 3.035631595239684 9.671916310400606 24.95717705250477 2 -1 0
1766 2 2.4 3.9017633451852562 10.836330880426651 25.591723554765103 0 0 0
1808 1 -1.2 8.076853371561883 10.566102473415064 25.75637049351659 0 0 1
1637 1 -1.2 7.825789765969797 8.205341583538363 23.318326616122867 1 1 -1
2060 1 -1.2 10.389058949230792 9.277198575380002 25.590377940944254 0 0 0
1103 1 -1.2 9.334302361758816 10.434398840240284 23.21886070849859 0 0 0
623 1 -1.2 12.899655975563327 8.340165562736663 25.73156645273916 1 0 0
707 1 -1.2 12.397175692389032 10.053638371271715 23.81007609357768 0 0 -1
1083 2 2.4 12.087887854584979 9.604752845886301 25.349069595543135 -1 0 -1
1842 1 -1.2 15.729131708092915 10.621882284705485 26.123207530930163 1 0 0
1487 1 -1.2 16.576112002522457 10.341426516419185 23.18197797245401 0 0 0
1265 1 -1.2 19.61368803056136 9.035052582009603 24.575427187650213 0 1 0
1768 2 2.4 20.694183836181328 10.306753353490667 24.509616862898227 -1 0 0
1926 1 -1.2 21.803922091409326 10.164386383604674 25.796336153283228 0 0 1
1321 2 2.4 23.13736600347596 9.150762340678014 25.53517059122863 -1 -1 0
68 1 -1.2 24.346804808678602 9.92958069629537 24.67693554458684 0 0 0
55 1 -1.2 27.050564987203167 10.344110793040336 25.82054719916561 -1 0 -1
1819 1 -1.2 29.106175265154892 9.316089118898315 24.412711966581156 0 0 0
314 2 2.4 28.59704281679319 10.576146237391475 25.28919883093404 -1 0 0
1809 1 -1.2 4.517798635273979 11.553292328982288 24.316792309148905 0 0 0
1400 1 -1.2 6.856632805780398 13.010736086236893 23.730449777078107 0 0 0
242 2 2.4 9.437478590931184 10.57376000061162 24.879256265530437 0 0 -1
1440 1 -1.2 10.307708043757238 11.828036525082062 25.564855453481346 1 1 0
902 2 2.4 16.00574424626926 11.21489007211857 24.633754351162498 0 0 0
1712 1 -1.2 14.489728314245703 11.549567359652505 24.13276369917472 0 1 0
2034 1 -1.2 17.069444260780095 12.366043198563307 24.822204648266545 -1 0 0
1479 2 2.4 18.660072327040876 12.43046706750304 25.002103444558152 0 0 0
108 1 -1.2 19.763152217349962 11.604563184354907 24.158845300168093 0 0 -1
1096 2 2.4 25.70550060480391 10.974951145026282 25.205193519553912 -1 0 0
612 1 -1.2 25.841771629368186 12.137833438728888 23.990983630391476 0 0 -1
1648 2 2.4 27.331310802723014 12.964980461410686 23.764761513484213 1 0 0
1865 1 -1.2 28.56774607932501 11.951132617092759 24.329708454158467 0 0 1
1060 2 2.4 2.4776618018621117 14.107815200106213 23.16318966006956 1 0 0
291 2 2.4 4.563613768005501 14.807360384023943 25.265883480300445 0 0 -1
1903 1 -1.2 3.216471025062689 14.353878012780543 24.585618371506637 0 0 1
1581 1 -1.2 5.590090472311916 15.395537288441593 24.133865999430398 1 0 0
207 2 2.4 7.016089056940205 14.677549762926063 23.713062510895366 1 0 -1
1904 1 -1.2 7.815788277052227 15.038935870061481 25.18934163886422 0 0 0
1680 1 -1.2 10.296980232023248 16.20157735130736 25.343290002471473 0 0 0
627 2 2.4 8.96419535355727 15.740492084165126 26.154549789361635 0 0 -1
1485 1 -1.2 11.64086860025999 14.466023276249803 23.688343644183515 0 0 0
1874 2 2.4 11.790340939247843 15.827641282430072 24.562782768987883 -1 0 0
893 1 -1.2 12.715618298593895 15.27251309950989 25.823334632777257 -1 -1 0
775 1 -1.2 18.735234255647693 14.040891797718816 24.7699101079025 0 -1 0
1886 2 2.4 19.74746277332037 15.23323448129814 24.554549386990686 0 0 0
643 1 -1.2 20.889332475200472 15.12532734553975 25.734885787281364 0 0 -1
1038 1 -1.2 25.54042558878004 15.562691432159687 25.403524631846608 0 0 0
676 2 2.4 26.852258506753127 15.819638699225962 24.48125102231171 0 0 0
609 1 -1.2 27.715750460408564 14.438041954381118 24.425074978603288 0 0 0
738 1 -1.2 -0.11228738403787808 17.979200982500043 25.362919217950143 0 0 -1
1418 2 2.4 4.965679657832158 17.844135720379157 26.12578624517897 1 0 0
821 1 -1.2 3.8182940988551954 19.06215280309065 26.66579289957731 0 0 0
2157 1 -1.2 5.375123747925208 17.863797699497514 24.436499878326927 1 0 0
1956 1 -1.2 12.296894772080245 16.881859798918487 23.513598204374226 0 0 0
1338 1 -1.2 11.917544219554332 19.410468955635704 23.84790091634445 0 -1 0
105 1 -1.2 14.043118782565367 18.94684103833053 25.324212423270055 0 0 -1
757 2 2.4 15.559419807713004 18.94609602591819 26.115300953199597 1 0 0
1468 2 2.4 18.378446497000233 17.90788962337476 25.6908466489125 0 0 0
1857 1 -1.2 16.85101573676148 17.943605947436797 25.650705274429207 0 0 0
833 1 -1.2 19.04724422112135 16.624844223830326 24.706940785305758 -1 1 -1
1520 1 -1.2 23.940793783627473 16.946505565414945 23.058631761486673 0 0 1
1866 1 -1.2 27.80477290450309 16.960039125035227 25.19861049002262 0 0 0
1873 2 2.4 28.97857564408775 17.849469645119996 24.442355770924866 0 0 0
246 1 -1.2 2.5549111057031713 21.148731621948368 25.598932200566075 0 0 -1
401 1 -1.2 4.319435508042695 20.107393328665864 24.09800918750737 1 0 0
1309 2 2.4 3.683090966545971 21.593108131889704 24.431557291521745 0 -1 0
934 1 -1.2 7.004062072148545 21.487918330350528 23.68690361115654 1 0 0
494 2 2.4 12.53313299873212 20.153555099273504 25.12843943236868 1 -1 0
2132 1 -1.2 12.69944580791095 21.64027264938069 24.702537743528065 0 0 0
636 1 -1.2 16.030695794480213 20.543503545892108 26.120599229811024 1 0 -1
94 1 -1.2 18.988013974694553 19.403611406501657 25.245307317754648 0 -1 -1
1513 2 2.4 19.9309239103173 20.653126141450464 24.722992954353316 0 -1 0
840 1 -1.2 21.366364885550595 20.737592649343263 25.50616811899342 -1 0 -1
1735 1 -1.2 23.57536871335542 19.330788091141017 24.466723327341498 0 -1 0
1813 2 2.4 22.93036078715423 20.55342949925277 25.291411830345798 -1 0 0
273 1 -1.2 28.25622522412107 19.31205820073586 24.269164904210214 -1 0 0
2054 2 2.4 28.168818650279075 21.002575746354637 23.961592187280438 1 0 0
971 1 -1.2 28.253717862318016 21.75446680233894 25.33175410827699 0 0 0
995 1 -1.2 4.968097357785114 22.270977193100553 25.259530164914953 1 -1 -1
79 1 -1.2 3.071054749152541 22.57215361903641 23.288234810934686 0 -1 0
375 2 2.4 6.6614391119920375 22.434800698974403 25.037539655901682 0 0 -1
810 1 -1.2 6.897818050114506 24.145578842437384 25.01546815131635 0 0 -1
575 1 -1.2 11.615687080350481 24.041810264950165 24.826396766671476 1 -1 0
14 2 2.4 12.3821156477065 22.98041555072741 23.813933662307928 0 -1 -1
650 2 2.4 11.212075697538276 23.879512254820664 26.47175814817342 0 -1 1
1546 1 -1.2 16.334411949635708 23.16535806933251 25.783832299418183 0 0 0
1850 2 2.4 16.66645544402831 24.721082033891438 25.556241378577873 0 -1 0
835 1 -1.2 18.21689948180836 24.853238231736107 25.051386575213005 1 0 0
602 2 2.4 18.931751948624736 23.707507200610266 24.096286296403477 0 0 0
131 1 -1.2 19.261389511741267 22.121910821359585 24.623885987520378 0 -1 -1
431 1 -1.2 20.489399961853927 24.44390676614763 24.275896095325074 0 0 -1
1976 1 -1.2 23.69436955299986 22.088218468355542 24.945254052028233 -1 0 1
662 2 2.4 24.41621441281676 23.339207418516445 25.888733284735167 -1 0 -1
1253 1 -1.2 23.8278248623814 24.789320750562332 25.564726220533444 0 0 0
274 1 -1.2 25.958786895764554 23.304690097450635 25.571532576100616 0 -1 0
1947 2 2.4 27.57124516531752 23.18577909431442 25.72229255616717 -1 0 0
332 1 -1.2 28.34245023679384 24.27780225408038 24.632671795770648 0 0 -1
1392 1 -1.2 0.4357467013777241 25.020541341290578 25.465392368205407 0 0 0
1641 1 -1.2 2.500874528941059 27.171220139095073 24.97459306385842 1 0 0
75 2 2.4 1.4517710887418018 26.189872950330756 25.897337853596667 0 -1 -1
2088 1 -1.2 4.858384579326056 27.021415181532827 24.283648669044844 1 0 -1
2000 1 -1.2 7.562894358382983 26.65893120135383 26.509067953642855 0 0 0
183 2 2.4 7.013103545156569 24.995911339906197 26.44019037929133 0 0 -1
980 1 -1.2 9.78185523889001 27.472442663025287 26.146329982847526 0 -1 0
1737 1 -1.2 15.57279812813487 25.564952166216557 24.538316207846254 -1 -1 0
1849 2 2.4 20.77595428768853 25.968142461724433 24.964096169105538 0 -1 0
1571 1 -1.2 19.74977600028973 27.18610981175992 24.365917037565083 0 0 0
1856 1 -1.2 22.324858670180507 26.423345616764 24.724846399458382 0 -1 0
1300 2 2.4 23.93706035692985 26.290148002971588 24.888049868667963 0 0 0
1687 1 -1.2 24.551322970307496 27.527979135629373 25.86821954973737 0 0 0
1832 1 -1.2 24.97851067915445 26.10034985308084 23.619490985156776 0 0 0
303 2 2.4 29.724926771194653 25.06616076209767 24.134446774524744 0 0 -1
1421 1 -1.2 29.594414463749214 26.773445891116538 24.11091674938263 0 -1 0
1046 2 2.4 3.8872037223854967 27.861949901089414 25.354258773481188 1 0 0
882 1 -1.2 3.841198435909525 29.3605518669026 24.939449999334848 1 0 0
179 1 -1.2 8.348781420715497 27.867113677327662 24.211075528797455 0 -1 0
1599 2 2.4 8.250730904338532 27.902389720011595 25.82585328278944 0 0 0
870 1 -1.2 13.068207121877224 29.40926484362623 25.317749974210997 -1 -1 -1
1859 1 -1.2 15.941552398244543 29.496712271559524 24.43011447238659 0 -1 0
2068 2 2.4 14.198288822495725 29.86140866315981 24.242292751725476 1 -1 0
1888 2 2.4 17.144760452364203 30.048213734530698 23.454852656647063 0 0 0
922 1 -1.2 24.32276632912505 29.71660671612859 24.317235966897652 0 -1 -1
445 2 2.4 25.255169538643937 28.881192135169584 25.422846397978226 -1 -1 0
1268 1 -1.2 26.753167453087812 28.776287139337185 24.586871503236175 -1 0 0
1323 2 2.4 27.94856229589507 29.900719216752872 24.243450378265823 0 -1 0
804 1 -1.2 29.50042492362804 29.327629232139316 24.23584117547157 -1 0 0
1547 1 -1.2 1.0023512599167494 1.1844951259934053 27.970271190167246 0 0 0
1215 2 2.4 2.043960586040587 -0.05092828575161218 28.336868142371667 0 1 0
241 2 2.4 1.0841851253885937 2.8086338888894273 27.395668214864173 1 0 -1
1650 1 -1.2 5.2077379653223215 2.734519848320579 26.910050465105012 1 1 0
1785 1 -1.2 3.1569012147915707 30.260077230064322 27.149861881048498 1 -2 0
2135 1 -1.2 5.657461632597373 0.09480677278678967 26.6544450047364 0 1 0
213 1 -1.2 8.23923878085699 1.2546702337216227 27.28154436083796 1 1 -1
349 2 2.4 8.445763152648052 2.924462735387835 27.55739981764264 1 0 0
873 1 -1.2 15.234074046704455 1.6145535896117809 28.755972810864733 -1 0 0
889 2 2.4 16.750898460715096 1.84978940199598 28.483234716120904 0 0 0
546 1 -1.2 17.147424978079812 0.9732348221567826 27.19648522958822 0 0 -2
1729 2 2.4 20.265493589109152 0.6575819945365817 26.877043371572107 -1 0 0
1230 1 -1.2 21.02132132580639 1.2307216825788825 28.28017533126355 -1 1 -1
1639 1 -1.2 23.59165584673316 1.0628267411618368 27.560771435995218 0 1 0
1719 2 2.4 24.2317764375572 2.335201700057487 26.498879023438988 0 1 0
133 2 2.4 22.531979614745755 0.3205105866662642 28.561382214643004 0 0 0
955 1 -1.2 25.83980076839521 1.9081937555989419 26.15081204705999 -1 0 0
256 2 2.4 26.6607761783489 0.4914130642926616 26.641794405028314 0 1 -1
990 1 -1.2 27.268197077437744 0.5371149041285816 28.101400747853134 0 0 0
1930 1 -1.2 2.565558417989991 3.1387858562581 28.04558924717544 1 1 0
266 2 2.4 3.0056539823625057 4.756306423370627 28.072023040834956 1 0 -1
680 1 -1.2 4.632189598291173 4.812294079704038 28.131965458207084 0 0 0
1311 2 2.4 5.5734769100401325 3.4217402116496953 28.36287975369534 0 0 0
1748 1 -1.2 7.1057937260917905 3.3577044175219823 28.629513172163644 0 0 0
11 1 -1.2 8.406004539421454 3.8452747349446783 26.24755648034372 -1 -1 -1
1517 1 -1.2 9.886154745610854 2.7900950339628694 28.743079464651323 -1 0 0
1287 2 2.4 10.860369316773332 4.094669893998459 28.72147856070285 1 1 -1
536 1 -1.2 11.589290467215461 3.6857662372740645 27.202935196737407 0 0 -1
1943 1 -1.2 16.95054020790172 3.3377100724361264 28.127378637948357 0 1 0
1814 2 2.4 17.377264620266565 4.834662049318095 28.199759530523693 0 0 0
1376 1 -1.2 18.176533001031444 5.057135312733809 26.775677618519317 0 0 0
2067 2 2.4 24.212721836820585 4.853612304912514 28.814304075846383 0 0 0
1763 1 -1.2 24.089108220198597 3.6494355269665544 27.60449021696368 -1 0 0
545 1 -1.2 30.02851951644411 3.374534289776342 28.188808422171633 0 -1 0
727 1 -1.2 2.2408821619921713 5.28317626067035 26.74382757822839 0 0 0
1810 1 -1.2 2.3886994060597964 5.666131422307606 29.121969705542636 0 0 0
875 1 -1.2 6.256809057492741 6.643538883617184 28.01384947950856 0 -1 0
1358 2 2.4 7.248283680648357 7.809914202874832 27.08408966996786 0 0 0
2023 1 -1.2 9.959313409280833 5.477564616421863 28.821497499087297 0 1 1
1068 1 -1.2 8.91768302622387 7.31348759685553 27.1670585288362 0 0 0
146 2 2.4 10.001940418956837 6.909729421796842 28.355832787378272 0 0 0
1255 1 -1.2 11.543670846771725 7.222912132524245 27.782388840118003 0 0 0
1922 2 2.4 12.81683559400438 7.060480564756249 26.697746996535948 0 0 0
525 1 -1.2 14.149509673346996 7.054497375007816 27.53137015669096 0 1 -1
856 2 2.4 15.71802172888073 6.99088911866708 27.312415923791544 0 0 0
1618 1 -1.2 16.38622473552245 6.007649241353542 28.52223646401168 0 1 0
1746 1 -1.2 21.258029263772222 7.842994517730203 28.45834702727882 -1 0 0
897 1 -1.2 23.239418731115805 6.048449205421838 28.380252195586742 -1 0 0
1720 2 2.4 22.862602136615727 7.678679022889602 28.299190298439658 0 1 1
1918 1 -1.2 25.808581370145056 5.2647044037274275 29.126665750088826 -1 0 0
2024 1 -1.2 27.273194872118896 7.183544583037705 29.65923154522443 -1 1 0
1059 2 2.4 2.00845314385871 9.061684118872346 28.629858009856616 1 0 0
480 1 -1.2 0.3942492430403368 9.450006815847237 28.195300409164194 0 0 -1
492 1 -1.2 2.871204215687724 8.633104087095802 27.232294129106226 0 0 -1
1872 1 -1.2 2.8328768477516038 10.606210390073366 29.19429266830761 0 0 0
1028 1 -1.2 5.270468050631589 10.128277168713689 26.30913333249582 -1 0 0
959 1 -1.2 7.188996530101998 9.184951916782387 27.814561476173157 0 0 0
1348 2 2.4 6.783804699280018 10.477129197477417 26.737787557527966 0 0 0
924 1 -1.2 12.3345597568204 10.667763171477532 26.519544120428595 0 0 0
820 2 2.4 16.2800004820119 9.954990139063094 27.436332987473527 0 1 -1
390 1 -1.2 14.993975014787738 9.719162572253408 28.453439530958196 0 2 -1
501 1 -1.2 16.676354019603508 8.263190410456346 27.275055033389247 0 0 0
475 1 -1.2 17.475782613801005 10.754820570402213 28.199518515541104 0 0 -1
753 1 -1.2 18.874725297102756 7.8771544307474 29.501192458102146 0 1 -1
294 1 -1.2 19.86679492491783 9.991003720137307 28.079789569042443 -1 1 -1
1395 2 2.4 20.202451125198692 8.812556983768895 29.186154315865785 0 0 0
1147 1 -1.2 23.573900055828148 8.309354202337735 26.99243253302833 0 0 0
1916 1 -1.2 23.358420669198402 8.43218639725339 29.51969378678819 -1 0 0
1431 2 2.4 24.230198639265105 9.926634419929412 29.43611882682537 0 0 0
377 1 -1.2 25.720772504570263 9.554499171303398 29.331146392441163 0 1 -1
645 1 -1.2 29.340691323887786 10.718597552510184 26.61338799153161 0 0 0
543 2 2.4 29.451450763508564 10.319865512559215 28.1304263919755 0 0 -1
1137 1 -1.2 1.557236413290516 13.033405075414485 28.665977131691086 1 0 0
1425 1 -1.2 3.1436206732642606 11.810633138522233 26.644912869950765 1 0 0
1576 2 2.4 2.9805158196877546 12.94790544623821 27.996940971842196 1 0 0
920 1 -1.2 4.557990073084573 12.927013410076858 28.67946681253943 1 -1 0
1955 1 -1.2 6.793105248020804 11.92927323264729 27.55971743696604 0 0 0
697 2 2.4 5.848264955630819 13.324611334117954 27.800844387005228 1 0 -1
1961 1 -1.2 10.55577031178665 11.679668196831868 28.142547746524603 0 1 0
1982 2 2.4 11.309954391616696 11.99910750001518 26.776815243175786 0 0 0
1723 1 -1.2 12.110370463528774 13.362610773373369 27.27633802985297 0 0 0
1604 1 -1.2 18.921281783414102 11.708837814093949 26.3448483137742 0 0 0
182 2 2.4 18.894109586096636 11.42089281074565 27.8862747023955 0 0 -1
1559 1 -1.2 19.23800002727238 12.827367623857192 28.67034994787245 -1 0 0
968 1 -1.2 23.60068268145659 11.137922847961741 28.57257831060203 0 0 0
438 1 -1.2 22.685420260722292 13.198931789625954 26.81092904674109 -1 0 0
626 2 2.4 23.88419154803031 12.371052366083909 27.505398748755702 0 0 -1
848 1 -1.2 24.799224905331396 13.329740666250476 28.476123587270408 0 1 -1
718 1 -1.2 24.760944010941433 11.7687776383227 26.38291557600004 0 0 0
983 1 -1.2 29.66215854447302 11.722673075252416 28.79759955210426 -1 -1 0
2035 1 -1.2 2.848673887355152 14.374525690598992 27.17576072113369 1 0 0
1527 2 2.4 2.811829555475264 16.096798175906 27.40724991155062 1 0 0
2050 1 -1.2 5.485293286961656 13.841296102998877 26.335197582977 1 0 0
1280 1 -1.2 6.972870794398 14.261958888882942 28.687723023370424 1 0 -1
1848 1 -1.2 9.179196742331925 14.332357684210848 27.013299260918494 1 0 0
181 2 2.4 8.646236522602425 14.202868226909771 28.601464060395863 1 0 -1
1032 1 -1.2 11.50130193343771 16.112899076048826 27.648934870742348 0 0 0
1465 2 2.4 12.504371350559493 14.88853827005178 27.320517429535567 0 0 -1
2011 1 -1.2 13.685857304054217 15.278038695365833 28.417930000284564 0 0 0
165 1 -1.2 18.850226688700204 15.477672121158177 28.994686673385004 0 0 -1
862 1 -1.2 21.121852220262863 14.827496440809735 28.33585756590568 0 1 0
748 2 2.4 19.83919169096815 14.205375554454077 29.313226332725165 0 0 -1
484 2 2.4 21.912124104453405 14.716696422537003 26.898122835398713 0 0 -1
537 1 -1.2 23.130295091738244 15.867409814294664 26.733854356237682 0 0 0
1831 1 -1.2 25.364194250672266 15.939850378240553 28.055623356194598 0 0 0
373 2 2.4 25.413087298843195 14.760164152126503 29.20385483591603 -1 0 -1
921 1 -1.2 1.6187444747659439 16.782496418747307 26.532216662341195 1 0 0
1058 2 2.4 0.4813252076221231 17.979270967961675 26.77833991854287 1 0 0
178 1 -1.2 4.277512939117888 16.2044721799673 26.146854245205258 1 0 -1
1435 1 -1.2 3.403201370037043 16.724005061947622 28.710293161868414 1 0 0
798 1 -1.2 6.008730336027057 18.218482136031895 27.085106816469445 0 0 -1
172 2 2.4 7.493171912321651 18.08780121589095 27.902764867240755 1 0 -1
1390 1 -1.2 8.231642175359022 17.216916396812312 26.751483461491905 0 0 0
1595 1 -1.2 6.817871991869234 17.285324879634214 29.188568907656876 0 0 0
1045 2 2.4 10.845589959474344 16.578008680121947 29.205404771208865 1 0 0
872 1 -1.2 10.572492914524485 18.165160432847003 28.635038568583607 0 0 0
765 1 -1.2 13.267458581684215 18.488544132470683 27.940886738853706 0 0 -1
313 2 2.4 11.768633812085158 19.27277726805947 28.03987084583622 0 1 -1
369 1 -1.2 15.736439403539746 18.560432860214913 27.75608448870656 -1 0 -1
2042 2 2.4 14.504631104264124 18.739998334249556 28.88953671303357 0 0 0
1303 1 -1.2 18.889154282024545 17.555408403558083 27.34843426467343 0 0 0
25 2 2.4 19.279823256459842 17.069315733360398 28.804883730128637 0 0 -1
1891 1 -1.2 20.797856127513977 17.3519112427941 29.076147127932423 0 0 0
1633 2 2.4 24.71807237080574 16.373352778120136 26.61692419739212 -1 1 0
1008 1 -1.2 23.329006753067258 18.354969455698548 28.400189611632406 0 0 0
712 2 2.4 24.417937253593827 19.127623679278148 27.554809064195517 0 0 0
790 1 -1.2 25.007158740062682 17.994065792870185 26.475065545682515 0 0 0
1679 1 -1.2 29.626833835149338 17.7938815528698 27.899339426433333 -1 1 0
323 1 -1.2 1.13963588330352 19.407270526140262 27.158168322914246 0 0 -1
1935 2 2.4 2.5768498157629876 20.130357107072786 26.772957222276183 1 0 1
1495 1 -1.2 3.053457147731541 21.078624636580507 27.99791754489267 1 0 0
1609 2 2.4 3.925126005188218 21.722466393753855 28.971535539587702 1 0 0
347 1 -1.2 7.394464739390159 21.77763425851494 26.433814910198734 1 0 -1
17 1 -1.2 8.172821459659481 19.455981469102188 28.447571629318684 0 -1 0
593 1 -1.2 11.731662542918727 20.000465015851297 26.51996235180195 0 0 -1
279 2 2.4 16.196927028796903 21.964514740668903 26.796287612301427 0 0 -1
656 1 -1.2 14.796274927130861 22.348393872187327 27.554998309222533 0 0 0
456 1 -1.2 14.59431637180888 20.35347077014757 29.592384627192082 0 -1 -1
563 1 -1.2 17.74228625573257 21.406415296749287 27.468746931071312 1 0 -1
573 1 -1.2 20.12092238596839 21.6714963533431 28.609436811301038 1 0 0
1776 1 -1.2 23.629096765975696 20.27871571001737 26.656598796992434 0 0 0
2004 1 -1.2 25.75067900157039 19.806711728935998 28.243767267704637 0 0 1
716 1 -1.2 27.869339515470816 21.463092530998814 29.188056154562233 0 1 -1
311 1 -1.2 5.2203458397743265 22.827453512030104 28.802951388942095 0 0 -1
455 1 -1.2 7.604288290143032 24.01578888705092 27.75468078530202 0 -1 0
2153 1 -1.2 8.749021231944292 22.10657157224818 28.84065057029447 0 0 0
175 1 -1.2 9.859977050409794 22.880377985468403 26.46255133611373 0 -1 -1
2150 2 2.4 8.44309126706541 22.735941523542387 27.35357470256327 1 0 -1
1211 1 -1.2 12.327101474332546 23.035903657852998 27.2671343937419 0 0 -1
1108 2 2.4 13.708587842589257 23.580700732888236 28.159993420566234 0 0 0
1319 1 -1.2 13.971985769434259 25.160586405239464 27.998536119054346 0 -1 0
1827 2 2.4 18.751093600507907 22.373318732123423 28.25714844902267 0 0 0
113 1 -1.2 19.12698309996011 23.80208565070955 27.614323374181758 0 -1 -1
59 1 -1.2 21.797631213570234 24.231646702686856 27.78297992548675 0 -1 -1
115 1 -1.2 24.279522928085647 23.125350653266263 27.496680744368515 0 0 -1
1672 2 2.4 23.043420380562914 23.514469058555026 28.447400805993915 0 0 0
1634 2 2.4 27.892511730578555 23.12074951455499 28.900072235916088 -1 0 0
610 1 -1.2 28.006965817093626 23.475474237767987 27.259324263374644 0 0 0
583 1 -1.2 0.35323129493701044 27.092181438347627 26.85441957161928 0 -1 -1
276 1 -1.2 2.65547095549946 25.44044882136704 26.926305725260214 0 0 -1
78 1 -1.2 5.399436597197301 24.948198467658226 26.69000456456002 0 -1 -1
2137 2 2.4 4.1141558235791935 25.824444106141268 27.27867999228362 1 0 0
42 1 -1.2 4.192820491820447 27.516792271820403 27.043455437598546 0 -1 -1
1136 1 -1.2 3.8822824917381453 25.329799452883055 28.875045260486594 0 0 0
905 1 -1.2 10.465560628009232 27.14448602107926 28.833229161099183 0 -1 0
1357 2 2.4 10.842348179169806 27.05566474691408 27.272257815264016 1 0 0
31 1 -1.2 11.230797201493589 25.513347436068234 26.99950463413591 0 -1 -1
1509 1 -1.2 12.26293465427148 27.94293723344699 27.17281715642031 0 -1 0
1192 2 2.4 15.191189520529946 26.037944748383964 27.79364643796665 0 -1 0
287 1 -1.2 14.800895409308199 27.669899773066394 26.837047602945578 0 0 -1
1968 1 -1.2 16.431924429491236 25.4416143483498 27.10968803649848 0 0 0
177 1 -1.2 19.574444508924334 25.737633078595863 29.06828533895301 0 0 0
1949 1 -1.2 20.55414115072792 26.082747525085928 26.526977660223565 -1 0 0
1708 2 2.4 20.25383162155107 25.069215003267896 27.779287486524982 0 0 0
249 1 -1.2 1.291395222777377 28.973216583372245 28.490910625478243 1 -1 -1
1693 2 2.4 0.05307232840845923 27.974733905632398 27.980346905761113 0 -1 0
975 2 2.4 7.236617495563586 -0.12578155223997053 27.36356525100156 0 0 0
1591 1 -1.2 7.39412090734082 30.043784524647982 29.09452084058356 0 0 0
441 1 -1.2 7.9343334930205085 29.323528495979755 26.46495529326354 0 -1 0
446 2 2.4 13.558921137425157 28.769979504387592 26.756420206886197 0 -1 0
1688 1 -1.2 13.592221184069848 30.241080009219953 27.574609254807505 0 0 0
328 2 2.4 14.636818590801761 0.030726944412416326 28.79359507498928 0 1 -1
2099 1 -1.2 15.944220175788372 29.507104010172444 28.72105320683689 -1 0 0
1704 1 -1.2 19.568030801402113 29.760383592911666 27.865269966813 0 0 0
442 1 -1.2 22.05534277147715 29.223079188248583 28.75772150131594 -1 -1 -1
93 1 -1.2 25.658373063660225 29.85186229473242 26.692075751358868 -1 0 -1
1284 1 -1.2 29.106023586922873 28.924351793025547 27.82923307331415 0 0 0
505 2 2.4 28.11852519401984 29.821445615168134 28.75585457713673 0 -1 0
1500 1 -1.2 0.7720997081603245 0.23838517586520694 31.29729589442044 1 0 0
510 1 -1.2 2.883201327491934 0.6152650179811728 29.560607499092676 0 0 -1
557 1 -1.2 4.038872233578508 1.437205665387689 31.734833635533672 0 0 -1
1742 2 2.4 3.7847509397316585 0.09727109354368695 30.878353879580807 0 0 0
440 1 -1.2 6.875316494808365 -0.0967782529305993 31.74866920867918 0 0 0
1266 1 -1.2 17.968726945688946 1.6264485169973064 29.675527021270486 0 1 -1
997 2 2.4 18.7856341056995 0.9824045956642261 31.003889727692563 0 0 -1
307 1 -1.2 17.638193669006416 0.28927854419620924 31.88537913382189 0 1 -1
1543 1 -1.2 19.698023087311466 2.147535543066149 31.795449892084243 0 0 0
726 1 -1.2 23.384895812799957 0.7305882191522566 30.054050021595206 -1 1 -1
110 2 2.4 24.171212750076805 -0.03388649795747125 31.209941740002847 0 0 -1
46 1 -1.2 25.502692626421783 0.8296162103000351 31.978849033507267 0 0 -1
781 2 2.4 29.727600917402683 0.9040552275868663 31.29085689449499 0 0 -1
2159 1 -1.2 29.5060643096579 2.3038967077951003 30.55288608977157 0 1 0
822 1 -1.2 28.834583245968457 30.26911150974608 30.146902153126195 0 0 -1
819 2 2.4 1.4412441753675351 4.667309492655916 31.933798739434913 0 0 0
464 1 -1.2 2.646278560359201 3.549731527947701 31.310909135758816 0 0 0
1054 1 -1.2 0.1908044741483361 4.542837126075959 30.929326229213814 1 1 0
1713 1 -1.2 4.6860694414796855 2.851171139653778 29.547530257080993 1 1 -1
1802 2 2.4 4.165372374960189 2.929986934171635 31.037424782837164 0 0 0
1833 1 -1.2 5.297309900041245 3.549579366692543 32.11588899054963 1 1 0
1047 2 2.4 6.327084299097041 4.665748836257843 31.740173868362085 0 0 0
744 1 -1.2 7.750917770922212 4.103303133013479 31.735010559727584 0 0 -1
730 1 -1.2 11.985139002348904 4.222949107980037 29.840073897749217 -1 0 0
1132 2 2.4 12.636018814993708 4.764292639103515 31.191105375326053 1 1 1
692 1 -1.2 14.242580259057684 4.471735729512528 31.135052122518985 0 0 0
831 2 2.4 15.197197959645107 4.274104033271618 32.36740582849634 0 1 -1
324 1 -1.2 18.239269227318584 4.879999781339676 29.524644042818075 0 1 0
1889 1 -1.2 16.65252336623292 4.113234563784001 31.644797573332653 0 1 0
1288 2 2.4 17.963151584662683 4.974831277171401 31.077168879889083 0 1 0
629 1 -1.2 19.398392721215888 4.78917572458696 31.726756255152765 -1 0 -1
739 1 -1.2 21.80938985288093 3.7178146171492954 31.94731419681147 0 1 -1
132 1 -1.2 23.447514968233712 4.4129481374369615 30.203748522543112 0 0 -1
1504 2 2.4 22.995130954182873 4.8093763026267755 31.829372544835135 0 0 0
1531 1 -1.2 28.379959264425498 4.641718325223389 29.630513421378275 -1 0 0
244 2 2.4 29.674523090220063 3.7136651873745117 29.776876933059516 -1 1 -1
1078 1 -1.2 2.1488072072508553 6.171871290284945 31.722410295492416 1 0 -1
1772 1 -1.2 1.8960229248139557 7.897174047596588 29.727861450137702 1 0 0
1743 2 2.4 2.7484103920345886 6.649426448746375 30.26331296659714 0 1 0
1673 1 -1.2 4.3664013962527095 7.143962954340683 30.088197484241103 1 1 0
797 1 -1.2 6.173631591577575 5.6900270316192625 30.520062377880716 -1 1 -1
1779 2 2.4 5.915898266701399 7.1326434650713315 29.6554389228821 0 0 0
1666 1 -1.2 9.83570547957923 7.648588248481653 29.801986915848627 0 1 0
847 1 -1.2 12.405944553985142 6.440556319414581 31.20521633124663 1 1 0
1466 2 2.4 12.898999815524318 7.793774485858043 31.938659662118546 0 1 0
1992 1 -1.2 17.68155383387016 6.533849829619702 31.290092561875554 1 0 0
2040 1 -1.2 22.312484370241243 6.323094633610966 31.72111953584334 -1 1 0
1328 1 -1.2 26.538960406366446 5.6505277217053 31.47751618583876 -1 0 0
87 2 2.4 27.12898298404058 5.584178835239304 29.96960538361296 -1 1 -1
1682 2 2.4 2.3242436136005917 11.023769574025538 30.727302342791134 0 1 0
1157 1 -1.2 2.2894073949760787 9.904375715109861 31.961142646347955 0 0 -1
1628 1 -1.2 6.983595113470142 8.16550620084714 30.249961497905993 0 -1 0
1202 2 2.4 8.532162972238083 8.573244098889402 30.44221336384925 0 1 0
558 1 -1.2 8.90150807989423 10.083609172764765 30.00432864159113 0 0 0
1795 1 -1.2 11.835391352170161 9.086183293197942 31.95607792740635 0 0 0
2043 2 2.4 11.58666946247643 10.753594838448315 31.9774975291864 0 1 0
1565 1 -1.2 13.860528953543232 8.401229559332004 30.576119961859618 0 1 -1
362 2 2.4 15.030259769945927 9.321027276102473 30.059923416429545 -1 1 -1
1985 1 -1.2 15.193081044164886 10.756211791337993 30.97534677832447 1 0 0
1379 1 -1.2 16.371661668004833 8.479915392565848 30.36227874879677 -1 -1 0
289 2 2.4 17.815982982674324 7.94125052138778 30.741184183334287 0 0 -1
1750 1 -1.2 18.438482909611793 9.066162697382163 31.964628354997696 -1 0 0
497 1 -1.2 20.9294561616805 9.369726117786408 30.545429599862718 0 0 0
100 2 2.4 20.08938095675828 9.37370405599571 31.90966213527196 -1 0 -1
192 1 -1.2 23.914065420950433 10.659559255632653 30.856580867201306 0 1 -1
430 1 -1.2 22.92794034540736 8.763384442184112 32.61029075604205 0 0 -1
964 2 2.4 27.120905835408735 8.807111561112821 29.731533104928435 0 0 0
1232 1 -1.2 27.52613264431074 9.160856148669561 31.42982138619116 0 1 0
1824 1 -1.2 28.1568524319213 9.788065106588922 28.9140440599881 -1 0 1
1298 2 2.4 0.17543414876488603 12.752024634851544 29.562872876637677 1 0 0
1399 1 -1.2 0.9349473750640374 11.886044089804113 30.722178342530707 1 0 0
82 1 -1.2 3.6859070613169447 11.889477358322736 31.02150834580748 0 0 -1
1138 1 -1.2 8.794333560292774 12.797659688622202 29.47351696401714 0 0 -1
1177 2 2.4 9.842546528226949 11.355862079163364 29.563962627899453 0 1 0
936 1 -1.2 11.08998308181407 11.514696293073978 30.614405500998394 1 0 0
18 1 -1.2 26.76093933476363 11.750976565746097 31.999523483173135 0 0 0
809 1 -1.2 2.057021846913371 15.654544232976377 30.582284083442964 0 0 0
1367 1 -1.2 7.081189566896636 16.280725979772832 31.854014971754353 1 -1 0
1812 1 -1.2 9.68082877971736 15.37583621891081 29.30533071940161 0 -1 0
1476 1 -1.2 12.003108964486993 16.565013834964564 30.403399080746976 0 0 0
1909 2 2.4 13.574105236084446 16.035823698533243 29.867785843992472 0 0 0
694 1 -1.2 14.274728765378445 14.991228205064166 30.77018013687734 0 0 0
540 1 -1.2 20.29016483338572 13.579378630026225 30.807464909452072 0 0 -1
772 2 2.4 20.883129311924247 14.32900632408775 32.224622860096545 0 1 0
1586 2 2.4 23.533626042380533 16.04497624082689 31.46188865393407 0 0 0
199 1 -1.2 22.161750969311605 15.098783299654528 31.485473163877828 0 0 -1
1643 1 -1.2 24.330782348409844 15.107951334286165 30.30823668729181 0 0 0
1397 1 -1.2 27.048973706647917 14.587950100361377 29.364660197742346 0 0 0
2052 1 -1.2 29.788957591757093 14.098284872369266 29.47358599535348 -1 0 0
420 1 -1.2 28.18890548611159 14.113070902147246 31.66329978883752 0 1 -1
1454 2 2.4 28.46429173489848 14.807058562901968 30.170644082829714 -1 0 0
406 1 -1.2 28.79381242044897 16.435874594072036 30.295042244362993 0 0 0
1946 2 2.4 1.3192811927346333 19.145044722181776 31.2484133691664 1 0 0
1496 1 -1.2 2.6547660575027368 18.22290049160388 30.9307845672076 1 -1 0
534 1 -1.2 4.723053828123139 16.473759572533133 30.630252976071386 0 0 -1
97 2 2.4 3.1597237697420604 16.85682461470852 30.32369463916648 1 0 -1
1741 2 2.4 6.206465592449804 17.282533544173326 30.687517510619003 0 -1 0
204 1 -1.2 6.174030523608994 18.81203550181365 31.210011389932728 0 0 -1
742 1 -1.2 14.430891935816444 17.439297297201442 29.907919137881144 0 0 -1
832 2 2.4 17.870395379816525 18.63245571947016 31.24363738576751 0 0 0
1652 1 -1.2 18.237455230269298 17.78288919785017 29.958332128611193 1 1 0
1419 2 2.4 22.116058212045242 18.204861294045106 29.530534644634184 0 0 -1
1075 1 -1.2 22.781044021286124 17.557581674719867 30.894478077925758 0 -1 -1
258 1 -1.2 0.1311468738346195 18.518978348399674 30.39707075805294 1 0 -1
1021 2 2.4 29.20539968224444 17.869932234118057 29.409484160839497 -1 0 0
48 1 -1.2 27.874303737956506 18.705812916275054 29.56852308415965 0 -1 -1
861 1 -1.2 1.4958067703262812 20.654159701241454 30.913972959663923 1 0 -1
854 2 2.4 2.1356879782413167 22.19237517525448 31.220092372627146 1 0 0
1661 1 -1.2 4.507556906802492 20.513058611797312 29.780980050729525 1 0 -1
974 2 2.4 5.537778237558502 20.18792445692065 30.959665581230425 0 0 0
1510 1 -1.2 6.904985978331817 20.974050887166477 30.49666353373465 1 0 0
2056 2 2.4 8.260689822221368 20.76906832486478 29.570884279126386 0 0 0
1906 1 -1.2 9.449101666257812 20.60196188678736 30.655597099336045 0 0 0
793 2 2.4 10.992780882378607 20.92635933985798 30.621489082116703 0 0 -1
1584 1 -1.2 11.65666790443897 20.484279869290848 29.138900304911385 1 0 0
211 1 -1.2 11.77129583990344 20.359602894724116 31.855028193356677 1 -1 -1
1237 2 2.4 15.250338510150703 20.488694717780938 31.113806224339164 0 -1 -1
1674 1 -1.2 15.529473054595002 22.14215119904816 31.209302150511366 -1 0 0
1424 1 -1.2 14.394480692849621 19.827263527228347 32.258679534638304 0 -1 0
345 1 -1.2 16.70633812744626 19.82685009275402 30.974750997370677 0 0 -1
1359 2 2.4 21.291839458927708 21.39236371102065 29.688336561576165 0 -1 0
269 1 -1.2 21.479989760706612 19.697120477924617 29.60587351039747 0 0 -1
1797 1 -1.2 19.16840738751938 19.556322198120835 31.824890206446607 0 -1 0
685 2 2.4 26.926777441316936 20.07668621702894 29.35838528754057 0 0 -1
1174 1 -1.2 26.128382809561284 20.18791388728085 30.776646329077273 -1 0 0
250 1 -1.2 0.8586632291329077 23.108786969101182 30.983527420297527 1 0 -1
351 2 2.4 4.424493606735017 24.079508883593085 29.657139792198514 1 1 -1
356 1 -1.2 3.01329790368119 22.879311454922497 29.913837255993407 1 0 0
1402 1 -1.2 5.126126643858345 24.295016763264925 31.102299714285515 1 0 0
994 1 -1.2 11.01503384547643 22.51316223442429 30.65859144605311 0 0 0
422 2 2.4 12.097033528575649 23.77682008896922 30.623928196662195 1 0 -1
2107 1 -1.2 13.324783410279135 23.28929214325342 29.655243855645146 0 0 0
358 1 -1.2 12.512584333323138 24.12233536949038 32.117453967618474 1 0 -1
813 1 -1.2 17.578931043493508 22.54905629554269 29.480627566416945 0 0 0
1170 1 -1.2 17.041297317614656 24.286409780728093 31.552479405241304 1 0 -1
1549 2 2.4 17.079001531981035 22.711892721864672 31.101430203823817 0 -1 0
570 1 -1.2 20.465263999599387 21.67135935073309 31.06904228700857 1 -1 -1
1786 1 -1.2 22.616700583016886 22.204846007982106 29.247770785901583 0 -1 0
923 1 -1.2 23.676446695123794 24.562776565993016 29.570248621717813 0 0 -1
719 1 -1.2 26.475252215214052 23.963502988097304 29.334161785243406 0 -1 -1
900 1 -1.2 25.100113754242997 24.97124789016274 31.725854166627865 0 -1 -1
1574 2 2.4 25.250886966271775 24.909277269970616 29.956860724138597 0 0 0
397 2 2.4 29.94079542643816 24.00104120052564 31.10591999935646 0 0 -1
1568 1 -1.2 28.99783352109674 23.947578352524 29.73679029050087 -1 0 0
427 1 -1.2 -0.09368317718025639 27.019795180410632 29.291806021854452 1 0 -1
1204 2 2.4 8.101526268468136 26.995121719722146 31.42217896358681 1 0 0
1631 1 -1.2 9.379865803551253 26.207760851616605 30.844657064071665 0 0 0
1744 2 2.4 10.89249584525262 26.26832054107324 30.184022172502516 0 -1 0
317 1 -1.2 11.273466523342405 24.745726911012007 29.65954095056566 1 0 0
689 1 -1.2 12.123760603975272 27.070637158413074 30.893189871096734 1 0 -1
582 1 -1.2 15.524524257845727 26.637109793841 29.219323800356516 -1 -1 0
2049 1 -1.2 18.420351778103562 26.655922248562117 31.37833458843921 -1 0 0
339 2 2.4 19.06106598845556 27.050195773936725 29.854197897749795 0 0 -1
1579 1 -1.2 25.40966285774922 26.601014464388268 29.62735625541556 0 0 0
1950 1 -1.2 -0.041475731233258054 25.520710276199964 31.2155374369774 0 0 0
1862 2 2.4 0.01864146449658672 27.12064566596522 30.82525619240975 1 -1 0
1267 1 -1.2 28.872916610243358 27.811380169534846 31.46143829928376 0 0 0
227 1 -1.2 1.0061369040484387 28.02870189615736 31.51404776541639 1 -1 -1
128 1 -1.2 4.998298887430492 29.931852997801645 30.06727409819195 1 -1 -1
1725 1 -1.2 2.979655324809464 29.653524383356 31.82309065563202 2 0 -1
1767 2 2.4 6.5270736638126055 29.60335190304417 30.406798032651274 -1 -1 0
1871 1 -1.2 7.181807026251044 28.138465530596985 30.637813079869915 1 -1 1
2071 1 -1.2 13.925203126765584 0.06973936436517295 30.388695872191896 0 1 0
2053 2 2.4 16.276170427601073 28.118325655741454 29.557614922955757 0 0 0
85 2 2.4 14.505861098059784 29.6622140386079 31.62337968627195 0 0 -1
404 1 -1.2 15.57786829237425 28.616523036483866 31.03528670297663 0 0 -1
957 1 -1.2 17.794151884264846 28.047636465843983 29.33966804410204 -1 -1 -1
412 2 2.4 20.339900372751195 29.39068215606733 29.224380359916996 0 0 -1
92 1 -1.2 19.711473704672652 30.3424649008968 30.415183146732883 -1 -1 -1
1991 1 -1.2 20.38398681875847 27.929774840242153 30.04056691954928 0 0 0
36 1 -1.2 24.42651512352459 29.063613448367715 30.583768395060382 -1 -1 -1
95 1 -1.2 26.854439843551663 28.763279183086077 29.121121593444713 -1 -1 -1
26 2 2.4 25.676781234985913 28.000631103569965 30.125362224686775 0 0 -1
705 1 -1.2 26.4614437602986 28.163809387897402 31.52692937454611 0 0 0
796 2 2.4 7.263376944236353 0.2499945009345365 33.236259525702685 0 1 -1
1605 1 -1.2 5.7905622009751925 0.3284718679009016 34.00744537039413 0 1 0
1770 1 -1.2 7.978761312900677 1.7045496474523127 33.26805336921905 0 -1 0
1667 1 -1.2 16.991461888621764 1.3976799561326594 34.27580208660664 0 1 -1
1898 2 2.4 16.774876196913837 0.1284891978405179 33.34214327513494 0 0 0
1344 1 -1.2 24.7342989486173 2.1870678049596513 34.15484030946792 -1 0 0
1539 2 2.4 25.862014424776337 1.898169167710641 33.06768939102956 -1 0 0
468 1 -1.2 26.976963332856073 1.1209997141644872 33.98943327597715 0 0 -1
683 1 -1.2 29.33948676066085 0.8919778849479373 32.82852095824673 0 0 -1
2041 2 2.4 28.234729875366142 0.14420443445855025 33.98521368380061 0 1 0
1200 1 -1.2 1.0422416654012874 5.03168940919807 33.44329850707912 0 0 -1
1098 1 -1.2 7.653474302540086 4.042912630376735 34.43293346544625 0 1 0
1034 2 2.4 8.34208789102552 3.3224620982474993 32.979588757401324 1 1 0
2124 1 -1.2 9.951699881472816 3.4977193274253473 33.00614599515587 0 1 0
1552 2 2.4 10.804801105591379 4.783124950577404 33.35073204531076 0 1 0
513 1 -1.2 12.064115239973221 4.318359012134531 32.49482963951498 0 1 -1
661 2 2.4 16.485216512500912 2.832482252828587 34.73835147831227 0 1 -1
977 1 -1.2 15.291941460934838 3.1412114762193806 33.48020885458434 0 0 0
10 1 -1.2 17.600522428072917 4.018065073786865 34.78229342058288 0 0 -1
987 2 2.4 20.216927397725403 3.5010935239720893 32.24578445545185 0 0 0
1235 1 -1.2 19.96983516869495 3.422360190617202 33.96927270252476 -1 1 0
1125 1 -1.2 24.318440578900717 5.1015126998206295 32.76536216436968 0 1 -1
1123 1 -1.2 26.32730659143701 3.371995523925837 32.34651885400865 0 0 -1
603 2 2.4 25.96063153701055 4.849907465408597 32.744126415720395 0 1 -1
58 1 -1.2 26.655451921151307 5.581007030602487 34.03267781848966 0 0 0
625 2 2.4 0.41651980515586146 6.581048512268791 33.76858282588408 1 0 0
1615 1 -1.2 0.5023261313957637 8.126942628540602 33.17004422225636 1 0 1
1512 1 -1.2 2.9440264311168893 8.2163872508864 34.0804333510902 1 0 -1
1469 1 -1.2 6.149448324266652 5.709222993779034 33.016248766678984 1 1 0
1225 2 2.4 6.946556553701301 5.58831869248125 34.47228002357884 -1 1 0
394 1 -1.2 8.141571714216532 6.844997498028302 34.34538796105884 1 1 -1
191 1 -1.2 10.158603467039162 6.2059289756164615 33.132710446505996 0 0 -1
2139 2 2.4 9.137468085837622 7.5499071085452005 33.50984652743142 0 1 0
80 1 -1.2 13.609435164159871 7.678340570824288 33.40717168220557 0 0 0
1330 1 -1.2 14.977573660594976 5.542445456800102 33.32374458738378 0 0 -1
553 2 2.4 14.978778845200521 6.852237731560201 34.0973416086467 1 1 -1
2148 1 -1.2 20.56765441714377 8.002568160765103 32.744354125371856 1 1 0
40 2 2.4 22.079332694147748 7.477383467363154 32.83481201442183 0 -1 -1
1260 1 -1.2 22.572357769719464 6.954169559679444 34.24811666753542 0 0 -1
1057 2 2.4 28.26470963100739 5.88854403286956 34.729237040514306 -1 1 0
2025 1 -1.2 29.279939139962533 6.3661510433795945 33.605718212285474 -1 0 0
495 2 2.4 1.8435402818193787 9.178069407474274 33.36207000393213 1 0 -1
1062 1 -1.2 1.6579257301701222 10.309652862216206 34.635150192279454 1 0 0
114 1 -1.2 8.639943262802085 8.299584442093181 32.14228643676749 0 -1 0
225 1 -1.2 10.018067369370549 8.705054369542957 34.30779327381122 0 0 -1
1843 1 -1.2 10.320779854294848 11.169083942133664 33.00247403276571 0 1 0
487 1 -1.2 16.23460536136728 7.758703140718083 33.65829958364787 0 0 -1
470 2 2.4 16.683143679251128 7.998467389322332 -0.008086022834778639 0 0 1
44 1 -1.2 20.385438364138675 10.952524472718482 32.40838983887531 -1 0 -1
1588 2 2.4 23.812646932232287 10.112542636974107 32.36412981894863 -1 0 0
1297 2 2.4 26.9089067553052 10.211928155619905 32.67629974791573 -1 -1 0
463 1 -1.2 25.328209547899373 9.774098864190346 32.957475922135075 -1 0 0
681 1 -1.2 28.016442007837636 10.052735907807074 34.013114773053815 0 0 0
1551 2 2.4 2.147099235108106 11.807346367431482 34.72679002777845 0 0 0
624 1 -1.2 1.143610841967471 12.889902634052333 34.08871451379408 1 0 -1
1011 2 2.4 3.890363270037028 12.629293877372003 32.443810244597024 0 0 0
1018 1 -1.2 3.544254570803538 11.824407322007696 33.91879483089562 1 0 0
1091 1 -1.2 5.5843865716537975 12.963524901502078 32.55990369635349 -1 1 0
839 1 -1.2 6.178215897021293 12.532360738560667 0.1512814781366472 0 1 1
1936 2 2.4 6.676023427986757 13.059922702915298 33.84455198175356 1 0 0
336 1 -1.2 7.771985740242979 11.834933610242594 33.55538493081623 1 0 0
622 1 -1.2 9.37479110330635 13.619149580441716 34.20365926178347 0 0 -1
1706 2 2.4 9.308108995894463 11.916476159036561 34.07772248164926 1 0 0
333 1 -1.2 12.9549517604633 11.523902721896793 32.236208416309836 0 1 -1
1901 1 -1.2 15.191497593019102 13.047072389314117 32.194861435929965 0 0 0
1377 1 -1.2 15.133803698180909 10.72622971945004 33.68422189888152 -1 0 0
206 2 2.4 14.679860085981101 11.490522338576348 32.430025694155105 1 0 -1
1087 1 -1.2 21.43000917987329 10.975821709213017 34.87340804329204 -1 0 -1
1081 2 2.4 21.469270131756797 11.537423891086869 33.299320955744804 -1 -1 0
881 1 -1.2 21.384572790526285 13.20710019844635 33.27611273376814 0 0 -1
383 1 -1.2 23.017120475316474 11.355705871433564 33.031207258612106 -1 1 -2
1405 2 2.4 26.657811344048245 13.416468290140049 0.1440384038036272 -1 0 1
666 1 -1.2 26.327434799223273 13.633065189263535 33.68540656551251 0 0 -1
1264 2 2.4 -0.07927116731894263 13.735615856870169 33.48296963785773 0 1 0
1154 2 2.4 27.542962629216905 13.056874853293865 32.683324952724455 -1 0 -1
2143 1 -1.2 28.927059398511307 12.849581624033613 33.52323989300527 0 1 0
1557 1 -1.2 0.18717956930374713 14.603251886608996 32.1251031201948 1 0 0
1117 2 2.4 1.708331540372301 15.057086287258462 32.02563147998734 0 0 0
37 2 2.4 1.1673143596308826 16.006028673878642 34.63118711325017 0 -1 -1
215 1 -1.2 2.0817131422009347 16.115521834585046 33.37469362728911 0 0 -1
1259 1 -1.2 2.8578940614401653 13.930214306485189 32.16140202528143 1 0 0
12 1 -1.2 7.072163310866995 14.592993922080064 33.748028895834594 0 0 -1
2031 2 2.4 7.288498644603947 16.12130529636518 33.525757309547004 0 0 0
1573 2 2.4 9.802133966517811 15.098918283178568 34.671790722308344 1 0 0
799 1 -1.2 8.810110089877393 16.3178593917068 34.03073106483437 -1 1 -1
1815 2 2.4 12.829778566973697 14.680736328073191 34.87604910588343 0 0 0
787 1 -1.2 11.407633477545167 15.340444746853686 34.734045137248664 1 0 -1
1050 1 -1.2 13.565015014534154 14.825927089500228 33.37910613673954 0 0 -1
842 2 2.4 14.811618987207444 14.578674886769747 32.159599382980986 0 0 -1
393 1 -1.2 16.24476416385867 15.557225512441391 32.40657998329276 0 1 -1
1578 1 -1.2 18.137837317364024 14.195151407127366 35.0175622634319 1 0 0
1023 2 2.4 19.121584059264375 15.472681008453284 34.496180873979796 0 0 -1
2081 1 -1.2 17.91327818359939 16.517036882522067 34.27197860706754 0 0 0
1380 1 -1.2 19.973785455211715 15.459412796792554 33.08901581022221 -1 0 0
1965 1 -1.2 22.84197643526131 15.327997862022366 34.80696453059672 0 0 1
749 1 -1.2 24.320349099788462 16.209258561877377 32.907543122668315 0 0 -1
1069 2 2.4 23.81089055066763 16.57365803429263 34.46586771850258 0 0 0
1484 1 -1.2 -0.01134170159738841 15.006894839553794 34.44298776466271 1 0 0
2007 2 2.4 0.2710171766319203 18.780068043868404 34.43342369114723 1 0 0
137 1 -1.2 6.042737707381967 16.93613532016766 34.19462177861241 1 0 0
514 1 -1.2 5.7328810378894595 19.44741694114183 0.0467956221554751 1 0 1
1436 1 -1.2 15.084248575312355 17.291366867730783 34.18265712472513 0 0 0
1945 2 2.4 16.514837092896304 16.79955588476897 33.35827887736671 0 0 0
1116 1 -1.2 17.257383854571906 17.95571388375657 32.60450207511682 1 0 0
779 1 -1.2 23.30310406267067 18.194904173330542 34.704130447097796 0 0 -1
1085 1 -1.2 29.04511995836555 18.852420480714315 34.25314183112921 -1 0 0
1902 1 -1.2 0.762003646239452 19.12480565008538 32.861098760749435 0 0 -1
755 1 -1.2 4.86478167808578 20.586532646407665 32.365159863833554 0 0 -1
239 1 -1.2 2.6452005196621022 20.426273488628585 34.33433582242745 0 0 -1
230 2 2.4 3.8599377534629236 21.34621254413477 33.56539918790648 0 0 -1
1016 1 -1.2 4.748853334417019 21.78889340272963 34.88821389161142 0 -1 0
547 1 -1.2 7.166024723792591 21.432187732146016 34.22915818402307 0 -1 0
634 1 -1.2 12.187406765629612 19.541864720981334 34.08959809092187 1 0 -1
1382 2 2.4 13.02730232874045 20.417738595656 32.90791480453907 0 0 0
1890 1 -1.2 13.53813471634027 21.922356940131177 33.40372132013064 0 0 0
1122 1 -1.2 17.98749566288103 21.916631521463163 32.211485268862106 0 0 0
1394 2 2.4 20.868377735118926 21.266336804909113 34.867719813427776 0 0 0
411 2 2.4 19.361715889647733 21.08339726877848 32.147604829295425 0 0 -1
1845 1 -1.2 19.845481060676846 21.16838452088745 33.738672333431076 0 0 0
346 1 -1.2 21.991317374007572 20.08430378734916 34.45719161642041 0 1 -1
711 2 2.4 23.788272416999387 19.702931842505617 34.373970885909564 0 0 -1
221 1 -1.2 24.414056785937237 20.343381826159522 32.882776791172 -1 0 -1
1252 2 2.4 25.87312866686535 20.87456988604507 32.38975881065485 0 0 -1
1439 1 -1.2 27.051062304989834 20.18669958909685 33.292267051318596 -1 -1 0
1993 2 2.4 28.12071553081666 20.299629133390074 34.59302878695989 0 0 0
117 1 -1.2 28.67926770810796 21.837381181909862 34.84168255973895 0 -1 -1
212 1 -1.2 0.5665560780887215 23.4347063300661 34.221989286931034 2 0 -1
2136 1 -1.2 3.044955459117408 24.649358330740675 34.89052729238524 0 1 -1
766 1 -1.2 2.917347406946371 22.368843731165114 32.603481219955384 0 0 0
1020 1 -1.2 7.009990344564114 24.126618253412037 33.328664235787635 1 -1 0
2149 2 2.4 7.7724419217641 22.91641191308452 34.23518525210774 0 0 0
1621 2 2.4 5.852671564244169 24.906469666659845 32.47776038142976 0 0 0
2030 2 2.4 10.280299279541563 23.98690606071208 -0.05833576060394623 0 0 0
1387 1 -1.2 9.312654036521023 22.818519813018092 34.318490465305125 0 -1 0
125 1 -1.2 11.86468965943462 23.820222544242863 34.540142503975716 1 0 -1
2078 2 2.4 13.104354405158746 23.589099745325758 33.66077382069751 1 0 0
1654 1 -1.2 14.356017627950362 24.272301828352614 34.15662558201109 0 0 -1
1975 1 -1.2 19.097246838995435 24.922697675837373 33.011221483903526 0 0 0
504 1 -1.2 23.57651220349626 23.578919732976484 33.50749500964483 0 -1 -1
1817 1 -1.2 25.70703524643966 22.404520599769253 32.41206589832797 -1 0 0
1585 2 2.4 25.066580599788796 23.853974243518714 32.97739737735539 -1 0 0
366 1 -1.2 26.07827693563686 24.44398954333503 34.01785864652251 -1 0 -1
43 1 -1.2 28.50088006882385 24.67296887356187 34.65898767289362 0 0 -1
220 2 2.4 29.244321527061246 23.25807726938781 34.08614901777328 -1 0 -1
1447 1 -1.2 28.89229311407512 23.524312985209015 32.492337962530996 0 0 0
1194 1 -1.2 4.514775054691717 25.535660936033956 33.09715241122509 1 0 -1
265 2 2.4 3.7802870722444557 25.949732767855185 34.53556459155248 1 -1 -1
391 1 -1.2 2.961581663141513 27.26857474084187 34.30140014902245 0 0 -1
958 1 -1.2 6.981306023153964 25.974637583603222 31.83759180969319 0 -1 0
1632 1 -1.2 10.010293475405417 25.560822339392747 34.62285785928753 0 0 0
1801 2 2.4 10.793466948211305 27.045780284168124 34.82915739489178 0 -1 0
2029 2 2.4 12.796899038472771 27.50158338478697 32.3889103629923 0 0 0
35 1 -1.2 11.636081664172526 27.40285046299175 33.41109232482018 0 -1 -1
826 1 -1.2 14.009901371574973 26.32934093750041 32.53017927315457 1 1 -1
782 2 2.4 14.852334339983292 25.91009655342763 33.78173715464401 0 0 -1
919 1 -1.2 16.33251013518772 26.005917551537852 33.14412494175408 0 0 -1
1275 2 2.4 17.671845176804663 25.540056351379818 32.368704458330974 0 0 0
326 2 2.4 18.942193068176607 25.46410966806503 34.688421184477924 0 0 -1
1703 1 -1.2 20.387808437411813 25.32583207604056 0.31354992832413153 0 0 0
652 2 2.4 27.1379333841097 25.498039327643095 34.613941140316925 0 -1 -1
1644 1 -1.2 27.377068802255405 26.589007638138167 33.47418833188249 0 0 0
1251 2 2.4 1.3913035024965084 29.52503565920128 32.16109507685167 0 0 0
1231 1 -1.2 1.3535672127930767 29.3576411818671 33.80704091691265 0 0 -1
1072 2 2.4 2.330067581744713 28.655774486242603 34.95552705123489 1 -1 0
1988 1 -1.2 3.5611017301783505 29.922007489120954 35.00591934609812 0 0 0
1855 1 -1.2 6.7262593496663134 27.68204299264647 34.36333264953856 1 0 0
1086 1 -1.2 8.55230102787648 27.71737910279007 32.70545751975002 0 0 -1
1914 1 -1.2 8.276372128017785 30.00046324393035 34.32053994192508 0 0 0
2077 2 2.4 8.212833497247065 28.247215496486394 34.22581568498442 1 0 0
526 1 -1.2 13.257094134629613 29.064661657749525 32.44524867441551 0 -1 -1
1937 1 -1.2 15.244348580270541 -0.06741471429853135 32.82449292950969 0 0 0
562 1 -1.2 17.38463919528469 29.204033163739737 34.06529949708001 0 -1 0
2085 1 -1.2 21.949344379862133 28.297496501365192 33.61281143697843 0 0 0
1870 1 -1.2 23.078063719788315 30.350454095268834 32.37266218745231 0 -1 0
1488 1 -1.2 24.237067662666167 29.834307144924228 34.78796331160987 0 -1 0
2127 2 2.4 22.894294136486696 29.67754102357442 33.90616664290137 0 0 0
783 2 2.4 27.69503098508398 27.937778272895358 32.55512055318248 0 0 -1
426 1 -1.2 27.723774000774608 29.14663465349401 33.50393270018779 0 0 -1

Velocities

684 -1.6570243824222655 -5.677193494518093 -4.211246811106629
1864 0.800453076060635 2.5004030532956114 1.2028335726421393
2009 -1.5462687740399834 -0.9932406248605541 9.621365576123015
1921 -3.489238029175182 0.4291682697488104 -4.39171633717814
425 13.865292989456327 6.25480930039786 3.4149772861240466
658 13.804289497604188 -3.872536196008464 -14.98480695253585
1140 -1.0729948274365806 1.1603514291410124 -7.945305897623991
1657 -7.596241749958753 6.371793142549423 2.7843225734830526
528 -6.274222072208359 9.81590931663828 2.256872701574421
1134 -9.91428774276995 3.2608397518969197 -0.4005509835626639
678 7.167438519188687 -2.967757690215399 -10.45693396873467
485 -3.215417864764634 7.169681117712354 7.26938678421366
240 -4.435405569319955 2.1450938665290784 -4.0496047153497425
963 -6.414215164469879 -0.1121070501028242 4.081119176092972
2074 0.7051096615277711 -2.8429001950134567 2.352484133005681
996 -2.749928454348148 -3.7827434335791934 -4.958705553088509
1677 0.8816938187721016 5.671042595762384 -8.228524449928434
1828 7.838033943641633 5.01938096927202 0.2853609503728287
1972 3.689285258706351 3.5742479078605696 0.3737340176742584
380 1.699236787321414 -0.7089952784950501 4.210087185875134
1317 -3.456280200646871 2.8550504759204607 -8.203430406971771
1561 1.2158987926105858 2.3291516751338555 4.025669517727082
1867 -4.327313729942953 5.756290287758069 4.096504244555212
66 10.00704414254557 -5.498481124604199 -13.220315378132858
1384 1.3792993006989385 -2.8758646344319407 -10.012119233833491
1879 2.9847630761225554 2.0768574777558637 -6.62224991639402
1593 6.842090892289027 -3.536301986209849 11.908191658498803
1671 -7.728629171943482 -0.9573726921411373 -2.7703222135191705
134 0.49057158382376354 -11.941605641709685 1.0963691206000385
129 -4.805287036245893 5.353073442766843 9.063920048783038
857 -2.0658548940234307 7.911553530470514 -2.001782223693294
1281 -8.888960618827314 -5.3617103200866545 7.078338911021867
260 17.30744013834155 7.1865381147821905 8.651091377667845
161 5.251139044349107 -10.169031046055753 -7.084545375906598
1270 4.327052737021426 9.448074295688608 4.931740073847331
2028 10.66081493262278 -2.876744792892536 -6.238723994670515
145 -2.62986275509531 -8.404372925575613 3.6798329977084916
180 -5.648383687692248 -8.629902206060486 -4.862481120548516
1984 8.626498567041297 -8.206560165783658 11.059090136335426
2093 8.77604672179118 2.637921865783771 -1.9241844594085928
140 17.49078093430768 -5.226489701638573 -6.922195273323789
280 -4.889476833951412 8.281829353307621 -0.08202882721418425
1438 7.746245573207849 -7.421467091244592 -1.5346619979312124
432 -4.596382257582761 -2.4887422203282443 -1.6735323420101433
615 -1.152797131113624 1.16952034480588 -6.608830206621242
515 2.3654842477800906 0.7936409287653506 7.795071771909748
702 -1.0104392766042025 12.948157140072647 2.5753490187484767
598 1.6488423110648063 5.158609860845299 0.36158806102073177
444 -7.591355766891416 -4.4561975125725 9.595491109076029
1456 1.2487074260778834 4.506984837359034 4.676466493314071
1558 2.14200170844568 17.63444182261503 -0.07427256459111908
98 2.246988899158763 2.193438350071248 0.7514462723685725
1896 -2.4210985287138027 2.9138494267541213 -0.026748530946520712
120 -6.539434272743162 -1.3006738821297714 0.036147769272827895
1660 0.9315131167291203 6.655209990833163 -9.752884654445882
516 -2.1055248367337582 -6.49064653618605 -5.080622742199886
879 -1.0440336986112997 4.908436613408869 2.3824790917530616
1752 -0.8974290347847105 4.936764722488543 -2.7689964052392484
1015 -14.34856880946721 -3.6897808245023254 -6.323906422630705
991 -4.95645262190848 2.8122297413198964 7.641825890458122
1010 -1.2713066684592589 6.933159507359764 2.425003836848403
284 -5.664903893486398 -9.468738413439935 -6.728652710076344
1129 9.910010918401973 -0.10829152097644548 4.78932784263136
1577 2.3983041299284142 16.057140998798758 -9.300842429492034
1220 1.266100826070204 3.414565595265199 -19.806425238251382
286 -16.746686821460315 -9.53200002154459 -5.368078194486106
243 1.2185969064609616 0.8504663981900755 -3.7947915278147457
1169 11.670166206672734 1.8095453538210176 7.898424118343773
1234 -16.14843410849868 3.8304310137619946 -8.723879385513936
618 5.076565045916742 -10.592811544932959 -20.22070179292859
2101 5.064730113114513 -3.2262300301640723 9.361633156853609
302 9.248135089891598 -11.763306287765436 -5.053549166887937
197 2.0553377598660094 -7.8916689799693875 -0.5888270801937094
574 3.679478373503947 8.663110701817603 8.42537105175093
1702 4.038533227986579 -1.3951110069907366 -1.36709132891639
701 2.8890338901886117 7.908857549955113 -1.263564369989515
1186 2.3178713373831914 -4.452621878543423 -4.732942983427073
1094 -0.8286794941537466 1.812746299565043 6.745027542817896
152 6.536067051024089 0.43663637610636535 -2.592007858529063
877 0.7814646859913944 -5.980686320493474 -8.0866933622498
1055 -6.420934387946328 -8.623036322115944 4.507481451658723
2038 -0.4007805750168347 -0.8787523810640644 -8.747402924171588
1928 -4.209190317106969 -4.009051044315005 -19.33091967492198
1696 -3.995878251200334 0.17483097640958623 4.5516408040245455
1590 -0.9547215017017534 7.794368918703397 -10.036558251240931
1760 7.172842127072295 -3.8100962044651654 -6.951706603400107
587 -0.9288078586600996 -0.058199816288983894 -11.537542746081805
1457 -4.253335479177055 10.381926902095245 2.8729577755676075
542 -14.363257155344867 -4.983413884969453 -12.124480434499397
982 4.596378051222996 7.639677067802578 -13.39975228767553
1219 -2.0432215555613467 0.7156679641756403 4.456078726896187
1160 2.8273150698031912 4.5913087682563685 -1.9102852590550505
1295 0.9387559788171764 -12.57699146283996 9.735480463408601
1444 -3.612417160236798 3.130573123579735 -12.52550790869345
1006 -15.163447637344532 -9.863274423687576 7.508953270357649
1754 -1.8974888156499463 8.265156166017702 -1.7626846660336883
1391 -4.256039429722593 -8.825860196365156 -11.705578951106276
453 4.202190855416618 7.858370458375424 2.381028376520922
396 14.022358907748655 -9.408199973465168 -7.4196668401153705
1070 -6.789108634577106 -5.272616317652199 8.08045269846651
530 2.802936109227929 -0.7503362467770176 -1.4498708635525597
874 11.495005441844617 6.39665885580643 5.886288616417437
673 -4.488169912915484 11.075079807807521 -6.931011453177549
1197 -8.045512808077586 -1.3964932900406148 7.813487125009449
1683 3.429658431197947 -0.7150354382403288 6.744821457138211
200 6.878844885094903 1.5541025536649085 10.163867523991916
1449 -11.167455004719413 0.3516810248663804 -10.947850729064747
1024 -0.1989457212490513 7.182351451458955 3.4195950371712027
106 0.9821169567623448 11.186912820885064 2.916293574361587
353 3.65443189758492 -9.99812759633576 -9.611758946725828
1885 6.912137611611749 3.83960628405085 -9.304715763660532
2104 2.9682203124968183 1.5585619458098472 -1.9887214804059046
703 9.198220874253348 -6.575251497742909 -4.675959814225268
2090 -7.985158553040392 2.519886548599134 -1.15476988788826
1698 -3.4632761298003354 2.2148071859547183 4.367751453618129
1607 -1.4730072749918761 -6.4487943313567495 0.41758417818697224
1274 9.331920544058036 0.5309497447187267 -1.490357601591739
1846 -7.551606308877011 -1.5221667412796274 -1.010964935834921
1560 7.344309773649887 21.841767859243955 -6.613427258177934
1189 -8.166754775713402 -0.8968264936300275 -1.9508268640670992
2001 7.063529735849934 -2.9637355692570773 -5.435043475388297
1583 -19.177713940757798 -3.3317335113200386 -10.558659917380101
338 -4.8866724856358985 -4.192155500353357 4.139329105415178
245 -7.041700677502634 -12.125142340628823 6.913737665430104
1892 -8.367407079607062 1.7795650720719907 -14.580418881457623
1250 9.041172431104608 2.518207680687603 -2.3952342506079662
2112 -4.544287079502504 11.383343869318903 -0.6475556775167876
682 -1.4756681398683722 14.145705323238307 16.677344996574337
1105 -3.926754144107759 2.9816196776515382 -7.413106979203994
1151 3.3195981597895656 -8.874483770009547 -6.022897410240023
939 4.636684293342954 -2.1270614500811296 -0.2996979888896809
372 2.56909912391017 -11.212457725724665 20.386468414252622
1653 5.520196361904878 0.9483526288599509 0.9107619250975784
745 4.881000639216441 -0.25271646222147787 0.304278103129052
2014 1.5649980905980867 4.2598404177695866 -21.53723411644073
1482 0.2823651383387614 -3.199968533490791 2.833616772140869
83 -1.9208712644161872 2.6219538069946786 -7.0914089472751
38 -3.4128543496297765 5.479032408859235 4.893035477878785
1114 6.262804003302052 11.24675807431322 -10.046968863539908
1710 3.0796498267596584 5.208314460919073 6.173988837515212
1361 1.2013707021318303 -1.1380944978083456 -0.5829039441413641
1592 -2.4436529736526276 7.015961904740036 8.984443536044461
1851 -6.722696538339849 -3.506487250396709 8.458563864113875
708 0.31343703105560605 -7.230877388418876 0.1939741627402481
198 -14.253182109074444 4.603384220997866 -0.7142859637011252
149 -5.847539644346433 1.7898619469889545 1.7166457711378256
63 -2.3689235535635986 -3.3413663555631956 5.641759154649917
1422 7.467158849639632 -7.921623655893399 10.473382744045821
2142 -4.750486025821923 -2.824318475439107 5.639712719182178
1145 -1.870223894610656 2.885010168997143 10.595665449857812
365 -10.675035881871683 -1.8613947629515883 5.595158170744329
722 -2.397496099639724 2.9656705649836055 -14.051025995078858
16 -0.5839435147786349 1.7489460639981909 -5.3226651051566325
295 -1.3159255153490823 5.787061394684064 0.20128172993162344
1884 -8.184935029872712 7.792839562963091 -7.291348244605556
746 -4.246865598726105 -1.127386001371145 -11.579545549501487
2018 3.5645885425790147 4.7905858588836185 0.27977198869410885
1048 -0.9879952709027765 -0.4676197311676314 -13.00585920628655
633 -1.9384948577667287 0.4942689175126897 -0.8718378548271473
104 -4.820136534048511 0.17200272848055576 3.9810658430722556
262 8.179295241924562 1.1350526444346107 -1.4443332971110463
8 9.82647029303052 -1.7073820324373221 -7.205614090652365
1354 5.139143786111698 -1.4249063298293416 3.138664213499577
568 -3.7387960059649608 0.06642857037378087 0.5443915222895541
50 -9.23986906644222 3.722528659214803 -2.786421092293631
275 12.06220088816548 -7.514750225148185 1.6549356276806912
1187 -2.520756057345365 -5.310632657478198 2.8033230956300716
956 -4.206133767818408 -11.028448882795933 0.6870268283086105
2125 -5.315677351798649 -2.529375533389783 11.244856985372644
741 2.5275874141281647 7.0706171835938605 -17.709926039839356
410 1.2524594461830414 4.9409976302435075 8.866461068376127
1668 4.1683737292006615 6.472601488747399 2.5543531783376032
1782 -0.5831380954252761 -5.808260441951462 -3.8662966095308158
437 4.819067002400459 -22.065072685718306 3.491742507686406
2092 3.5016757015143134 -0.04927026029043334 3.3890719954931114
1912 3.0627749414845513 0.18437791557686153 0.7167203850514546
898 2.7316249287938104 -10.554055721848046 5.743869692121077
41 4.611454172365896 5.717416528919869 10.060961456828476
1304 -12.47242113999579 4.67337403427749 5.743302767470227
1386 -9.94910163410386 -6.613716875975516 -5.324629762118327
1940 -3.950117900611812 -9.235782006401333 -5.85942547515615
1002 4.880224399266462 -4.343548060910447 4.64950730770385
229 2.1124643350243844 8.973031002636098 -3.3273295250779067
972 -4.710817877993902 -3.9360917673091276 -2.8620704727852377
1262 -3.9105773291066006 6.20965022217664 -6.16578165181854
2075 -0.4416733607675073 -1.7737632289128937 -14.715136025971141
1065 3.534804575353044 -0.4385968069368371 -2.9580296400820854
471 -4.372399483395415 1.0127737277380628 14.710287168764486
1043 9.509659463593874 -6.584853717186905 -10.319771838214004
803 1.2150724899330336 0.8506087683836996 5.387599994056475
1464 -12.116105668359278 1.7045474890991035 -4.278560864036647
1647 7.311329903426029 -4.720864965259934 0.267221273117199
1453 -11.347635625911728 0.6560511303619866 10.087549469604301
60 -5.264776214923229 9.713768125964426 -5.177907067177668
768 -3.822940536269907 -1.632601819725901 5.453480862343848
1534 12.629429699320335 6.767415892738757 -11.88360107357347
1537 -2.525680878748993 -3.370444066334933 5.455317954817247
1156 2.9738521505189963 3.843347440808795 2.1528359409995512
549 5.182710255293665 -8.704317535121206 6.63703194909819
2012 -11.318890776332452 6.023885388252322 -4.15894938206731
2109 -1.121517859705546 2.1147365065907597 -4.98416894089681
795 -5.162444670195458 -3.3183485757032707 -3.137463128763108
1606 6.509150545375616 -2.472843820485563 4.149574882683752
642 -2.727362372277093 9.739982947847887 -1.6400366200505396
34 -2.8830151907233117 -8.778401249290837 6.366985333657355
364 -5.844822775181338 -2.421696401956402 -5.898218794758013
869 -8.334480099006326 -3.2538930671039332 9.99068759943619
1837 -2.7742662122254393 -3.603041043221154 5.608604418348972
89 7.723648381368392 -13.671674081440708 -3.429343741365421
155 -4.830032652397223 -3.4183123261794806 -1.941979293016456
1711 -6.578702574316368 -4.087624004103976 1.7864661365838619
1900 -6.296511597222751 -8.075148013944284 5.069568280860067
948 -9.499593386952949 -7.527272793415225 4.317170702548362
1506 4.618253854227634 -8.278189686697969 -4.189774174827976
1056 2.2028490946294923 4.238532434320611 -0.15052519361183628
1636 4.356399908522997 -0.6191036226887878 -2.821431142993554
989 6.514511131857858 -0.8417900850779497 -0.2811203241028107
706 -3.9534736063554035 -10.540793411515903 0.6341092735577888
1948 0.2895290670364625 -1.5057886213985927 0.64847204981127
1475 3.3988244084670796 2.5792181879124163 2.798826995516611
1040 -9.780216057218478 0.4498170323736958 6.627264275488431
493 2.780924966400761 8.369426635991672 -7.859417202521392
867 -1.3985766905624588 2.643525409656414 1.180649482155245
981 -4.1720529681893375 -2.5065147913520165 0.6711342889352937
931 0.7130034413228092 0.2569071658410377 -15.722205054777058
292 6.418817902469834 -2.2056809291000783 1.1596163459545594
163 12.872008651844272 -14.251235246630978 -0.35884497224686057
561 -4.573992020164663 -9.723267591049465 4.72571127190795
1990 -4.876409251554156 4.965988826778996 -3.4552812262593138
27 8.991436575999465 -0.058747139549614066 0.0010519306962579562
297 5.078010176916249 8.87610332071769 -3.584746014854668
1620 -6.506616960954817 0.3146843281125651 -6.2711850741752855
1120 -7.460218865178329 5.802206325914396 -2.204029603921475
596 -1.9759453651004175 3.9209678980856935 -7.608103662475204
341 -4.624182801474349 -1.9011728047240586 7.602955980455325
2111 7.934721073105871 3.8250637217795154 -6.143921043838017
384 -13.215004400610946 12.217810667903535 5.916275153194907
228 3.6225142952377394 -2.6976885145604266 -8.61394070172805
1165 -3.92507713157189 -9.577237626852627 6.562764427971465
1218 2.2808929945945784 -13.815352983868097 -6.360291336124727
1944 10.898532339120765 3.667583397599635 -3.8317193243737737
254 0.6670482570549526 6.186012502803301 15.860275765933519
891 -5.515005450100938 -5.49566928318016 -15.400328275027316
1182 -3.8937221492775835 -1.9045044586363606 0.14543408720020534
1171 1.025403310755241 -1.9761467401529165 -1.3606738018464544
750 -8.815581044109692 1.5863496313318133 8.707788591923181
1826 -6.009941151739053 -1.0255605184295058 4.948529383214765
789 -0.05727516006469874 -7.586728949598591 -4.365566704525865
1497 -10.162901378256993 15.624296110903337 9.55703514787836
73 -4.481001254473935 -8.155717170508993 -8.732030063086725
1415 15.863258005740935 1.7367997832546151 -6.331295360002054
2055 0.8166865798471227 -9.058945429174306 1.835735606284386
1799 -9.057860536300964 5.483739097733235 -6.31153059019908
1516 -3.7483399289057884 -2.0215661289756457 -2.3646332293343915
1728 4.386215833337235 -0.12904547187291823 -0.49839327905204694
21 -9.252095686262788 3.113211605420132 -0.47443987527404835
1924 0.9698622172982714 7.8130840885638 -4.063111830573384
1967 4.119911981807055 1.9116140582997796 0.12200661303899896
731 4.065115598435474 -1.020520655015129 14.895216378719706
96 -12.177366706860795 4.138780203534412 0.34459372996223875
1755 3.418005687556533 0.1732677548863477 3.489611349479698
1446 -12.241565376701708 -0.5878395501416004 11.75880195172615
1201 -7.452400769844903 -3.3051732126647253 2.697877119844883
1726 0.3730241129017515 -5.735962025106917 -2.8628426406835876
315 5.919848554841065 1.3981669078934833 -0.783620843515192
800 -1.1234041132839239 4.787829907041724 -7.492905614483359
1388 2.142937073588083 -4.938363128920897 -0.016669650801317874
1333 -3.2844322042056464 10.572027985688065 -2.6127948836965125
794 -5.0642702271770546 -2.1787100434458297 -2.9664447301618426
2105 8.258322923135708 -5.410556302365203 4.156034338187132
917 7.807620428172532 -6.680686844687835 -6.433995056781307
301 -11.35550423809054 -7.321058725349497 17.229830997880374
1518 9.402659820925395 -2.5360760307038643 11.904484054849599
223 6.675699044199456 -11.844260024200688 -8.31534731641181
421 2.371492797076642 2.4364758257649175 9.209870952083728
1700 -1.3174788381155167 -6.731012248063077 2.238337847861585
1329 -5.5817018769791735 -11.950938963512654 0.914520213387125
1272 -8.36032775563726 -0.8774151206866364 9.893460912507292
1429 -16.949339452394838 -0.06467895415872098 0.9059454324871224
1118 0.09708955975923457 -0.5830901218126907 5.215611782060151
1452 3.3856586421678383 8.483505330775383 0.4757673303657621
2100 14.55703015099037 -5.849654982336899 7.4295844938437225
1427 5.388471455907095 5.811115081933847 1.9435890373676106
257 2.4632104429749524 4.329165194549674 -13.353869826946092
600 1.300916124617525 -0.13870516220540707 -5.838056355158633
1408 3.493861650803073 -3.631018927991268 2.3903688561774485
1740 -12.626953169872968 4.24810086092049 7.065119278321719
910 5.794541099347372 2.608384434700661 7.501193620288591
248 -5.8588604890922165 8.435638267097293 -9.523874595984305
1897 13.10247144270074 -10.109864820345209 2.0286586395027393
868 8.584400277888037 1.7385092466709626 -0.12084231475825137
392 -8.616024204704228 8.787202185894538 2.3083514217173327
299 -12.077188442873057 6.2736062701070425 -1.9126110433033674
1306 1.6092449101644646 -11.449675977448694 -1.411695700656872
194 1.6100653933405318 2.486655006640571 -0.8522767639782771
2076 -6.832746783884428 -1.3366706579616234 0.04820223244302175
309 11.125855798599742 16.17664526784756 4.714559339050974
1878 -7.533930833625057 -8.039722021928888 2.9373698717792003
818 0.4718772584558015 -0.5203729314805151 -7.761119331035649
1685 13.731664979717294 -7.769353146851532 -11.26981485093573
2140 7.976177560883727 0.8531619301075881 -4.227750946591242
354 6.368972098148754 -3.8944402466459644 -13.533951042023395
903 -3.304488056067788 1.6503886066276363 13.1218945953856
2094 8.322394679308527 1.3316087921739497 -7.016949089251781
1111 -16.23482162581881 5.299363725675725 -2.8546299627189273
1860 -5.9372343653519914 3.304294745281355 -0.275276982452888
216 12.426335504217576 1.085667517908828 -0.6913858397429906
567 -7.75438440909705 -5.64676955359724 -0.730423310874199
1553 6.283839451094769 2.935672140516022 2.504362498642417
1381 -0.9785612649232193 -3.96325991395307 -6.918247690844287
899 -5.87900451483263 12.315256805168621 -9.918928378300544
1420 -5.491544899341155 10.96582074792571 -5.660170771182432
559 -7.19355585596133 5.787902121908964 4.720652132480322
1883 -7.61605294646914 -2.9656802925791825 6.784149075752588
343 -8.78425885285773 -5.8263053134464995 10.91433886797214
157 -2.2613321753834077 1.9699514356086776 2.488479876735614
1228 -6.506115911890998 2.7215812071559244 3.296815372620437
1569 1.3892343885289395 0.30538057187291057 4.983850262085974
812 -3.908362623022814 -0.23376101994585496 3.553142885118226
1166 6.593547878210258 -9.674639803227066 1.7656354203528253
2151 1.4425607845758803 -1.823264860669565 0.0885117295502901
342 3.5694688688230554 -1.1560838241968359 -0.7219920619655491
1758 0.1403542839182145 -0.19900263286655875 -5.46699239897037
1336 -2.0578836351945418 0.3316117061852097 11.765878525083469
2062 6.552177278951571 -0.60616156745483 3.6059357375866825
1611 1.0027450672417912 -0.5827911096328717 2.7806836813634144
1460 -2.7407860621966718 -2.737632016854335 -6.238702824603431
1430 3.351892405046191 -8.306473087100047 -3.3951250762493452
594 5.870551789851281 15.948395580327082 5.086202926017525
1626 -1.4034913803793954 -0.29242093123854385 1.4023608254986826
1222 -0.9729221911994763 -13.140209169280938 -0.4413238387526895
663 2.9838667310758695 -3.819836188409814 -4.8354119057177645
141 4.608153025084241 9.42899581764894 -10.497259508987236
1806 -12.28982667526626 4.883630189770012 -12.890785793085623
449 -1.721502120872044 14.625870402895508 -2.528097293746208
1566 -17.298427587470798 11.258759243533122 -4.062419297045672
1526 4.7475330083206515 0.558750455245611 -6.019181797346246
1920 -3.902201131324878 11.484706686192318 1.3346714431251006
1598 -14.174056054994224 3.4366320523044904 -2.823065883889553
1372 -3.191174512774405 1.6197410921748014 3.305360397703342
667 -7.836924679616037 -3.0339343446060276 -13.056655366211004
2145 -0.45240198525640835 6.56725816413062 -1.8413212656925981
985 4.764619501790724 7.562581704809919 -4.726409933741666
1115 13.196902481582814 -4.19982900958203 -6.896991699119846
1803 3.6922839152722626 -6.27096720755087 2.3974582850694595
414 11.981629570602625 -4.904794913911011 21.7979387625867
407 6.1476421689079075 0.46103878672794674 -0.8120073162565793
1214 4.100925467131947 -6.784704941968383 -1.0392619605575606
670 4.407639243592485 -2.9508534073564925 5.529477312074284
1374 8.864408161881155 -1.3456750882996258 -0.38921741248358305
866 -1.6643388429896204 3.2985477127852483 -0.46058615586762097
1521 -6.106749430862608 -4.999997793457024 8.026830077402037
1089 5.213331943315518 -5.904185273253202 0.058907161496797575
1524 13.752621791692112 1.0096601128952134 9.977680287345427
9 -7.213714596147252 -5.196170370467199 8.081379257956598
1681 2.8215339731941276 2.27510148988709 -6.115298308375573
644 -14.512649998984223 -2.1592924225072383 -15.664099705469003
399 -5.209038517541172 3.399786166175201 -18.333256082752293
524 -14.450283217440207 7.35995912133018 2.7840415988230918
290 4.702644699196085 -1.6073013177580702 -5.2603049183352
139 19.115697380550625 6.796604568997143 1.9056203432049654
1337 2.826445174316611 6.624744970204135 -7.382339865598385
660 8.895048139344272 0.22657142507236802 -1.133398875885863
481 -3.490812697046653 5.192876472268741 2.901092525210577
144 0.47740023882962157 3.9699924268743834 1.8831111824579838
77 2.860114607766132 1.032511873871955 -14.101616702167934
503 1.0787139954848672 9.244753926415452 0.9256246776029273
834 -16.931739299867623 -2.503926590241071 2.7590473951516277
184 8.778264228741588 0.33950726043145885 4.793641566258456
979 -6.180191892527516 -9.80086832925145 -4.455866292805669
1097 12.29125580713937 -3.0411132326941908 -10.98840375087964
1133 -8.78131288647407 18.561287497317224 7.585663322371121
1753 1.7253435355166076 2.3685858631485006 -5.44691620817401
785 -1.7562523394872325 -5.026381046792092 -6.024169068108318
52 -3.2030479884577896 -0.9924692505600407 5.034277927674235
1318 1.9492551342555557 -4.717520247651414 6.669795699860496
195 0.6414266869146633 13.977981709271607 -4.303494045913123
150 1.274775170045495 -4.244649355162874 -2.7439093007789173
1383 -3.9929149284366545 3.4367024345394848 3.821505724158206
2063 -2.5646395994411177 7.551096770529894 -8.128905897050117
2116 12.970525013375857 12.9913942075326 -3.6328008148531263
1243 5.645708933526208 -13.81650986070765 -11.946136059894132
2002 -4.044945372600492 -5.5874007631050455 -1.8583371156909647
2087 -3.1975273242588393 6.469594585333698 1.9835924820604554
147 0.9525769167111314 2.9944497450812793 -1.324646154906806
912 2.6547485649351295 0.04086560539965446 1.029251693954857
630 -1.9969738565186939 7.397193696892569 -6.120941291771025
255 -5.137874996282945 -3.0289375532939258 6.3135011332108695
1649 -8.066615368840555 4.62216737085758 -0.8334360792640958
807 3.687450500259793 1.061153393631736 2.8352661756630697
1248 -1.8496436899136517 -5.155393572266824 -1.6636407699612121
409 10.03121427029976 -6.378751306945262 -5.106946223244313
945 4.127518171220536 5.484540234630658 6.203379773816381
423 7.8740686665653445 1.3729202840796213 2.302826013748267
552 4.0229291815558925 -4.643641102360971 -2.4676978524439233
1373 0.7306462786648997 8.845244149904683 1.486845562824274
1981 2.9107460600055575 0.5077313558029929 -8.836802373968423
2123 -0.3877661045412647 5.595478794266175 -2.5109622612463327
1757 3.92999052988099 -7.265583335994982 -7.072985562075288
806 -2.389273587475727 -1.5330194476525156 4.592124491382422
1545 0.8921023877393215 -3.068803922899322 0.22859780695157053
1104 2.526577204823412 -14.307912697897883 0.18811373806096557
136 -1.7644044975905226 -1.8537627839482544 -8.069331267273808
1362 -5.82892130995413 6.492177520144408 -10.272584080926043
56 12.324173671776075 10.377298713916003 6.934964215874297
1061 4.881730423790172 4.037683027617629 2.0829005892289976
1229 0.3276831136505322 -0.1424613197845414 5.411442488305816
950 4.456933431032105 -2.1142143333014087 0.044894360187768385
751 -16.30623927055915 -7.8576782962254805 0.6168255339132227
522 13.551680365177994 6.806051202405079 -4.083426184170687
112 -1.805123473937654 8.338720984612912 -9.39087392539945
954 4.498015676208927 -6.042670282918031 3.4034903988856864
1555 6.136207156271496 4.258049004487888 5.604531685608086
1861 2.4013282980044335 -1.0609322937147883 6.867759341049294
210 -1.440037829428448 1.1305249396285995 6.553022247506355
791 2.867177424705444 -2.9874517043126843 0.6897793892815417
1343 0.5727244874959626 8.330390416023128 -0.8019506887647552
1730 1.446567887458614 -4.50875763404857 -0.02564039757219292
908 7.823512976640606 -4.378528652827177 -1.934607721799314
308 -11.368808039385739 -2.554198145975749 0.48408573431468754
1432 -7.076296961177236 2.9067501285923854 4.740866313441526
2046 -5.309659380838978 -13.700389341786046 -14.147859123239508
466 1.4056197384299276 6.9299745573252665 -1.8787376883307028
1254 4.195975893901236 -5.5296225025349255 -8.013628129613624
2005 2.0618821523732835 -2.147509216826291 -5.5893591365822495
1095 -2.997866912778946 10.646771383041978 5.433845449870397
1244 1.985001984433151 6.625360209097219 -8.458342394103534
588 3.7069921593321182 2.9782953355209063 -2.2482163657929877
752 -9.554658044966102 -2.7733440509161804 2.1824102298388866
1009 14.796773121400769 1.236193187641715 6.910214652454574
1762 1.0956683591079506 6.741414831041231 -6.498325628100407
759 -3.613894036067625 0.7003100461570836 3.0251205695960395
1715 2.9515820778087356 2.040038307168804 -4.44987582004038
578 8.40223639645889 -9.156014324566813 5.7142760985760574
876 6.42693686676185 -4.301148638140373 1.1167811147800983
1877 -2.6379086205733997 8.74143753990724 -6.5187771551966165
231 -2.5901445162866863 -15.277468181256186 -1.1945875205358851
907 -2.274189360459493 3.0750770778240977 -1.4174322345473085
1853 -9.331895066602991 3.435705363462804 2.6035053368553385
1502 -3.990345037785162 -5.583536242209072 6.584079169035544
238 -1.43855439099401 0.8998175064120024 -5.030861519487194
76 0.3730248640689394 -2.272570447156855 0.37764201926561264
2147 -2.7581871687785866 -1.346718097358293 -0.3007049899080985
1326 17.944112655085426 -11.961588576102516 -8.060758800796908
1033 2.728027152364586 -2.5483713778197004 -7.777253641240266
405 -13.814715579944012 19.078099937600392 -5.025850949362984
852 -0.17040812921947002 2.8377803768025807 -0.01161051706392376
123 -5.58523934676973 1.0164127518462394 3.6843662784933198
927 0.9092936043241407 -4.759260864209217 2.377458837047057
1339 15.50932467459887 -11.170977970239163 0.3632387810899051
952 -2.6530385062646338 -2.2218680457085265 -2.6769454039502327
2155 -3.802922702449698 17.572976851917627 7.752111359406204
512 -3.1367307905767663 -0.9434811638695054 2.9886578821950205
693 -6.504757559427792 -5.123478436655407 0.4925440796203723
208 -10.08782711783597 5.3184758977045865 1.5857329504262094
539 -10.44523345834069 -2.764244680559213 1.920524257249821
187 1.5410786697862908 -11.976191234680833 11.040628183155134
1092 16.05042874108553 -2.6363603318700473 -3.1623554300738084
174 -0.19414003464815985 3.136029547367804 -5.420274697829766
122 8.356774681667062 -1.447180120229165 7.301437530872385
1894 1.4322729578341211 7.262902198077749 -5.575530218666514
1257 -0.8436922791672381 -10.320117784497471 13.388307348922108
1360 -6.588402429212061 -6.57430229981539 1.331947905668987
439 0.6464956639063825 -4.685244883316687 4.62165139772285
1658 -1.4947692745582548 -0.4476389281089121 2.9078788198249397
737 -0.026708589379372732 9.949882771349637 2.8762451545492653
1461 -5.0267393981315305 -1.5274786391027162 7.782899413562028
1289 7.219607984493293 10.751447255602304 8.274625817424056
72 2.261791614289872 -0.12609486617772347 -4.906829596837789
724 3.8625062903989944 -4.584127972707828 -4.7642523153764875
859 -1.3368804193339274 -1.5036384551284876 0.21036803389928388
1724 10.659489362686536 -0.7189473693412486 8.833842276436991
316 9.828578582541928 -8.589794451797886 -11.351933433486764
20 0.21495807102123415 -16.270426045172492 -10.387641557834836
734 4.62435214667631 1.114934635965369 -0.003587925980704804
138 -15.687734324591219 -0.4449479162532371 -12.003556275454706
226 0.1903567896150836 -1.6703184678266345 8.942092712013535
725 -1.360007052703243 -10.812650689091697 1.287787501489397
2102 -7.191896085131668 -2.1740789321486362 5.808707725370956
886 -3.566632284289582 -0.6950871289189127 -4.508279570175326
267 -4.85822244426359 -3.30648356415488 8.882009623890319
838 2.311646455413037 6.000000929082093 -0.9670517545201676
651 -4.0698508754657565 -1.5327373371863915 -6.7721585849679276
586 -9.85821039217732 7.529504061140444 1.8322412678298476
413 -10.87192190996101 -0.6728885281841658 0.8966847583737635
1158 -8.1897910879891 1.5100901676269132 2.152327978648438
1233 3.393572896797764 1.4811943978629978 5.612304847581032
1646 -0.6583906396844756 -11.661213627530676 4.175690214842553
677 -0.6131406049528348 -10.171157598936851 7.892241130650466
967 -3.9874450569933813 15.078425070956383 3.6801618734474513
1957 -0.11311986756054067 -5.865483097069092 1.4454735511143568
1625 -2.066876481334316 -5.607404872299926 2.8139438553339566
638 -5.767516054347795 -0.0003004439886728019 6.280244659730261
502 17.98713651887825 -4.5923685841996065 12.260744206264414
1471 9.109625423785907 2.4222995097177837 0.5116974112039865
1919 3.8032574233357894 -3.1558866660237594 -5.738445058390803
1407 -5.3140303467547225 -6.460308092039855 2.2626479199954717
320 0.490323317500246 3.8791575665110654 0.8799469363463358
219 12.653153255731112 -12.216155590937516 -6.535546875189672
1445 0.24569461353771846 0.6725072996078664 9.555751150134343
1787 6.696025486665748 8.884653938595976 5.569567349854869
2160 -5.178852827567491 -11.43476261797388 0.4881222364543651
1490 -16.336754160242876 1.1901790268295602 -2.0539691892373573
1256 -10.146851013016343 -1.1897020313831745 2.9576430156797135
2086 6.606117215773163 1.8773079330036024 -9.227087284587649
1224 5.316680004285816 -0.0630249094297813 -2.2341632271211775
1084 -7.417281215630788 -4.2792256904408355 10.85227573344728
476 -0.27806581100566 6.857646479825575 2.3477799423785575
1305 -1.65487260298916 -7.12172888387702 6.575008055233406
233 -6.263158609398565 -4.35211248435683 -1.2807877958578786
1162 8.186413258356373 0.4150984568696631 -6.8269006904133995
2131 1.7181583739726365 8.862662718146636 -1.2546023694175088
1563 -12.903734055577106 -3.9356334037392187 6.2698120000272715
91 -2.9921425235898513 2.5963497922158294 9.643994149992475
1193 -11.39522526308332 3.187707675907939 -4.535086141688386
2113 -2.230704118694256 -10.725036258524147 -3.1561661132514875
153 -0.041706777011408 -0.6360816396537745 6.334639898931809
1705 -1.0834635917985582 -5.887160281694209 -4.854172851691961
720 5.160707969576954 -10.613701844850917 -7.040857400096053
2047 -8.898443876523842 -7.175380139722803 11.284165469051594
188 1.4442848526743688 -13.34566272742023 -5.343144428974223
507 1.4716039322137642 -2.1956239727366063 -6.7627963310671335
417 -2.8567310412006175 1.9934142359457256 1.8866180711053535
1690 3.863680692833192 7.51035139647976 10.884486319120096
1899 -1.8272658233585932 1.8362378528430516 -1.7175096445070697
635 2.6939420633440494 5.217905376198635 -0.04325206912214399
1567 0.6520971415544897 3.765576830207984 -0.2630965501928459
271 -0.9952993454591279 -14.916235033755433 -1.3534539604500848
4 3.928475485160714 1.0657921045941434 2.927335349892246
2061 2.7468111098788963 7.520099681216898 -8.19966605497786
599 2.148757060849069 14.287844644525148 4.319343493236977
1863 -13.018747084135782 -5.531735921502935 -7.978831244548162
382 17.86449086708661 11.96672373389258 10.669857872489326
190 13.367186016016591 3.5513511713654085 -0.9280621119658655
1 -2.0372335961481056 -5.384671023619648 5.928072108348622
767 2.786732090507761 -3.8617303290210874 -7.057984321425675
1887 -4.152881104537012 -10.3533157331676 4.237833265528844
1263 -1.6010291917162094 2.2214440525108623 1.1307177092291496
533 -9.71998969605962 -12.322207175230936 -18.583466046341243
1519 22.093767259256225 7.03867651726729 0.4898811792777265
1963 -16.076519049061737 8.304024315421056 -5.6932448510915
1352 1.8348782046022405 1.9032587610710285 0.4401496871523051
121 -5.834648876132775 5.739076712842437 -2.2709264377688116
30 -0.7532099460850762 2.3964069864874906 4.000436733094406
2033 -4.7493497291163616 -9.238007881492251 7.748400374788037
817 7.909484792300667 5.421079824712665 5.640600539357571
1100 5.650840430086302 -10.350470673691968 2.1321158079262146
45 -8.940305730463063 2.459527596296495 0.22687190332061954
2021 6.293168343267236 1.4618963453475045 5.9145560690765615
247 -13.237037264274871 2.1245826975123783 1.599315061204731
1570 13.475589053626726 -1.462829742570731 -4.023347066566512
763 6.066061413279967 -9.372754177480537 -11.608394038881839
845 15.04803474269833 -8.137452962343218 -9.005905863475023
327 -2.700632527072906 -7.253912168517045 -5.493986056748093
691 16.17380975461098 -10.874795573532685 1.4013973857503348
1773 -4.463256419154626 8.91963999908918 -16.946311686421627
792 0.7011921222571643 1.878533130860139 2.042958375144379
1952 3.757209450608517 0.3600060568679964 4.211372423558833
395 -3.664645986547439 -7.267985187533836 -8.825981671074297
1804 -1.8952624715098352 5.519118682721578 -8.787454078365885
1185 -0.6777753995213507 5.3254761981757195 0.017720598627837755
352 -4.917751402638235 5.808166096668912 -4.732034420786176
1331 3.3250208168192263 -6.252720305673816 4.02476398832579
205 0.8505532036683222 -5.265037556762224 8.857883822296255
632 -1.9364536323422763 3.2610401144270718 -6.704397968947337
1368 2.0130736879902615 -10.201492134480313 4.949303388740797
1933 6.073205982698418 13.38530225637556 -3.144209266528655
261 -0.8388977442397526 3.45660721514646 9.614870078521527
592 -2.0572516451710925 -1.137210393857059 -3.622163045306625
1042 -7.586828663272034 -0.5181016484705483 -0.6809639700019939
1807 20.91579739848324 5.850630873533768 -8.040388459468616
278 -1.410754057653977 -1.083514734275184 -0.15887854636195767
728 -0.7571382682520914 -2.060392102859874 4.140533087569849
675 1.1794377053093874 1.94240162534868 2.2297434473168045
1830 -11.369167731032459 -10.985355402552225 3.4232727079230862
1575 3.9038981630202323 4.316111067935281 -12.32639300164626
828 -2.9853987271647764 13.376040009815533 -10.89153189869308
90 1.5270199330814662 -3.2757482692392696 -1.2968439604290916
1269 -9.096591942679213 5.290862237818901 -13.271094511071029
1183 -2.536374597628091 -0.9736100380347541 -9.670120705996428
462 4.73334723103247 0.6461992850464103 0.7464594804752022
434 -4.675068487261593 -4.0192474259638225 -6.820813926575146
1825 -1.320311027762735 -4.126489861792127 -0.8789664418715889
564 3.371254440014527 -9.315120145024459 8.487530038440054
949 3.74645270893912 -2.637480455177825 -2.6109623079824225
319 10.33613125203554 7.505820750008848 -0.001479090718396716
551 11.760487146773887 1.4985405387184125 -5.106645886007554
1226 6.4234832905396955 1.902077113620943 -1.4002746604041103
1451 6.598651990090493 8.239621751404172 3.012230455213757
305 11.66831745937554 -2.499651299534449 -2.154556902615927
1612 -9.773973443202069 -6.8466613403049195 0.3773362335267136
1572 5.984380017184753 7.815985617835296 -2.384792804420309
1261 10.51065276932536 -5.175281735916406 -1.187108691594692
1241 9.016358273171132 -15.053671896694059 2.1705676099833418
1279 3.151748074902042 11.495475087046303 -5.870772221166329
1514 7.279559329300998 10.667416605398964 -3.4897967507176344
1978 2.869432963454429 4.624122233220302 0.4413676134299168
884 4.737419006946057 4.907333106418479 12.549609286320932
67 -4.067742796944579 6.346525212988485 -2.896384218532054
1076 -4.628126191029214 11.825930771286785 -3.010120126099988
1511 -2.046631379575812 14.762400467575844 -7.325926597740095
1732 9.600881769078459 7.006367679432466 5.713310198612943
849 -8.36050087533806 11.853490033551873 12.12161623862273
1794 4.701425769382474 2.838037352949648 0.9007681032261936
457 -10.214453759305519 0.6959406535398637 -4.656300004059892
1790 4.006885223692858 16.732805097998384 -10.849280912284334
761 6.14730692350515 9.003040336650193 -15.678706277508363
1714 5.984001653065712 -10.050949918675052 -3.7620828563576376
943 -12.91627828857037 6.742814608339112 -10.373011683380023
2079 4.733142814103464 -1.6414102926151761 4.757338839702409
259 6.3418740524640125 0.5111806192507897 -1.6802449531406294
815 7.429412879999624 -4.386167322212015 -7.639842742238684
986 -1.0561410887592444 6.1567031626747575 8.57232935479219
1749 3.7916451032431087 -3.2958710903122213 16.816218815029966
1844 -2.4835099188110736 4.0486444836983635 -2.396123638914696
1997 6.252315694567323 1.2670028511335931 -2.974694585920449
1039 3.5975240187490454 -0.08464599692634396 -23.526475664579046
1144 1.1412857246492918 -4.7816587936771064 2.496371576294621
415 1.084532045725765 8.494675385695395 -2.76089807382069
1686 10.979664717572224 -10.021112765627361 6.3232551083661415
1964 -6.159514297114685 6.396711033128764 -0.7659630947034464
2121 1.6023008192538275 4.123159203349452 11.91774535409587
1608 -3.0694980983599303 2.9456026865417773 3.49322473989691
1172 -2.5098988206415798 -1.5050403238910655 1.6856567248499166
1107 4.421669247197335 -0.9503691738179859 3.1318222127241104
1051 -5.343989361674533 -1.6747009315231833 3.5498771873664863
1027 -3.8880182968258943 5.732628389104889 -0.9054756991565716
649 2.0197429416363004 0.6068019287530646 2.495698856272542
500 8.586115781711076 -15.277166012211342 -8.527176690384646
222 -9.168069649593471 -7.8956404701325935 -3.955279991164504
69 12.487372477384254 4.02833265956616 8.543948149267342
517 7.966038853424657 -7.3239131791406225 -10.774263097882313
1995 1.1530137659326951 -7.497859945429048 9.65112102374844
1271 5.031067418813293 -5.096011019086312 -1.536879227829237
577 -6.223897295415658 7.73937229477329 3.34135467283445
348 -9.671365519147917 -16.319415752790654 -9.654796016655874
450 -7.119759450794678 -10.899045196298786 6.159957580755695
282 1.3768201720315532 -0.7379998542156531 -7.572203005675607
116 -2.922577019386421 8.490572335443469 -5.894749396933706
1925 4.8537802163376265 -6.0534391888634 -5.160589553273898
253 5.867895979789691 -4.759387297512463 5.963825818263834
1327 4.323695713018614 -7.606727018586777 -12.050722850085258
306 -13.806476779990973 10.095959528956369 4.306396708218202
2066 2.516574180484148 -1.2292612366101696 4.486652896471144
65 -5.450945440149316 2.591407701942286 8.650580299334962
1433 -0.5122112967774889 1.61367873152415 6.161961460329552
1852 8.414084137656136 -7.172942776209086 -6.330252787631738
88 -0.24721032959338426 0.6209822262096394 2.6972390497615124
403 -0.8972012469705684 10.504988415435822 1.6895715180386421
1150 13.910775887376731 -1.230984077253669 -5.6704790012721284
1131 -3.5947808401442454 -5.1024356670353646 -8.926313706823308
1258 -5.232864313927084 -5.908957761461521 -7.819651481911429
1035 -1.622600076542444 2.140842001838008 3.558067069313078
895 -5.428775604537238 -2.7432123971892257 -4.30949482779159
518 3.2047804988654076 0.40503517623471436 -15.000478635981024
2070 2.225280014656304 3.453746940912537 6.68180475459514
1178 -6.355296570281599 -4.620281898761613 -0.2383405753359263
1161 0.3513588068144212 -10.580099164876007 11.558613609209512
419 7.388024157153962 -8.74949017758156 -2.9233130800367366
1684 7.704192206017211 5.1238346376109405 -0.3540005691317415
1980 -0.46965953968727 -16.602134970748594 -8.734584005280933
929 -18.08612007206257 -9.23689956124208 5.74709272994291
1426 -7.896516795457384 6.747393000879411 3.1560204611647724
1478 -3.978676823604951 1.6546454790831806 9.223925068067002
1663 1.0028941331235746 -5.403295173643126 4.355816046777551
1783 10.352553569029805 9.370617828073588 0.4540637572869324
379 6.519699906405141 4.7497035123173905 7.138075395597452
605 -1.1520603566066585 4.208097980252233 -10.78826257756259
1370 -2.756006007628104 -5.858206761884467 -7.134726728606244
1223 2.091205089920222 10.816217674710744 -2.584890379198374
166 5.836704511005327 2.156999743061037 -10.600824202590875
386 6.289880038382495 -0.0023626807516301533 6.742726636761523
498 14.621826488895532 4.956046019846547 -1.98864141975408
1074 1.7281215222408146 3.222877284086375 5.573095591970234
2119 1.9686103585012 7.799356938141315 3.1270246838504034
2008 -8.91876089779672 -0.3124899847550611 -2.1946126229413387
186 -3.639600310275509 10.801892128967516 -9.233344387687726
773 -9.556349866875962 7.436145758363207 -1.2363061633476584
880 -2.228547100754554 2.988341800782157 5.354250645309581
22 9.211500777630294 6.941492112311581 -0.559546796443983
170 -10.729480552118208 -0.7716716565998094 0.7355850067161098
771 4.280426188998302 2.1117678873347536 -1.0933786842666509
1987 3.2712041704603263 -0.3848591172413746 8.014275408960591
310 0.6284527348474404 6.709701998404142 -5.768950403426417
1119 1.9648379271424852 -0.44035929198491996 3.2765441661722674
1536 0.888571230484162 4.374709613334278 6.314982537470144
1774 1.3638365272265367 -1.4333765411608348 -1.5409560824366086
1455 -1.9070723055799665 -0.4493375329580339 3.2096340892954327
1203 -1.6777687168449218 -5.461390356514883 6.368427475504021
1196 -8.30821026450441 -5.2362187682023436 0.7734310406249143
1210 -6.477741334692968 -1.3446548573022903 3.6936284994244644
947 -9.008850650171224 -1.820218480216638 -0.7842351257895201
381 7.845685482026535 4.775331914269861 5.365918088145247
1345 -1.7776081927852074 -1.3325386359127853 0.7495802961125491
2084 10.178888745784144 -6.268104966126192 -5.701697095974491
448 0.6055977106410244 5.910023140432196 4.100538396992232
486 2.9698318120633607 -14.258229487064302 -13.974680639990464
201 5.918331412453856 4.115498636242109 7.615308817595522
143 5.651985225004246 2.316039246876757 1.4982174233727013
1292 12.277404534420022 -2.7814185841707673 -0.36170611733561714
1893 3.881484006739729 5.5930574630300205 23.711481320483976
930 -2.0034952336664964 -5.943780772632936 0.7206004286798261
1996 -3.3713242172454057 -6.051737684283955 -9.790683440523432
769 1.7556553838424676 -0.9852150197874141 -1.9471775684095223
1363 -11.54054659791039 13.266805005182361 -7.5449167724279995
1307 0.8139273818428943 -3.5246180528831275 1.9169405431966102
1875 -5.655868833282765 -2.0767786781574546 2.708864729864806
631 3.8671696878884863 5.6670622620436415 2.4533551147481822
148 4.866106056011775 4.3469336032302595 8.33584030234657
1236 13.157470429840394 -9.346876656622113 -7.7717266200013
1221 -3.937439811699556 13.4151561161878 9.445085253695593
2089 -11.70081822782482 -1.5694205232772527 -2.1135301326940255
334 -10.773099823968899 4.38416176550668 -11.219889584380956
1501 7.900550548297596 3.726727520450339 -3.7252042266001317
1727 7.766253062678956 11.91147204016312 4.218798175208935
723 -3.9816922946908484 -9.445981140563509 -2.1869378152328314
760 -6.9751005151575285 11.656152289442096 4.807825184447998
1276 4.565696966698852 7.487751886327103 -3.2412630240984006
1821 0.7515378456495163 -10.31024237182253 2.5943938443981374
984 7.609095195253172 2.8203479660732897 -0.482999102487164
1316 -1.9573214733783286 -2.5666614285472553 4.0147164922167535
1351 1.1856531283576375 -1.6606350564050372 -6.531827550075674
579 0.7397654588096245 -5.7541042504266136 -7.772643343623892
933 -0.8708538928750134 -1.730060615002801 -5.036205670586263
864 14.468912991687011 -2.6087978348846805 7.174894454445503
556 4.4994144407782 1.9796676847074437 5.976498398451234
1314 13.114499833141089 5.965458723204304 -2.9425244967161417
1364 0.942575969673496 -0.7964632341882923 4.482229089779537
1717 9.712644895120146 2.4264075687235054 4.716452582732178
1941 -2.5296427363585035 -23.122784487459217 7.291145376419019
135 -5.160048823683693 -9.641832321507941 0.22220476789046162
1014 -0.7738646119524307 -6.409820671971118 3.8670253486780184
1532 -7.89712846647374 -1.9197199773800233 -3.9284558527726494
488 -2.027583448027073 5.39705381087244 -11.187477825381933
2138 0.6017550351345665 5.6160229857435695 -4.030211003730396
946 7.173575778588865 -0.09736824416424619 -8.187353836120016
1624 -9.466130345108107 2.980638565176161 -3.683754302962045
355 10.22932039535499 -3.375547000964839 2.343048718441369
591 -4.362343589819787 4.284014395730266 0.12839328009719245
1841 9.048776892607115 -1.577203035953127 -8.774632020781482
1462 16.088452060617744 2.1274811626447594 9.070779592007463
1751 5.152526960298723 -10.172364077752423 5.365725849453072
550 2.7971120011461195 -1.6726575147214677 2.0978173828696565
1437 -11.798827151762136 6.200361439517664 -8.204583917801209
3 8.67020105489795 -9.64068778236069 -3.8840455293424423
780 7.663683506475431 3.1063217962674483 12.23108160227247
892 1.128818686542336 -4.836993127591395 -4.104017924302945
2022 19.898919635404873 7.061686946968019 -1.9904588695088843
28 0.7534986807398599 6.109962089213716 1.5618234893261793
1127 4.713053498157724 -0.10973411030103512 -7.936855293296767
33 -3.047524612793142 -7.351963481213413 -0.46509990628129066
1164 8.512023402086893 16.534617194623827 10.7279097446389
639 11.182990835659773 -11.17931932034844 9.712629115926877
277 -2.1851317867922266 -5.474129504251441 -4.125809509583071
19 -2.8792279670865635 2.4122842029159925 12.043062304937452
699 -5.889178672018046 -2.9953141851074427 -4.248399422806874
851 -5.8888155368052635 8.015346898798711 3.2132139874962626
1301 2.2758652448185592 1.3516028294801874 -7.401678300611233
1538 -2.8512259913053075 -4.156170181431875 -3.739207679524148
808 -2.0540184310363907 -0.26025418459178634 -1.6838612377823297
1313 -5.98405120267793 -5.636144586846955 7.629485932470571
408 -4.30763637944892 -0.22983948114869143 -3.7933339800964694
71 2.792279828493262 -12.278888492280515 4.285450411085107
1836 13.687086490917867 0.023539459294461614 -3.020276126931562
1393 -2.0571229124860135 2.7900995069263685 -5.362062673369481
527 -6.312313634564899 -5.152843495377089 3.998661606026221
376 -0.497004225563427 11.760770129417537 14.431545842741691
1699 3.4565017672157268 -5.344573463169933 -5.145300204949169
2044 -0.3541132301597992 4.57982136381271 3.4423666403727666
1793 2.366827791469351 4.086754572416856 -3.083368365225998
196 -3.1029148676378253 4.437992299913433 -3.3635888948770414
1835 -3.772590000963263 17.97947787612769 10.22337607267853
62 0.2447200127814863 7.712200940269135 1.683710220043096
911 -1.9228457518573694 -5.107821478375167 3.876604483933952
1442 1.2554692008159178 -1.7898771293601996 -8.746795257604614
1412 4.007324824286012 -6.4273873129455055 1.4122017804205627
1167 2.4722709915234806 3.6405382014770464 8.290718765684723
1053 15.622049152032194 7.405382578681293 1.612478142836362
2146 15.473328878950602 1.4331680752329907 -0.15915384360717488
2015 -4.676736273091065 5.072828871609819 -0.7206717952446432
816 2.6730223313622377 3.5982865545971383 13.616289583877432
887 -6.355306638472269 -8.37576757386359 -2.0855653558677627
159 1.961967463687072 3.0692299472985387 -4.94752666731911
479 6.536052182897446 -3.29238262482583 -4.156716466012606
281 10.3527449426559 0.5707251474579004 2.700015470293493
218 1.8057019705939181 -0.8166277014682499 -6.1961908620147845
2016 -2.001428012110258 -1.2640458475445004 7.241067591821898
1829 15.274572415396507 14.058041258647522 2.2070958789570825
942 -3.4925717941284997 9.655050838362738 -4.207453827473693
1293 -4.453332665661946 7.951276264238548 -1.060407452553701
1489 -2.3026908167116322 -5.034533287896746 11.522296144031769
460 -8.49948654898388 5.7495351602028935 4.701568901250767
1342 2.1268436527205083 -2.463718091286632 -6.520748803911536
263 -4.391637873070826 -3.877222921612117 2.2053567257662556
729 -1.9357385146460575 1.6717098289468968 0.14717121981030454
865 -8.063571717848822 0.6799343270332924 -4.253642235859282
1638 -5.809658061550833 5.594753456313704 5.822055314614077
461 3.7122960601357224 -6.259446334579186 -8.068453127216694
915 -3.0281735618975767 4.770467297369357 -8.866531538379412
1481 5.831196232058928 5.062078508168241 1.562985218187545
499 0.5833177807909518 -7.583894004531351 3.7732260596249385
1346 -6.388703455794753 -9.580969489183351 0.348128504085459
1523 -13.590260325977686 14.300070305195039 5.403457875163842
321 -0.41213588496571857 2.5656860722609833 5.847497684704252
829 3.1223581645889102 -1.4529794425119962 3.217856360512344
2091 0.9925293870034072 -2.11527483405725 1.4868799131186825
2036 2.183317424196054 1.3105278467945596 -5.1932962166559005
2158 8.530682763848606 7.794672440432235 -5.124820545118848
1533 -7.017417720760028 -3.295597637342673 6.538133405735838
1731 3.9860011074597113 -1.555064325193464 2.7268934414082255
978 5.990332011554029 5.003839085103419 -5.691931878577198
565 2.360437029272441 12.102864749942318 9.793946358627524
535 -5.319619031553624 21.774210854726444 6.94302835275127
1124 -8.577195798950507 7.8412212164333726 -0.553452387770649
340 6.546188447829585 9.882153466925343 -1.9134644451931742
1691 3.1254236542885585 -6.293849491160277 -3.710903996027868
690 -12.399780846124107 0.8516338990071989 -2.5317039112990307
1589 -5.64601816840855 9.587158237944292 -5.225648432287075
1413 -3.6092982311395665 10.439418477971971 8.730621134086011
687 -1.9890775503169833 -11.427128669327516 -2.554947820333757
1721 5.0422062152630795 7.874632397948231 -1.6955322944459568
710 2.8236499372233412 -3.3486092415903865 -4.955680681388692
103 6.835194345940647 -1.9239887224486076 3.5777738912289174
1645 -0.30127380810013615 -8.000952977453471 7.85587748295924
548 -8.83564079359488 -2.8296419758022155 -13.948062021926049
162 -18.759011900640854 1.57564083713198 2.2850476414651952
283 -1.5490485275319004 -9.644349797699265 2.2370207191100837
489 -9.8419674794445 -5.326400301346058 16.788646253565293
388 -6.033549653437298 5.192478603878189 1.610013265867476
1678 8.399846054092656 -0.1527781313641715 -6.106996738512056
733 1.3514787195730513 -2.7206459615888514 -5.549891339505315
883 11.579741678830771 6.9639467437174325 0.15294702896183615
107 5.303038114394039 -4.872194330395471 -0.6105478598208991
1664 3.062997064224989 -1.0921183328472452 -4.970913011614739
1093 2.478018018879569 1.7811460910876102 4.326619609551374
969 2.9212468535568528 -4.098349522884328 0.828203847002816
595 5.19752810832223 -8.3541788283683 2.4134091745671644
608 5.6996289500338895 -14.505225599575494 0.41231487957733953
436 4.361304615676106 2.180017318718743 -1.5571266005204736
1932 -3.7630191582864323 9.045156017030887 2.2816578949960893
2141 14.80407097308097 1.5873332979247856 -9.380061192410537
1031 -13.707427200357875 -2.0914624037725154 -4.831807321961933
433 6.635357219970786 2.3368638654078437 0.3521488766018105
1483 12.892499096139934 7.692954798164378 7.180339226519864
1375 -2.3221549655725378 -7.952713641748268 7.133698927969267
1895 7.242136224503592 -5.1587100425876455 3.157913203250493
1240 5.960105620544022 1.5485706983065366 -3.166715834322065
1037 -16.91959476524788 -3.3423146017663994 -4.040463619379621
1954 5.113958689327888 -5.660499459481618 13.581236097887164
169 -5.9555105739676115 -9.640861782529655 6.037379837135235
1756 2.3131850310040654 1.0594112475807833 12.819659046600929
298 -4.9992472785139865 11.611927872404985 -21.858039202507953
1216 -5.268792216191948 2.142598570915304 -7.985084837074012
1067 0.46188253869650303 -6.113188935367096 7.169984096089767
1596 21.673980055117568 8.015211895334385 -12.606716589932603
1486 -15.049997349461329 -1.377911854231102 -0.4967853092449202
2083 -1.5474402796593711 5.599216265545485 -2.1377699922289266
435 0.5413921174787021 5.016040519944881 -6.264688436104027
1366 1.4206353974331052 -3.9020888956467776 -2.676141047930782
331 2.7372876344369117 -2.7009065241316854 7.099929253283366
904 -2.246158277616105 -4.267915046203659 -0.5337882765931734
368 -3.7163279678856433 1.5286188662156919 -2.804461133423722
544 9.332152522520587 -15.642190802411864 5.509000140759438
607 -8.172046146584407 5.877155979202262 -3.6365695951788384
1881 7.183060476378681 -9.27220491399737 -3.2171922201447676
1761 -5.730407816011022 -11.100119901767055 -16.996975173164724
1417 0.6472607187155794 -0.6687372155110874 3.6244876916873525
1163 -5.127161806191764 12.011992537102135 -11.282945312434913
400 -6.227793809332214 -3.3226833539517 -3.234654113423514
1927 10.878884731822815 0.9899179378284919 10.325527581642113
1675 -5.761771260719785 0.27601065191557234 -0.15515365851774338
2072 -1.1594379392176475 4.5156354251887585 3.41049679496972
111 2.8534974818492387 -3.408714701651998 2.5364416830415286
234 -3.7549065514778732 -4.011232378205664 3.00272586266938
2048 0.4119257060822162 8.127765775694886 0.07862257065156139
1530 -1.943706657241922 11.428825332594696 5.985989105927688
443 0.774559644250793 2.9425277736895885 1.8085854243893142
1312 -7.070612123135227 -5.461300812428443 -0.29205534416261614
1332 0.29715779426226385 -5.560108084319366 -5.0824494406951235
784 1.7850091415140121 -9.474819344211426 -6.323770168139511
1689 9.149722302999763 -6.3890840938326265 3.6701569719633547
700 4.864213732529293 2.6465935473510203 -5.422882751673261
173 -1.743844226879532 7.650640794696643 1.2617999758845337
909 2.2294065100705844 0.3848710357080255 11.820709277760251
655 19.73983078925479 11.441261754008652 3.8202788055983423
300 -1.2047255721602905 -8.96599818685333 -10.74804259876619
1480 3.4160543657785865 -1.779267866100612 -5.941006520612711
555 -6.8227624394301944 -3.523413342583509 -0.7822054074603708
801 -7.228323282730399 12.80928142869316 -4.705763091443046
2110 -8.624257468565963 -4.9903109364537155 -4.274077083563991
2065 7.458732063154607 -3.5627169058586365 3.6856944920163754
2095 2.8171972045839033 -3.192133862483358 -10.090327951702253
1792 -0.4358144959145317 4.46242669812028 1.0542877506756811
418 3.3611191624067165 3.8136993583440186 14.316448504882326
1823 0.9493799975949697 -0.7946944103295313 5.893037898358163
1780 -3.1763242967196827 2.7577756090586196 -9.173195805759775
2117 0.03206682761525778 -8.73441037501875 -3.8120638529581146
1635 11.529801237753029 -6.175539756693257 0.2739016555406066
585 18.841390698849406 -1.406301461103967 -7.268576083057186
1977 -8.98735326165417 11.407883045098623 -4.75671796996618
1619 -4.728329380068014 -15.612953060955 1.264091807133217
901 -3.95147828063458 4.832794518422037 -1.0092228055472223
671 -12.722196815657224 -18.12658059158335 -6.130790346510978
264 10.347183539043424 2.490387392320549 10.98331980825722
584 8.027014479944121 6.59891381243093 -0.48421425903521115
940 -3.854729039740796 10.111511193235346 0.4084725625295831
1041 -0.6705124352440213 -9.035223914907204 -3.230841607157137
1347 -1.8382197774561562 8.74538545364125 -1.6061294618982025
330 -18.172765778407346 0.18489303126686737 -1.927192917854229
1290 -11.91955086802762 1.0331167919006112 2.6268540186076526
511 -2.4021217620890774 -0.9018110110435805 5.685919440923067
469 -6.175358714253512 -1.338326437741969 5.675425953683343
606 3.8253349160894166 -5.6505213120470525 -0.6432527427858827
569 0.2591146945900356 -3.4028241330434805 1.909586502290533
398 0.34035364953403263 -6.89883922553525 1.3024384723664564
850 -4.318596552200697 -0.5442898950720194 -10.183127955355735
1007 1.583866946648439 -0.91734853189693 -5.1037884823083655
1550 5.493458879928913 7.1107022237933215 1.9601071886290848
740 9.595505146533776 -0.704482655985655 15.348530339710146
709 -6.47881021567941 -1.6796214944809833 0.9460102613394401
774 5.703199941429389 4.024118594052115 0.6842355588521671
490 -0.9312350549025787 5.8262198541008345 -1.7943911796552647
1603 -1.6040926207580932 7.25764904457183 -6.838753206415579
1669 4.265213765173752 -3.1925204539154075 1.9014790381308473
941 -1.8938791253422047 1.9199628636994575 2.0707235908301973
2114 0.9588050168317919 4.432766298299952 14.023763835994211
1423 -10.314533612934312 0.6760709729368611 -2.893862384028188
1000 0.4339842706899338 11.121374577542923 5.639333397337529
2130 -8.413209707713206 -3.627118436861173 5.128000229808317
1508 -2.2133627176459836 -7.572071562315661 -3.2596047648000894
2108 0.7315062126673426 2.1276987662584994 6.4173513775465105
2017 0.7871080362126015 2.4832279166888602 -0.721208149751008
6 6.243582450910666 -9.224339531088464 -6.870228877428155
482 2.932652275554123 6.939643864177464 -6.519218455576304
1353 -3.7512147347476392 -8.308846703271566 4.140180617128758
130 -12.500965727072414 -15.382842660623268 2.031655891290997
167 -11.030062190233279 -7.110956496300524 -0.6003771431816067
2103 6.363023703675702 -2.918607481079638 5.588172607922736
2098 0.4853662315073204 7.545357149844418 14.34019249816431
1582 5.528275846659168 -1.2560093223670175 -1.405727971639386
467 2.0768582871546637 4.950012224591318 -8.789816246367321
1071 1.5582401670119594 -8.01988608982803 -2.2781069861033236
1474 -11.573204744164858 -7.480700952413845 -13.589922097372977
1441 -5.825662676249806 -3.5261881506044332 2.390077062625951
717 -2.358306219453656 -3.56241021519267 8.735484992049315
2144 -6.939045316037745 0.8251254097703447 -4.1185004232312
447 -8.145817889150123 -1.703252025009943 1.2599744733847742
1099 -9.084590677073324 3.5920811962695534 -4.189992264306418
1003 -5.17635171105007 11.598214321963875 3.605855553187496
5 4.591602916743269 -6.368247724623351 0.05109702971236734
224 16.960869668285078 -2.190054437116792 6.312496267038783
961 -2.5150046307712572 7.232951867209793 0.3818886552018543
1106 -8.464808180736995 1.4559524405982547 -0.09864712682988144
1554 1.9530359095538297 -1.6791225897030733 -3.3308810284723074
236 1.32691579004009 3.971783462557683 14.384414602148796
619 -7.08078281319064 14.600073542979667 -10.776827295947127
1515 3.794341709198109 -0.04447222805067668 -1.8926960110897242
1434 0.0951913468638619 -7.544400216603613 -10.32084692801326
1341 -7.917968895114893 11.970413095342343 -1.833431814640655
1775 4.552383078645221 -0.3154005470415032 -12.15350426458284
1983 2.314223074534675 2.698677278692095 -1.7083626336025919
288 -11.096831277720197 -8.289655362887935 -0.8917661353998024
1285 0.6399665965165277 6.201060461385698 -3.643394011183169
1781 7.279858678772884 3.2055897688468606 3.3802044920417957
1716 1.2865505127293513 9.977221879230447 17.87470523233248
473 1.2994613445712928 2.5125572543152983 5.196390960258198
1052 -0.7923158191832145 -0.8794331579190912 1.2604744306155873
770 1.0696291966185136 -4.823192896802117 3.2690774967225544
2059 18.382763549929376 11.64542719315596 7.771161432706394
938 4.236478732294033 -0.23450262754759976 -2.9468927981938573
648 -1.4183822967708688 -10.204065445398603 -9.363753220906979
1602 -8.459266114981423 21.941566063721645 -1.9558727062223848
51 -3.5858665427761935 15.62003858016317 -4.189861834748141
154 -3.6763046397532912 3.269816064788985 7.800754604757567
916 -4.202610225657608 13.546362011146384 5.999095687633506
520 -3.9505900252228985 5.766024110563242 -2.733904811000992
1722 -3.6026927841702503 -4.7162000921679255 6.807024882735727
350 -5.250058406054941 5.258001864378758 -10.606459519369972
1733 -5.104564861138949 -8.497822947378921 -5.3921102380495185
483 -3.349898914258045 -1.6983054206791621 2.3205625599694732
614 3.2161222472395234 0.7859594309942906 2.4344349092581745
1917 5.842381130473101 -3.5916308370365946 -9.11764108070913
756 13.325357229251566 -6.3368324886324165 -8.857781918531014
1209 -2.808293695965474 6.1601796964006095 -1.9507842526881256
458 0.2697796666077928 -1.5308756389967144 -1.2216990409776627
1334 3.720308370769535 -2.5218698811113933 -11.698626179839216
1188 9.059694028423293 -6.053053488942398 10.26028625865621
1840 -6.114905769246693 5.109564012280249 3.5006430751193647
1217 -2.2446441801376795 -12.364146061483156 -1.2272291723905246
1601 8.58294150401759 0.7624754375642181 0.3033171785399452
1529 -1.9925838245633096 -13.192969999784161 -17.12357164588071
1670 5.603906952415381 1.8317197372225928 -5.852977482538003
2013 8.275814772070325 -2.567298862070625 15.632492030769157
521 -6.291725520364588 -10.522967356789483 4.850777057680516
758 11.713512904307688 2.396607913771191 -17.16531015999508
571 -7.239371521134814 -11.679541166706281 4.30555613242043
1242 2.002111999331929 -9.582090154425897 11.91759238592586
1324 -5.482824823943548 4.321707551304538 3.2628093953507338
1470 14.888783790523812 -2.8903924573486326 15.851426215916518
814 -0.029158885306613164 -10.743998519272262 -0.8522205699157551
1296 4.333702760100986 -3.5746228817713104 -5.809640028537965
1548 -1.822607052639879 2.4649342874276075 4.1522281278349835
472 -10.997829545159517 5.920161357316237 -2.054762660126516
109 -5.069697893162403 1.6297921421546373 3.6359038310751184
1286 -4.960848429165631 -0.47442105710045585 -1.3981879175083491
1629 0.031408115611364855 -9.360086783415843 -0.30805451197002404
1064 8.440335850641759 2.4883650875687118 5.786684567617613
654 -5.460494569121339 -1.1219370706636385 9.037748021902058
1080 1.7123508860853507 -4.167935665921302 3.2049182007590344
888 -11.514876554894556 9.706186444583237 -4.140500285456984
1876 -7.360049607029958 4.283239631044569 -1.616782421530238
252 -13.92887503198077 -2.1503875039915514 7.066873371996975
580 -1.3880926936834053 -4.649698522630851 -6.594997692592935
646 -7.697241020215589 4.938414288384875 -6.2357989940693015
378 7.696199194445021 -4.357337800165162 -4.871832468043863
590 5.361982518419832 -1.0744584341157506 2.43093643929408
1278 2.440922062531319 -8.007704528581547 1.6224956036770026
1642 -0.06171991908845298 -1.215735208595602 -2.3763524028610585
1994 17.237187272533863 -11.971227036680812 -7.818303272324718
337 3.6345359765654277 1.1174286415569221 1.3361321401427462
1148 0.03639168000035912 -11.256144098820418 -4.391092007367327
272 -0.04628132192284158 11.081016484527877 -8.145745371095408
1389 -6.8884715782609085 3.7814511466984326 1.9827216574151525
523 1.2795305343364602 -7.152773370710382 -2.0245420363236115
506 -7.5492343542742395 4.698354202625758 -5.813200082863606
1101 -1.987683522674738 10.15387656944392 -3.8215609794925114
576 0.5546661486753666 2.4721256142126418 1.0247059929253457
824 -2.8452908037610265 -4.779552551237112 -1.4710181601387096
665 5.161023277053267 -4.499604057283168 5.746614919145162
998 17.536222526137077 2.6608217971453865 -0.9226788050373942
1764 -2.0142842107895733 -9.748062198046664 8.17794645967335
24 -7.750278840181091 -6.439077206214258 1.7997297439276847
2115 1.9117057595594502 1.5194163347675076 -7.211733714161721
1029 -1.1153230730110828 -3.8395988947727373 1.4195106266014546
906 7.875217237477861 2.190252930473948 3.242680448035676
1695 10.89337028124455 -1.0957225403239699 0.404702265062121
1173 8.945044187054714 -12.224310378197304 10.565018902548635
999 -1.857515684354942 -8.163502192141756 5.960368336714854
1130 6.239488729906005 -1.3496937776057618 -1.132727736020007
1662 4.906693287996298 3.487769086261013 -2.315112766520934
168 -1.1773372093208871 -0.31712243712790544 -6.305083287126658
402 -10.632778908712561 -11.254278154266489 8.026993902938704
158 -4.6467792744162955 -5.407720570570285 -5.8716837053629485
357 -4.03895082485816 4.313452376855984 7.303620103330343
156 2.6207612225437376 -1.2892569957839075 -0.5033451868766678
1610 -0.6906268732498347 -2.163736056634661 2.222257396102353
647 -1.4240290834970424 -4.394111994446719 -2.187088310517371
2118 -16.269578406741577 13.810123935610445 -3.1205821873729542
1299 -3.948178157927316 5.700427544387175 10.388731107975353
1989 -5.710929313362503 8.635376009243382 3.467856897891192
363 2.288671498885378 0.1023857863831322 2.7256029226543297
1416 -0.4220711461106797 8.90710002773385 -8.98050581476367
918 -10.349858572111179 7.294193227822323 0.4559907611682026
1542 1.4037239739344376 -4.128468456283908 7.358509378929045
698 3.91458158150628 1.5661301714282005 -4.966474203471963
1701 -3.4106597099701372 -6.959945656368995 7.812545708615172
84 -12.486160244018578 -6.799195978001817 1.9175668611230474
890 3.008495830603144 -0.9334547990733508 -0.4949355261905519
102 -12.680408678004028 -6.394153535016226 -1.2511944768515881
2020 -1.2432272270545535 7.669708692422791 -10.806156742227596
2010 -13.140442529248755 -4.210368810948816 6.699133653118478
64 -3.2222330747073795 -1.592983729409494 9.272911922724866
477 -8.931303770646892 -10.462519343469427 5.110431281454322
960 3.5890803572334757 8.147335950213554 -7.163782547291247
531 4.4972796922376235 -4.876697987979653 -6.148491459202072
1414 5.63205714332652 2.053575350211666 -4.14214987963124
1320 1.1583981516177377 -10.007259609529461 -1.0335947009167774
1109 -1.0496224201752222 -5.449953250783834 6.849357500870506
988 0.4932291942243776 -0.0472016739029816 9.062427422102958
837 6.445258433410565 -1.5263058482939846 1.5810292244737632
1340 -10.718863849418222 11.709836181252673 13.771576990737548
1159 -4.707042750852614 15.244709914560298 4.23506837900833
841 6.485248207978129 3.3594422898014287 3.2571495673519455
2082 7.737866534817124 4.60048862659219 -1.2583858213119272
1796 -4.22174167420851 -1.6080513514800685 14.586257446279088
1820 1.6588506579233673 -1.9156752453903576 9.613926006933621
1090 -2.9364700214671915 5.319624937527794 -4.609912251496959
1371 9.009620252942879 -0.9740597422717358 -0.46976432029287335
1410 -9.31666652299412 2.1039546920264516 2.1157806430733457
1022 -8.495615005698909 -1.0046557820073254 -3.085722292262637
2039 2.1993967682431 9.734405152890666 12.291736093061285
1179 13.219441851002657 -11.3658072096941 0.10892717348684997
185 -4.925329675318198 0.3064151911270912 0.8119303954556284
1001 5.74239020729648 -3.162707298977035 -11.318861062877842
1868 0.7374887265949934 -7.909327207654261 12.689437452723643
762 -5.096191877077723 5.638368250222741 2.2382533154462205
686 -4.788904538592121 -5.964532949084087 -10.933248403291
788 -2.112685129298641 -8.356721450876528 -2.0579766308080587
293 -6.815095016748367 2.343208176044902 -4.535983773080135
566 3.185558944969404 1.640144618990776 -1.7039377081599445
119 4.474980779925585 -10.960589649532823 6.9331255631639985
1019 9.160421521336454 4.647247907952936 10.07923341706261
176 8.012789278276669 1.3222964015312182 13.000585525150681
1213 6.278036441522262 9.437900167316972 -1.7903731009946928
1791 -6.667407660835504 -7.12846095831734 -6.314346261399369
1030 -5.167288189566052 0.47464662873831764 -0.4801973082657062
1556 4.922771231158182 -1.3042885491464558 12.11700270074757
1472 -10.576344115835315 5.171081596867913 2.7319455983448053
2019 2.7588943323695587 -0.43057356265775515 -0.8626296427952737
1655 -3.5751571184892383 -15.785721228745885 -5.680474266300018
1026 4.329910005713505 12.556749261754707 -6.116170723843965
203 -0.4744862711032581 4.641379354004259 3.136103837726574
1142 0.3148909537815839 12.51593937000394 -12.160513413663026
451 6.079225671785289 -5.232517942596371 -1.515593563694625
1013 8.41242152892695 8.219081015180077 -1.823858909568794
1310 2.0874761683945438 -1.897869855272587 -5.258230533351231
572 -9.588303616635038 5.650295487273875 -8.229724765557217
2037 8.499996196899936 8.896407232142085 -4.797359818718097
747 0.8809814799415678 10.303597799908687 9.236122406154776
1640 4.867304928003004 5.771115587057931 -13.574619638531004
858 2.1691601181885667 15.579719199335564 4.781542602093909
1974 -15.39362951407032 -3.8086577513454296 1.9818194504674238
268 3.3350416276166848 -5.69399018373123 4.947055063791702
669 3.1678140704751296 6.084596070985943 11.949538747563285
836 -3.3497226224950136 0.23173879907672537 2.8338109306809267
1564 -0.6019667870755694 4.233153012957616 -8.655232871280358
1004 -6.539468878331138 -5.473695825277152 11.027552023903576
1544 -0.6357281855354229 -2.933454292046168 -4.964726369211715
597 3.333218377326813 11.636980479293758 2.2292090571831524
1149 8.929466226070709 -6.51317294085972 -11.844836887680996
2026 -6.656104165797455 5.614271016474139 -8.125950236397657
529 -12.572707604990253 -4.124705400839467 -5.213925122659675
1207 -13.791457939074533 -6.427757756634759 4.785816111851991
1600 1.1941451914232477 -3.4830022806168723 -3.888237431694566
1325 -12.481033999574045 -2.2508006542563486 -5.4444275837228595
1522 1.2542295216348502 -2.144753394260498 0.6149171238512451
2069 -1.8609605790726313 0.4168131213578037 11.616297506451815
894 10.667998373936022 1.404139623226125 6.0965609850493285
601 4.722784901404244 -9.658588746844014 0.31897650567394037
944 1.8818826047425756 -17.16174493977421 -12.635414426974945
322 4.202377924070684 3.216832768010382 -4.45702282420637
1198 2.121536085419382 14.63019340716977 -4.613583606727203
1190 -4.516002364149341 -5.38439071111456 -2.011715706435411
1913 -9.861497997225122 4.175737385680116 -5.423203452504102
1168 2.5380965630940158 -4.116644112738984 -12.626837329501592
1970 6.1782111033280485 7.205612505965066 4.752572271697563
1398 5.1268256278257605 19.421663721955607 7.44223425197891
86 -0.6778660724172616 -3.027474356822882 4.034864623741667
1847 -14.66219900889799 -1.0768058646028618 -6.82386211107103
2058 6.364829178406357 -17.21676046907643 -16.15011565135723
70 -9.094650145199543 -17.43215754615637 -8.866333656150827
604 2.395743609830627 0.5596681499714216 -2.9009922544550917
1128 2.73490852471344 11.504826209647685 1.8409603320791355
1966 7.919442509651564 8.70001747308509 8.153205632719802
1322 -1.3817479379925093 2.017183978125669 1.208094309834359
1463 0.8162062738797822 8.7890378624158 2.6409076246545418
1227 -6.13675567736925 18.80949007908103 -0.5206675731714951
754 5.2767406625336974 -7.654471502526776 -1.1485912940884586
371 0.3590101633903354 2.3293095703019775 13.854115281497572
1951 -9.775162604863127 2.434052628928368 1.4243239549608424
325 1.6920996386849678 1.5906738749741476 1.4257474896542692
935 -8.724692334617849 5.541647789492808 12.628854531723025
428 0.43569687678565 2.2775881894859897 0.18547719503567822
1630 1.5443276947851563 0.8386820980101105 -14.9782347620178
1012 2.2188511855109656 -7.57056346308952 -12.884610070590025
1401 0.5033412542888959 15.453763804749084 -11.169983873755081
1498 -5.007771792427482 -0.8043836289444081 -3.4934469722759935
2 1.434400812409439 -8.504715517444108 -5.3280305915427535
993 0.5768013279189199 -2.459064755225858 -8.80279472466532
429 10.148596255453938 -3.993286255937961 3.975973305357213
1798 -4.228526400320565 1.7532895002222162 -0.8888743521059188
1369 -3.492005663142555 -2.7679888348901867 3.1556717597869604
2064 4.283100433661953 2.18802569394559 3.7315435776612507
1063 -1.8282504523964538 10.26043515032891 -5.926429190414516
805 10.101952106312002 -3.3819586987562427 2.072637182455177
318 -0.5338127280813166 -7.0088415076874595 1.4693608407258472
1245 -2.9355169879547534 -0.7820307621677614 4.756966079443074
992 1.8037629296092956 20.675349257932595 0.7133452345717446
2006 3.7062802380463937 6.759254054496992 -1.5171999294389171
1979 7.372793005585729 2.4157057211840223 -0.35015173934211297
1882 7.829423942570564 -5.51314104469653 -9.055414861137875
1525 8.199537242159408 -3.3727689354835766 -1.615338962790708
1206 4.905261035867433 -5.242223443736429 0.26410033912129693
1477 3.3500459755535252 -0.8953707258085669 2.505147194627542
688 -2.352432317682019 3.561554995560687 7.6180171844530475
452 -6.100338061553976 9.203902116968239 6.106209639490905
1747 1.5738510427415768 2.241618378492461 7.13051217419555
1811 1.0568934447762317 3.4214799847650923 3.8345984662143033
1191 -7.5197326517925305 3.3373660445119246 3.1572391742688475
538 -5.997069410534962 1.2447135468549237 2.5012263319161088
1694 1.890585829264535 -0.16184011428272 -1.013246158430541
1355 -16.489227869663953 -6.820315877950493 2.472385769804037
2133 8.959494297098795 -15.553759205612158 -8.017330166445381
1176 7.633846990778488 5.7150044252246035 -9.505249086230624
1789 7.852716398461151 2.877060857818856 2.852502932641148
1113 -0.418160723905553 3.104007412643602 -2.207949932337261
1102 -8.700209613183429 -12.094080013960225 -6.956845873859305
2097 7.365860983455464 -0.4360860076772414 9.437962318936519
966 -0.18310162332758798 -20.280876408847853 2.54598433810622
1931 6.428893420687989 12.489425706676256 -7.578995834570819
1971 -0.02032830508747449 1.8816246664858232 2.656522019186403
1541 0.44181817288868597 6.528189386788952 0.18480843862038643
1962 -7.862977517220735 -3.7342373182891038 -7.399452645057489
1277 -7.3052746947505405 8.84497138125254 -4.050780164607906
721 0.11654996627827655 -6.128214976757983 0.6326050724872194
617 -3.9468923097828523 -2.1201753623776733 2.2650295072068487
896 4.589328909890216 -4.951862787678372 -7.166962726191756
1152 -1.0100090445942105 -0.030580345521947626 3.231527232277077
965 -1.9417382704782886 -0.6191171463074224 -3.6088848104476976
928 -6.3773279276794534 7.108911628752372 3.870145277255259
1580 -2.835560440717595 -1.4930845167579645 1.7143559534126136
628 9.780045677963184 4.769678099461284 -6.156572896029661
1077 5.521727905300348 9.143989306775044 0.570693512444926
830 -2.2402722911629454 1.4533184172088123 6.779839800196386
1467 -0.9319266312820786 -0.37063682331134296 -1.650777842107487
1126 8.756658029473815 0.9436117072673716 -4.120767055997189
704 -4.643308614787864 2.703912251163827 7.826372155911136
846 -0.7046809444862436 4.197810909598484 -6.683549497647265
640 -3.4067044358608216 0.8907303144282551 6.558172779992932
1247 1.342230943469632 8.942567943974902 11.721856108604827
1273 2.774207146784333 3.5263747447664975 6.337575836452437
1907 6.717849498513415 -6.266969627835326 -2.4111506082512952
844 -8.186542473571254 -5.486556198504724 -5.223577917549775
679 14.74530904006512 1.4297690849387168 8.414288058557597
1616 1.9696844648715948 -5.18608014828233 -9.128965888554472
764 -4.434289886300892 -6.101149976038183 1.9345058634945889
270 6.272845044176978 -0.1667872521667411 2.4659133159918785
541 -8.770096813361649 2.210378562211061 12.027078775211542
871 5.61684162987294 6.3773846560413014 -11.059806619817406
329 -2.246641067792891 -1.190344704046827 1.6976958205899357
1622 7.1377877311151625 -12.021639175184415 -3.8477330312511535
1049 10.236701919404576 6.874580332885717 -1.9976520636240245
1246 -4.753155113011877 2.3497177078753353 9.932624629385352
672 2.5000538283765024 -6.2355656718184225 -6.287780091298135
374 -1.3315120525422697 -8.580199819536888 -11.723622615205949
1473 6.325294688646603 -10.845308052650184 3.0497385996134567
1718 0.7025887411156468 4.363279335771581 0.8861147275057417
1805 4.202611575052234 9.319821409901198 8.056607421049607
1739 2.9096548838134795 3.3614302245494248 7.459368511188378
554 1.447011478638527 -2.15439162176961 -4.463757846032344
164 2.1613195585298057 5.389923548054863 2.421450611915465
389 7.921505199761337 -0.43137371878687447 1.1142995299278855
15 -3.7040849102648634 6.265999829488533 5.3883380300329105
1505 -2.22152022859296 3.5985805893434986 6.347203226059171
1239 1.6569972427165751 1.148705162620753 2.7578897098095805
1291 6.027940387773781 13.21170279189731 11.25377153057217
1005 0.2957095927413048 0.45837835500214336 6.880851060237845
39 0.7688418467882417 -2.210851323255292 -12.491238808410905
953 9.641647419048613 11.208402405756486 14.545942350117768
1112 8.227432155557182 0.3642616595744681 -2.657399063476506
1143 0.7834173301051767 2.8109251098590877 -0.3445827179948233
478 -14.859682439409914 8.816689865900829 3.6031140218450095
491 -2.947884717373103 -2.4668322275107823 -8.391382403043892
1396 -1.6319619461541985 9.312819716237986 7.04772009974886
209 7.152743279630603 1.3685379197964183 -6.283985218087459
1025 -3.159012439359529 -5.6293990695714164 7.981101128429269
47 -12.564371824229223 2.789776814646507 0.15684650129301209
532 -5.414015015497448 -1.092190383113656 0.5466656982969891
1409 6.302753724269054 6.6533400515237355 19.238250322398017
1499 -0.03848278982869625 3.524931916397762 -3.5997583173392216
1911 1.7729691549491735 0.6931587324721791 11.793337522560211
1184 1.1497537098968198 -0.7099074257516991 4.120235568814707
1777 -6.013917546460262 -7.653738486675445 2.6502264628475176
2154 -1.1100130126929306 -10.637786917579364 1.3760680090220316
2080 -4.251936869510087 0.7404840190148892 2.0969840502539183
2096 -6.754066508644289 5.692912675244099 7.561081228981538
1110 -1.5589437079229551 8.959030761714665 -3.4919474583494527
962 4.732846313789427 -5.578641539073743 -7.340338442501238
1942 8.334816236266484 1.3373543263353342 0.6414571430896653
53 -1.400922394929817 -12.51247367483755 -0.6625772543119749
57 -5.679677468830251 -3.7461766519461994 -4.357722410878356
925 -3.1642798035764805 0.07576202778068229 -6.704388297354247
823 0.4675160198563653 7.404967698134099 4.758964188376568
913 1.1679607475338647 -0.9833514251236689 -8.331024808292822
1365 3.8598651600444507 11.361173162106192 2.0143461179425874
914 3.9661237648350087 4.0577198149244404 2.1333175704168545
32 5.309215450671417 -1.4092856641506368 11.423839956919938
2057 3.963467163082172 -2.7333541748559553 -7.9730319634992375
581 6.2710579369665815 -1.5429733295705845 -1.7037576532257526
23 7.424058619722354 -3.3274509214232877 -2.4352584310634895
1788 2.4692368529569664 -2.021822581807213 3.479659401668881
695 -2.4729859826605476 5.9610446131022305 6.01012733974057
970 -5.4763231496221545 1.7759787506991156 -8.942535144187504
1587 -9.045000201439601 -10.285261896614067 1.724874465134345
1349 4.153112273291619 -7.534282712161318 -2.820011651221249
863 9.815625679382661 -1.1537989009529048 10.194459581164663
2045 -1.0909039208521296 -2.3982340367036645 1.1387112764106104
637 9.211755642647717 -9.268685599116383 1.0750541465161303
657 -7.207648087301542 -5.543391405018607 -4.83692732273029
361 1.0931969501591718 -3.087446461702487 -0.23731288969942746
1121 3.578278335241053 -9.571978108972527 1.9093678235526992
1175 0.30129401899792296 -8.048740864575253 0.1105484192171838
620 -5.731816113348902 -0.6063797238016235 -3.327115237530614
1659 -3.6770829394848144 13.34602104373534 -4.868244022104428
496 4.381420588452506 1.578279607477558 -5.055618728468301
860 11.310274708049691 2.747973132694726 4.865775587458032
2073 -1.611064363398508 4.720623247252461 7.370185818458133
1692 9.49141615209365 -3.5560239584797904 8.742583479659528
1822 2.1811319026578535 0.9801949878613879 6.569918289645403
973 5.161784432471781 3.927730204904627 1.920284559104414
1249 -4.931003447114863 1.5766427282170334 -3.7798985362008453
1910 3.4802752587140944 6.192985879541523 5.609914953334223
1769 5.652274245722525 0.7368628300630949 2.8194399915202806
621 -2.5051094559252345 7.423035507108852 -12.594221182910266
1656 -0.9100272943268007 1.1598222147631219 4.8544048526961205
1707 -1.7909373872135428 0.6887859469052848 -1.145527727998694
1066 5.310557803058089 4.346307758587452 -0.96798941974778
424 -2.689627420812817 0.9845254343233597 -6.737274724445794
285 2.3716253831914904 -4.291650542706108 14.701123040814519
1765 -2.7506626682079824 6.291578042311867 9.025876184155841
778 1.6176433434184057 -7.003527151779905 -2.3947792157045793
777 3.583514256482195 0.42172503522258126 6.894194754168691
1535 -7.6962740919006585 0.15708481587340475 -1.2586127543526557
1082 -1.5364211122927929 -1.154976239344963 -3.5206853012619344
454 3.8658811078006425 -1.4101725280453214 5.3141200613075155
1771 2.673475924935012 -14.21912075082858 -5.457634370335807
1929 5.998830546871733 -3.3146001438703596 -0.25085110093405283
465 5.964210229115479 4.675009289225096 9.255880280097786
1406 2.3969093886682074 -2.130161143120736 3.160032190535091
1302 7.29211320727923 -9.484538242767695 2.626054257149096
611 -11.36367380656513 12.278755061971323 -6.586509414688436
843 6.432573028432135 -0.4272392903727208 -5.592482509363573
641 -2.5263217941948235 -3.6195692891125675 -7.2435889370911255
1597 6.907606552034042 -2.19099577180903 2.6906448520130986
1934 0.9623408338476171 -5.370025895643511 -8.358889726965788
1973 -1.3345174916307772 7.78920625885392 -18.496415087304086
715 -10.049233432804906 8.84665261664183 2.788030769795489
885 8.496259398591501 -3.6455371313189477 -8.970346316840361
926 2.5204403182428776 -9.222839802958347 4.0710633433979195
1651 8.095329505218526 14.425535179688657 -6.566562736783859
1458 -5.613742172799133 4.2556388791009985 4.002998566773367
1378 -1.0029828923107564 2.900169351649182 0.5956180844178681
385 7.616768674846293 -8.021815881012236 -1.2959970700019436
802 4.884287402881167 -3.8259842581941874 -2.222715827657436
367 -6.769745891573641 -11.830920247669818 3.340051212937413
1623 0.36176065389471523 11.70867848287522 6.040091677195365
1986 -0.28802417521714446 6.8166663353613215 5.957059699877109
124 8.905528722070377 1.3158324792236795 -2.1113114364797267
2156 8.471177380708497 -1.660810739868683 10.718015930310626
736 8.7927761948369 -3.049751813398358 7.495007306428674
1294 5.599731787000315 4.6658686690503695 -1.1585250616687996
127 -8.034395910069774 -2.644667570673845 1.089835877602865
1494 4.158899248196957 -4.7900148651497245 6.288534937052763
1493 3.633171005880729 -18.59810569803286 7.081381524919315
202 1.9851352705477352 0.5398421407579881 0.8448413966803262
713 -4.999277673739359 -17.312686874241713 0.9869355404097812
1594 1.2334451404732907 10.713525196171657 1.4028419748709398
508 7.933564126632695 -2.2899950905265056 -8.352690692066098
732 2.8585515043330574 8.467558939224423 -8.746169036396376
1734 -8.942413844099638 -1.1410387360549785 6.6598111162143665
74 0.981428654820088 9.647849774250114 3.7374480284382807
2003 6.491124079128511 -2.8544901479913007 -2.870322817416473
7 5.574621804632689 -13.2429459918875 1.7989399189258717
937 0.6479078928901401 9.594624208025149 -0.5580132858934211
1736 14.99337155294144 7.628720858611376 -6.8863486572027
360 4.521882478780056 -0.8010848641502158 12.901591388901757
1212 0.727517107367166 1.2822167680189656 -18.64285356937213
853 5.218243596504528 -4.308541536913976 -4.381189819035489
674 7.381414409511982 0.43523093431465054 -6.848815936341571
1854 -0.6140112174657963 -9.13527995420764 2.9549683846079633
2129 2.6721766255372534 3.4160463209634493 1.7059589989435233
1036 -4.905606559958096 6.124070385533047 0.8594151827547681
1759 -4.052087561857023 -0.37938458891370114 -7.3545518395089955
1385 -0.12790885635976207 -2.795114086754908 -4.721712651116217
49 -1.383933827933861 -0.0013873801154325421 -3.957404139879603
714 -22.833347651851874 -7.8284679539190485 -4.801603490041237
1404 5.237621961165246 5.736374703815633 4.02032444471151
1205 4.2431004485069055 15.317772388257398 2.5127650330226614
1443 1.6890518578112395 0.07332017528790394 5.175319524389727
976 -0.896689546258046 -7.025236638490247 -2.5443098889874483
1953 1.2120668195298223 8.696239662867573 -10.979598228133048
1507 1.7571923483715124 9.162870240898592 5.497542258687509
1155 -5.891967127992616 -6.5168422245513815 2.611599080296038
1697 -10.179514606450919 3.318521229242151 12.04149188128913
1356 -1.4893354692955012 14.268221771541047 -0.4771358878533646
2128 -2.258249174755773 0.22908619839888134 4.145401530208261
1614 -7.392163375858454 5.427753806537654 -1.2456562944199097
416 4.41024360966431 7.204788981221653 2.3352766135093277
589 -0.21345208947536634 -3.3467890064275987 -6.842300008239893
1448 -0.7127693574075977 1.2662020917330643 4.3472934689753435
1282 2.8208031744198148 -2.744464770569274 5.931618217831198
1617 -18.7198595919905 6.46808812940407 -10.841106102565988
1180 8.605701083258637 -1.907376395316935 -10.823244708722301
1613 1.2507537590543838 -5.366928395259049 -0.8271163705200301
54 -5.066706929259049 0.34234042740387266 -1.4232503556281917
613 0.5785250647618496 4.194209679066916 -7.1424437312696245
878 1.1881061802077593 4.889769154893325 -6.744341788434668
142 3.751283983830307 2.5194920420734994 12.402718742274041
359 -6.859423364053414 0.7595314165983327 -4.957674252105386
1335 5.84306904275898 0.22024170502932697 13.813328915168329
659 -5.595285067723462 -6.134184334834395 -13.075500635090652
664 2.191764557871457 1.82193026710528 -1.1976415231997233
1869 -1.369231629803351 -9.172483615303225 -5.923724015484942
214 -0.8703608450345546 -10.0349228661214 16.049236065286326
932 1.8692239999460352 5.112274103111352 3.356321318714834
1958 1.2838108167014357 14.15830754580413 -3.3860881498707465
1044 2.066828612325586 -4.449596467415532 -5.818955602955795
1153 -1.7295784537697967 10.762209031673313 2.712044492857035
509 -1.5442434584664722 0.356228012509411 -3.1574329900637914
1238 9.768215408326554 3.4026848706223656 -5.7642551798696635
101 1.3946110121096167 -8.981166521051986 2.1959935955942873
1146 -2.6545604066276605 7.542125327724252 -4.984609572576138
1676 1.819146460654148 -3.3086793335756113 -4.400469073782869
1283 -5.446899173957396 15.050385163977055 -1.5991443153061455
2122 -21.530579283470555 -6.549167265544932 -6.804104421145595
1562 -1.5397517339696847 -3.8534146589939478 5.7312629425947135
296 -2.7689634820108555 4.403219760210378 -4.661610411637108
1800 -2.641089066777655 5.1588666767795806 2.8492378811109527
81 4.779982318790747 9.956450599890148 2.109609980684536
696 11.247344462736832 4.716905757008659 -0.5040695369931462
825 2.532240481445149 7.997477992952713 7.794588826028036
735 -9.325297303475889 -5.217112384889342 3.6049870604171392
1135 -1.3658359114051908 0.19092444404796846 -3.2952690016970907
160 2.8920621716508896 -0.36551870658664043 -1.352571450316299
312 -5.127932909349731 0.687159022966246 2.841748287174783
1428 6.3116928886904855 -11.199573665980415 -7.487484087767653
232 -8.659017968809668 0.41821323402590255 1.2421498084365032
1315 1.2192694645140676 -7.733591731914891 0.5805963695863401
1528 2.614058760639976 3.7152835786713507 5.469217891048412
237 5.407724266954072 2.4011371875259555 -14.162328893940915
1459 0.7971802036076724 8.243090152560129 2.3679232938240435
776 -7.124137067588033 -9.314580995523297 -12.164871402869009
118 -2.5613600851655014 -7.600598858535647 -0.5877224558301297
2152 7.227985629516151 2.450457335413448 8.785811434826153
1784 2.7677104234116254 -0.37081593602858165 5.844960226555183
1838 5.69817166654376 -5.616435034907363 -7.305093894401652
743 -11.396836503051686 -3.101592288285946 14.52512564618675
1017 7.500671604370352 -6.609927170864751 13.554197112494354
474 0.1223474172761907 0.5224200137586062 7.753398816208062
1969 -1.377257762867087 5.90829820426974 -2.974254603634435
560 -9.634982560799324 12.683033407240421 -14.298745517657743
1858 1.2154336859267165 -6.0662900655696745 16.426559051494657
171 -1.5134811605818066 14.007644987076292 5.051521265266294
2106 -13.193706090206641 -10.381844865596873 -2.567578279429231
1778 4.370925846615075 -0.6925899707858254 -0.07403520217901007
1999 4.9107850694561 -3.8734185829318486 5.3075789152856645
344 14.872953992345092 8.652982053648577 -9.62110279885665
811 16.494088022906123 7.796791507827414 0.9986701205653007
304 5.740756530732563 -2.5836679258800705 -5.456302917061926
1939 -9.004633177563214 -1.2977256830411954 -3.519013953109557
855 -2.7963334706506213 2.3825249112890328 0.5078272641224416
1199 -3.2947794318023313 4.80242656137814 1.599159196059352
193 1.3450096217960268 -2.0391161283739803 -1.4716326468223957
126 9.486386477978257 8.914088995396252 -3.4814284799061523
2134 -8.841356527369461 -5.683144656703193 2.4965485257517868
519 -2.0857232885611188 8.792557963199176 2.4323047853481907
1738 -1.3597408351100562 1.1703827501468373 -4.0198506175531845
2120 -7.732744693693795 3.1647518993504984 3.0169922890821743
1088 15.344260080616886 8.390030442353519 -4.016527356294416
616 -5.12036493487605 3.0919816766828307 7.189470874100903
1959 -1.686302231965529 -0.9356334045080743 -15.749008987488967
2051 14.036683557329292 1.347596680293932 -5.915240259995503
1073 -3.8139014237965716 0.05982912170783598 -0.057654249464779476
1492 8.231428553545312 7.130389855585745 -7.1472764455131665
235 -5.440143010988714 2.754563521173055 -8.475847953145163
1905 -0.4460042197326393 11.628858579665362 -9.340012700605655
1503 -7.064329096366778 1.1313373227326036 12.366040568380031
1834 3.2887695683844638 -14.155539809454028 0.23588707307228918
459 3.1127940186265706 -6.832539525396912 1.0946240094366428
668 0.04836483854467943 0.09119361916543633 -3.879144410519167
1079 -1.4851800532960064 -4.316304989001955 3.321255214695093
99 -8.726234958074508 2.610644568888262 5.864939770325873
217 2.68023648977369 -1.751012040472523 -4.027807470384475
251 -4.859759113953236 8.293106322096804 6.527503396914633
1411 -13.246790292571033 2.1260222314786317 -16.76548252240243
151 -3.3100159706882484 -12.517285087919962 -5.342492919233963
1195 -12.582092705714238 0.06058102468249343 0.5666364286943968
1998 -1.7865751352892634 -3.312124411800195 -0.4046230845873133
335 0.9734697713264184 -3.769204858477802 -3.777163133748969
370 -10.572813611904287 -7.406028222677763 -12.80526534548455
1139 9.25759178285411 1.924909278783593 0.11752683814506439
387 2.869400699100205 0.007326239038824261 -8.300375027197784
61 1.060668102592011 -5.516095571825185 -0.7611540319452976
1745 -5.339993495187329 2.168575896673972 5.107894981481999
1915 -10.6944973186779 -5.529768869814706 12.887531977940817
13 7.233446221749322 -5.323261294247815 5.840918833021314
1908 11.231093939940108 -0.8344807948745759 1.2645699734537752
1709 6.453082746079136 5.629402563035007 -4.303053105536914
2032 5.44824765581916 -3.415077386554311 3.688925078937261
2126 -4.168493914509019 8.935018344799833 3.080200104932027
1403 0.7774699151810269 13.235659989608621 6.950896211868271
653 0.528289512767264 15.76635968192711 2.8697501105941496
1450 -4.51970900835631 -7.562082347245081 -1.6658699996376671
1839 0.8391691963067436 10.05522309196808 6.694831144812256
29 -0.4550162876506923 -4.887412013993814 8.736458340958551
1627 -5.348715041063865 -9.72106857472988 -6.906113752163279
2027 2.3085625324535197 -1.2150807951575051 2.654888849860695
1141 0.05046752297232432 1.979620057457173 3.547283044108676
827 -0.8636903264171583 -13.142125621096461 5.598438829040278
1208 9.807397705620605 -17.892151460634906 12.20765518232766
1816 2.244007196325684 3.6635198285970842 7.770755173831639
1880 -7.075920947082565 2.206198292051553 2.73395757345524
1308 -3.194870253638663 -3.922623998979785 1.7284714601563154
1818 -4.355205802740273 -0.2308037726789484 -6.044816585382112
786 3.29103290821156 -4.629642946940339 -9.70965592253128
1923 3.9393553942187123 4.808263484856093 8.50307021343877
1665 -10.30193283782986 -1.2236125645378757 2.594444090928286
1491 0.8342186014623496 -9.103571585849334 5.876709243448225
1960 1.127284613947059 -5.697399119057996 2.4774365041854884
1181 -8.665233606300879 2.3302677603056474 4.017775915246992
189 4.286344259660881 -1.3195931285152853 10.488281370527385
951 -6.454638691004615 -0.2660923185894791 -5.162253144720417
1938 6.625240930157121 -4.495434483116367 -8.26364096507599
1540 8.523494956689113 11.28054919607045 -1.9625346079897492
1350 0.4532040028102259 0.3916950603976554 -3.9831463455820106
1766 12.408152836491395 -8.25007097451387 -2.4284076489239705
1808 -4.615460112061666 -5.405531521217269 2.839877916922958
1637 -8.072575899295202 -11.214985236471284 -7.401410688681827
2060 0.26919618913565657 -8.427844753303331 -0.295589380740167
1103 -6.5169875101676515 -7.408163224798128 -0.12567747522286737
623 1.2598337837293148 0.36630538248466493 -3.3798809377143817
707 3.140456794902882 0.026049037029642057 0.08816077950563223
1083 -2.7758313255982165 -5.390708998521964 -5.642810734745723
1842 4.445078143784372 -8.869523425380903 -9.016981759821503
1487 8.384654859680833 -2.9177042384489114 6.621122276484989
1265 -5.99837766591569 0.8222461276693245 11.413651944082211
1768 -10.142009043156166 -2.53374219301513 -0.8537999403161822
1926 -4.600096659200271 9.783694601505308 -4.816311612670301
1321 5.926220342325853 6.100814417307608 -0.05370308173931489
68 -2.0502919725174715 3.8704450609076013 -4.386002573093635
55 -13.655466955044663 17.926770959209914 11.014382159735167
1819 7.504453424497749 9.708147481621756 12.280880379606081
314 4.363205017102618 -1.3674205788786442 2.422766194542884
1809 -4.712955891776209 -4.9243457967679864 -17.549770291843004
1400 15.717730769062179 2.5859588288095514 16.075094824142283
242 -4.262237013096266 -0.050978115542901555 -2.9054147837630007
1440 -1.068778774605849 3.2605819645896714 -9.33891961233557
902 -4.272532968658754 1.7115195849096896 -2.9359458158459515
1712 8.75455573095076 -1.9039358861036628 -4.292345060186981
2034 -1.2063006570717647 -8.270091832246052 -1.7265980585091567
1479 -4.609711357597425 -0.6995542144235242 5.484547748883011
108 3.245639674183324 2.02140976584115 0.8755342610061418
1096 3.7852745852990117 1.1543680207964244 -2.399520636887627
612 0.09684539276273564 -7.682307165473106 -4.914379197310398
1648 9.159190506567585 2.4192562421121306 5.39289274514187
1865 6.597597034738838 -10.632177323403706 -10.096613269206225
1060 5.274335157031624 4.301217270541906 1.261511269355864
291 6.965554594121357 -1.120315990534322 2.173430624285804
1903 -2.0184336579911686 -3.7369095420295184 -5.323991982257192
1581 2.906817999034399 -4.25518727286404 -3.7561025908169743
207 -3.2862128292737056 5.313731512036686 6.841656948171796
1904 0.1477051803103024 10.240320850360416 0.5120676864713799
1680 6.5638921640899195 -8.539574227514247 3.431940746757765
627 -9.183724017962335 -1.4214497393312604 6.441352740347739
1485 11.44284811219132 -6.395001961596904 5.004260259676144
1874 -5.643692062464812 -9.616105326860014 -0.9146924223694822
893 -1.8909738648778214 -0.9205299859781376 -10.116128884393751
775 10.408965980233267 -12.03845602721857 2.520212828240672
1886 -0.8363080979331351 2.7316127212490855 -2.060171408794142
643 -4.908328697937952 -1.9382562971812325 1.2673520558813636
1038 2.0774064527721583 1.3191324743633848 2.653917391746163
676 3.0663426611695277 -5.2077063880184715 -8.642886587405224
609 1.5300311477474142 -9.566713627136066 3.184565346241956
738 -16.129171986233573 -7.382479772031843 -3.2387554027917473
1418 0.72755737385799 4.321182214275806 2.632388483605731
821 -4.930980134765387 -6.5944753822594215 -3.4778309284225264
2157 -1.747594590284512 3.0005284874261577 7.892150218781266
1956 -4.155865218398646 3.3420361396761913 -14.177558838670684
1338 -6.315540127351882 -5.9486909182719305 8.8820716591919
105 2.7196555254004675 -13.35533769057906 16.90694564077016
757 -4.988442929145646 -10.162602670164755 -1.735899461210117
1468 -7.0034880553367955 -0.1180420940815903 -6.385087278303845
1857 3.444029571418907 2.0649214126671778 1.6084013206743337
833 0.10278250121898805 -0.9789741931730932 5.660688164377488
1520 -2.3384612263612667 -8.268784826821715 10.870546810146564
1866 -5.194647773511879 7.270672553030996 -0.2872951931154795
1873 8.629343150599313 -2.230552065368671 -6.172732034672315
246 0.4920976750435492 -5.6187005736932 -9.654296407363491
401 -1.6513529661869284 -9.250690528078662 1.1655785428336796
1309 -16.413509934399276 0.056030544478834154 -15.531331983102874
934 -6.867249279327112 -6.6316256161627845 -3.979679662215433
494 4.863062817027749 -6.0401021150150065 10.52213718763968
2132 7.355578206146758 1.600978330864421 -10.55844701760545
636 -2.829072373526995 -1.0902172929021376 -16.821977886107902
94 10.025621372213884 1.678312211755013 6.96120311685593
1513 -7.622383301697535 5.77072377126236 -11.14216759912953
840 -11.100501080216548 1.3577526012937822 6.4659261703394675
1735 0.2592924950746748 -1.1034466238962801 2.7486297156242396
1813 -4.698885540572734 -0.9803440840921775 3.064314395556903
273 -7.993283982984581 12.088723780638922 11.265318409640633
2054 -0.582617453887814 -1.3102758852065213 1.2902298074119372
971 0.7671220643290424 -3.1223946907398368 4.760135842970302
995 -8.951129553062005 -2.4818397951180255 -0.5902648767113697
79 11.266254913336288 -0.4905856077397033 -11.186351909053064
375 1.8388016401246043 4.149029486691579 4.474466884762543
810 1.62332384912111 -2.610003002236278 8.52799189859354
575 10.518927133788647 -4.091608901226884 3.9855757260559854
14 -1.2221795468835004 6.513699018282137 -2.064741232599517
650 -4.542476095639233 6.3287428899859455 -5.465384620919161
1546 -5.847935595085105 -11.189066871130155 -5.109426272428371
1850 7.562634403079812 -0.9282216239371065 0.6569252269816097
835 2.795055815608934 -0.2935623058836159 -5.914331920328122
602 -3.380352444927485 -3.387736793292135 -0.3885917646235509
131 -5.616568786194286 7.746192704484591 1.9584720081731202
431 -5.784655672740765 4.068504358216614 -13.252439691401047
1976 6.557732802944802 -4.246362744241641 17.251687913134596
662 -6.757488909812846 1.2603077984905406 -3.8635190642589805
1253 5.853840677038679 -0.13894271079225612 2.5366621626615893
274 -7.563591724456751 -1.6116045489912953 8.280170806818692
1947 3.973941108063222 -3.045918751590855 14.322258688041819
332 0.6066058422687048 -2.1610836186599385 12.535264947993504
1392 -5.390538808272299 -3.502955689347871 -0.36486428118033576
1641 -2.7118999112197066 -11.186777856437988 3.4901158313120546
75 0.021988270119961444 -6.101751965937678 -1.3893459909041723
2088 -2.065099866219221 15.293403588566093 7.069498383017661
2000 -3.9883244663225046 -9.812302337401603 -1.7347511514256322
183 5.210850199106929 -0.5600836170894601 3.387250548019352
980 -0.9472720834496241 -2.72876358418691 -4.009723615134186
1737 -23.394405294882187 10.242268892989172 10.143782671394915
1849 -4.986697809067329 0.021033826362420533 -7.338438339638913
1571 -5.777985636351518 -4.550352356265035 -5.493363662360814
1856 5.1152598183837465 3.351461179318943 3.549763181687299
1300 -4.211107509189469 -5.807268398781578 -3.0460293685790556
1687 5.751779292267398 -7.5485944037058825 -3.7305713467866988
1832 -3.731672891119882 4.9813705987320285 -16.8655535527193
303 8.81255729821639 9.336331023400316 -6.6206253614096395
1421 7.852630490728596 11.226988596427184 -11.363430564172727
1046 0.8357283774343159 0.733533877521953 8.237564028117554
882 7.827332873062534 -4.094054180856549 -5.307579703269732
179 0.9901381553713489 -10.477449719865213 3.0006982398981172
1599 -0.5669809914751072 -1.9984054004681826 4.8222217528531885
870 11.090565562022613 3.6492464883087097 -7.903322163641454
1859 1.0140681073973652 -1.5245627829097086 -2.771869565516596
2068 -4.289223908545448 -2.5323968592324193 4.6406241050756085
1888 8.459068115719147 6.81030807657973 1.5882041199772212
922 -6.863437288412859 -0.6784481002117843 8.207949393975392
445 4.271834574184505 3.4357364473549477 6.431149848506327
1268 11.586238151521881 -3.494344127930025 1.6286726872770303
1323 0.25171159594328585 9.953679464727573 12.148625150712181
804 -18.097271180303206 -1.435074987796425 -9.054469416355854
1547 -15.782125055475188 1.5161256785015718 3.974627300376009
1215 0.4653502935133481 -9.743005901100684 -7.40860699973236
241 -7.411721970693543 4.10245383152694 8.397015078237816
1650 1.5125735303653816 -8.373147625771209 4.079389164802093
1785 4.274973035344449 -0.23616802004986115 2.831353120780509
2135 -7.355160089868861 -0.8029737795674966 -7.431787106564197
213 11.609544195497435 -4.734150803342173 2.7852660594035528
349 -8.012517140471704 -6.309729130138289 6.2726501306337745
873 -0.7291595142855893 5.028220218014173 4.001580275715671
889 2.456699211497241 1.7287442133785287 0.6373359655839358
546 -7.138266951030176 8.954157164575863 -0.7285073369463398
1729 -4.4509873549551155 5.273630885544434 -5.035933237222095
1230 7.633782264308837 -2.5462080152478683 6.172463680202315
1639 -11.36568385672449 -12.69906103710213 -9.745486273471133
1719 -3.4657907350457897 3.442194240858953 5.581856602585611
133 1.3246473677196982 8.540852940161207 -5.163094573969552
955 3.1006663006949395 3.387880725092209 15.159734281183633
256 -4.983259886619745 15.290557521881597 1.157998332920849
990 9.651157961587815 0.4846677998117291 11.822883721364263
1930 1.5923956726636554 10.026501201688818 17.163788271508086
266 -0.026083522116678724 -1.1049826383211223 3.7983380401407634
680 2.7707708592375497 2.2543983442324866 1.485294810087616
1311 -3.2860110772569464 3.1521982527881325 5.835347712770828
1748 -10.015900264943863 -5.156984502315729 1.0763566841874856
11 -1.0105848121722416 4.795924278354037 -0.296739843310718
1517 0.8028362861583326 -7.119702957140773 -0.7347457307659443
1287 1.7848871888583726 -6.735244008039756 -2.861203842723934
536 12.953893171819226 5.420052038305354 1.909992422919108
1943 0.152053610205501 8.088191178354132 -7.9050349705280425
1814 3.335142418901943 1.2231159650503793 -0.6932015829547422
1376 -14.355484074472377 -21.2353477943492 -4.435639652970233
2067 15.194587427295996 4.419528641686637 -5.234864557361044
1763 6.1687594419003755 16.383205390440434 -12.155699853229606
545 -4.766549015486112 8.299106498507902 -6.750891052160259
727 -4.154156603957916 -7.735818177379002 2.0583833338093505
1810 -8.753444609305543 9.3609692997565 -2.4970289360746274
875 4.489737955186434 -7.39191853532645 -15.98378706735447
1358 -5.398488248810102 -1.9155549807625654 -1.0495726257498614
2023 8.422226337759422 -1.4797727428053304 3.5820381513182666
1068 6.705312848254849 3.5007708319142257 9.229777979329777
146 -6.430015536278732 -8.502340638076944 -2.120922119192508
1255 -4.674247603959962 -3.7842193381312885 5.38472390768217
1922 -5.928729078882143 -9.988580838925314 6.350831210344604
525 0.3442545226919479 0.7917570108067383 10.381379881414762
856 0.835104762454382 -9.955770167963243 -4.150095385351423
1618 -13.899215682310778 -5.17376432403922 0.7423575500543749
1746 -1.4561003685498524 1.7275796418763367 2.702482849111634
897 -7.800641558085044 10.587797757461876 -7.738923800275666
1720 -5.4412599287151595 -2.7743109183670915 0.9896744647632333
1918 -15.242240086034405 -1.9696961769332502 12.318288335383304
2024 -13.68794750852167 5.710154247932432 1.6581030890499622
1059 -3.2424048516166457 -9.135458693768879 2.402567998854918
480 -7.874406677608161 -7.451440863139639 -3.3164941044120666
492 -7.248367922394466 4.680405640381072 -8.511902155881119
1872 -5.5027935635676615 2.6406996275881554 7.619916131581611
1028 11.891762263287509 0.26852805464967916 4.630154445443722
959 -6.256926653001078 -1.9712557013014287 -11.799720734489568
1348 1.810556751742225 2.124845244072193 1.8696929043819068
924 1.7015074474076806 -11.938231397514974 0.2718482435284483
820 -5.89010520730721 1.146130260584914 1.950204903330721
390 -1.674807849479284 -2.70965433958731 1.9624107744641783
501 -1.2171690092843195 4.992345549869296 -1.7014172300043033
475 4.739806503833239 -2.1174528476110486 2.7171890539593697
753 -12.64314037846718 4.694462381193755 -3.388516065331677
294 8.517785079060346 7.632319513096885 2.5421175216640934
1395 -3.896827596678626 3.3402506682852264 -9.226859733369974
1147 -0.5237936415187717 -2.561274041377727 4.534278583759439
1916 -4.005137930849116 9.561795134047836 9.142158653960145
1431 -8.809390896300492 2.8911735672424075 6.039585631173306
377 -2.9538578016583186 4.804839462447723 6.714178608175804
645 -6.250341459183241 7.148895075392838 -6.293021899926318
543 -0.5806824921646041 -0.7096218824215068 -0.2976525367831253
1137 12.88184318844798 -12.218365745270944 0.00176753680659914
1425 2.798266613390146 -3.1693777490640866 -9.011883159121767
1576 5.3569722037832745 9.297949837264387 -0.8544501925769586
920 -4.7101170687440295 -12.553849411051967 4.036508842679502
1955 -3.038277529394383 -16.63578185699363 0.5601674441790617
697 0.35599701297808123 3.4833155109091636 1.0058164438491484
1961 -5.423412254411838 -4.861836963598797 -7.382637768044471
1982 -0.9325016745767813 -4.419022392908276 0.5696731845128405
1723 11.16378209746555 8.33493805145788 3.33686278041976
1604 -11.040170915993352 3.8094257874342197 6.461699184887912
182 10.07447948950908 -2.393060694875974 3.3134495604013208
1559 3.561525203284946 -2.349328924751716 -11.885924989881971
968 -0.7791954571609431 3.4379843901160614 12.517768645297235
438 -3.024903639162365 -2.086979104626754 3.186196551154324
626 -2.005212777417659 -5.728146905841783 -9.434072364926624
848 -3.1471644918684056 -8.136002624646284 10.174850115454054
718 9.936222582795025 -1.6168619492505278 -1.192473464624719
983 -5.15008759504225 3.3974671460201726 4.571028434329776
2035 0.3606621266271392 0.6068529591846444 -17.4575973793642
1527 2.2326462071281044 10.184633453568335 7.319970547344079
2050 -0.9936946300264541 -2.401041496431647 2.234106897529504
1280 10.648274594703654 2.998354818566606 -5.4167860541130555
1848 5.355745752730049 -4.095237961018697 -7.558416433367462
181 -6.142822260750974 -5.105517211233647 4.195651996875922
1032 8.25691734056977 -2.1769140076617046 4.022124305713931
1465 7.378339984567308 -2.873686453237835 -0.22960970184021678
2011 5.957537791998807 3.5758271740204237 4.69450906395421
165 8.934016020615427 -6.411889612073731 -7.967557129624983
862 17.84414120428924 5.062393661043117 -0.5662275988047976
748 -2.9164823723267763 6.076562473376939 4.696711716887383
484 5.182258929835426 -0.6551677890293597 -4.67633730563794
537 3.954344565928858 -12.76832151552636 -4.503684858578161
1831 4.841945835780048 -2.811724730274884 -5.438327197044764
373 1.91515319504383 5.029635011074539 -0.45599752849491476
921 -0.1769626727340651 1.3479480730167157 2.8135377924320606
1058 -5.299508351319673 -7.596487620812363 7.322508325524926
178 -2.1914010442239107 2.939000794433625 6.683256287984591
1435 -14.098293585998956 -2.400559074710901 -19.543096558696725
798 -21.435657071251548 5.299448191351091 5.944973460286105
172 -1.9740420368778155 7.518638501935418 -5.919273810692208
1390 7.173497423546837 4.476654918714549 -2.981564819371894
1595 11.757036128106606 -0.2734759853490172 3.7056027403975778
1045 -3.868589053170598 -14.73777088937818 2.0186515605783826
872 -2.330790988841895 -5.644138427056333 14.526864967266865
765 4.097056414566656 4.16160329185886 6.898585834459003
313 0.7588172601959033 6.449408425839575 2.503376802567099
369 2.270704415165982 10.839672981101986 7.1026635497094235
2042 -10.958089159386242 1.1387567934990772 9.355680765890027
1303 -1.1060051543746596 -3.1406607930378847 -9.040418652507844
25 -3.76010007058737 -3.9328459432143457 1.5909164878509876
1891 -2.27281318716873 3.83475907063222 5.725446779573042
1633 5.029389766732706 1.6747310275966178 -3.2873349984114024
1008 10.030448307159398 0.3558100921928553 -7.338745694365176
712 7.000435634244995 0.02263522963800649 -1.2483449387655627
790 -1.063715822144261 12.939045036625124 -9.873364467290264
1679 4.524967562062349 -7.583949788302274 -0.5898549055115785
323 -3.1784306326567235 -5.668285447140039 15.340905746337697
1935 3.543625114834758 -12.724663243230514 7.499614903307603
1495 -1.430455893616387 1.857691107805687 -9.41346074402406
1609 1.7597728520170417 -8.102067883221165 1.1930327812047885
347 -10.880310745809124 3.529506285146668 5.135182410868938
17 -2.104858700323568 -11.732036166309749 -8.452293198552667
593 -13.74326823287999 -3.870043747004096 -0.0615112636237032
279 0.7072202271574723 -6.528153832187909 5.688624224511141
656 5.3898498903340055 -10.054326366240263 -6.756204142283145
456 5.757985518299759 -16.0061783529115 2.7860442394308134
563 -4.308111424507047 8.105738458251667 3.8360764162261787
573 0.6205795042381456 -5.952941136311789 -16.144813996052555
1776 17.667463635884186 8.845912260182963 -2.575941688063118
2004 2.2162484284414106 -4.4342577892597985 -0.9380668442415888
716 1.4281013495667154 10.743904403995767 -6.719980339237077
311 -3.714771601963869 -12.599937582697976 -4.8021860632649025
455 8.136140760021025 -10.326996767536 -1.9870352982120514
2153 8.558939997595289 3.0488967673605445 9.234083835084084
175 17.722875238187868 0.3106043909474016 -13.689314678982992
2150 7.327497349438979 -5.209099071017763 1.3462142992155492
1211 6.187704337375171 1.9453696141204018 4.633956960632104
1108 10.439930151046338 5.478337545872208 -10.73738537233714
1319 1.8384459180779347 -1.3031819112369432 1.0803911034348277
1827 -5.727216571624009 8.13000555083572 4.645568867584031
113 15.33222706300333 -12.519090637174683 -4.086602863502712
59 -0.8911344700795747 8.090039538931538 3.3533897287281236
115 -12.530669351347294 12.601478035796921 6.676775578150329
1672 -5.52243310386573 -1.1099885222796044 5.907946994995416
1634 -1.802028717766862 -1.8125871967105394 -13.630782161717008
610 4.687002297912971 8.434355014225167 -1.2931501721163792
583 -5.000668589985816 4.638545750946021 8.190301097810243
276 8.222256949614025 -8.02275579032127 -14.77142380097595
78 -1.6241206929997982 -8.789236122585189 -2.961321965108165
2137 -9.178600692424261 0.6088092765494374 -1.031025596416721
42 5.061225335397932 -7.933225797462187 0.9899622803316684
1136 -2.875141306156925 7.987540995889942 1.2943852157086708
905 4.650470555192717 -14.371397899816051 -4.051218683046595
1357 -5.430828082509319 -1.1060657577623576 10.198493180491974
31 -10.254166060023387 -0.8414393088989623 -14.370658322795071
1509 -9.255009206797542 -2.007267214810601 1.4109310655363367
1192 8.260270759445389 -1.6214001302052177 9.27709191878947
287 -7.831142797810256 -6.809563774877654 -5.414086920965825
1968 -3.7469600234309293 0.8717984632851529 7.2876256594664115
177 12.560738036880023 7.465210961404975 -13.431856613928304
1949 -5.334989946572135 9.932801003041792 -14.684567188386541
1708 -5.7737554011208445 -3.0770740662146006 2.0721738719655023
249 6.144757797258786 10.144055558380318 8.090257995568255
1693 7.256768283725598 -6.722671703595427 -11.505292095035283
975 -2.020896345709944 -5.9795595452292 -3.193401668849627
1591 -2.2918278621375827 -1.283534989418884 -7.933990555438796
441 -10.045826365012257 -3.910103491683817 10.69993684770276
446 3.023469669678999 -7.733318200109824 5.256852624721411
1688 -5.52425445853133 -6.433800250023877 11.897579810866059
328 -2.9788482201387403 2.546286376034396 -2.686607077937594
2099 -6.2925978229886885 15.908247500837396 11.45788819767963
1704 -6.118722226179858 5.681546033892135 0.12685686900869167
442 0.39508112570015363 -2.6847436108981446 2.8165266919115757
93 8.584135498876412 3.624387480563108 13.613530611701503
1284 -0.4757682400620511 1.6479157506897744 -1.5066719817236827
505 -3.2486893244012465 4.297701673447376 -0.3181258783123287
1500 -6.725162990938517 -7.62657039782568 -5.611068129803099
510 5.003891664974106 13.575729534256714 -2.4456493432880078
557 -9.323126259265353 -6.359429003491934 -5.792921061316634
1742 1.3114245333677554 3.7777768583240703 -5.23540649010782
440 -0.724094188541711 8.27113942417987 -3.521786649177492
1266 -1.4821428204666234 -5.518470046584692 -1.3183584448954677
997 5.497732529013292 9.928613988846468 -4.19126474990643
307 -0.9743423221017905 -3.599872663959156 9.594302455545064
1543 -3.214638227078006 -0.0560706741082638 0.5892946845700351
726 2.605081306592096 15.30899628155028 9.342541167383098
110 4.665943792426994 5.952872076754257 1.3826386444457432
46 -3.577592157489872 6.887685780586947 -5.407635886884271
781 -0.027795584920136382 -1.7641635284946326 -1.639615235933243
2159 -7.4176905388423044 4.263246388295162 -1.1182506716251164
822 -10.155432810893917 -0.12567413535023791 -7.287778758734013
819 -1.29896828948096 -6.389285268751708 5.024792693675665
464 1.2651323391912472 11.133024644872211 -0.6616223032704576
1054 -2.080735495744873 -2.002486027127976 11.685968729500853
1713 6.524671052825542 11.873796554953278 -6.048615084245195
1802 -0.9251635372398338 -2.6351673824704527 7.660412845597607
1833 -9.777295048387641 8.126667595285374 6.204861186922132
1047 6.2659129837201455 2.436540862516652 -5.018386662572995
744 -12.162522405683413 20.87443220237792 -9.671597600298766
730 -18.288028820295683 0.8275499257936034 5.356154230320948
1132 -5.845735485569016 4.480856229570899 -1.1864226054482985
692 1.9222869067676405 -0.9805881157203024 -12.321950289933964
831 -9.181637390873975 -4.843987250541279 3.599342997937615
324 12.817453823845415 17.401483746306273 -6.066639596807575
1889 13.37606890599829 4.604244331508734 7.403563523133018
1288 -3.6252180983474487 -2.7327255661311356 -7.621734861540463
629 6.4663066496907335 18.50337637882712 10.336121856805958
739 2.8904912614718565 6.544210097710241 -1.3433019851838872
132 -2.1205850203078325 3.690363338810631 -5.733224957181207
1504 4.706453836188034 2.1531641650947333 -1.2347613405745552
1531 10.256373011574471 3.7161740030837658 -0.2393261881680267
244 -10.784410400178059 8.62468252640804 -1.0495186597834134
1078 -7.891078427484706 0.9463659630365384 -3.255638519794954
1772 2.0836570973916917 15.180487388465169 4.1971802818773405
1743 -11.29512291194418 2.5722990514735256 2.42777040983148
1673 6.622018912079071 -2.3515891581647623 -0.7239252101283655
797 -3.443122389318307 -4.617885551341432 7.394827279520935
1779 4.8465837141272585 -10.510968358252901 -0.022972740569143994
1666 -4.238694935712878 -3.246856794737361 4.891206880884709
847 4.319993248161326 -3.8440364521597945 -4.903304439798618
1466 -9.778476305613365 1.4096564069042654 -0.9400949974802455
1992 3.903394161920373 -16.222825140434182 3.437822388186046
2040 1.8121505094255694 0.2713102878165076 -9.03316445754255
1328 4.604210007932184 0.34024206929651407 0.33043309251878566
87 -3.3483988775925497 2.235234925093871 -2.091170453406593
1682 4.15468176064427 -12.495170591592034 1.295235564782352
1157 -3.4319799810113016 1.0038671602056328 -11.040079890489519
1628 -6.2021515411241435 -3.8209052693683154 -0.7659487123807828
1202 -5.399814879789726 1.4974764548479504 -4.181750985419425
558 -2.7646176803817752 2.2014905828588867 -1.4329332577278653
1795 -0.4213481648958581 -6.463369292359374 3.1157220386299542
2043 1.081391452786869 3.098168062874757 -1.1299364013900663
1565 4.925577099922163 10.62029438237604 -4.056401145862301
362 2.716453715136811 3.3883245747607935 7.893751567464077
1985 2.1021924781395445 5.158774137799753 -5.028407906765313
1379 8.285281706383621 -11.375493296796312 8.643191068214605
289 -3.2349386249513956 -1.319817622504743 -3.231513350657184
1750 -1.5102647745159035 -2.602872092397035 3.705935821375562
497 0.9282958221014793 -3.2896771525331805 1.3088392019422508
100 2.6171755217278165 -2.2079680766014325 -5.02721674577278
192 -12.594841956898087 6.324783722891021 -9.445922039154539
430 15.436810919899587 -17.770602273095008 2.4037485232324927
964 4.879461187361858 -5.507848262620024 -8.833136341313844
1232 12.736117253096578 1.8708619502914317 0.9441127340878598
1824 3.511433657310136 2.9046626422714406 3.686718912200827
1298 5.142309912228883 4.548669789662175 1.9335536751761315
1399 -0.1540270665550337 1.7429796572769136 -11.81665502945684
82 -5.96500016575777 3.5625295761322455 -10.20039716320881
1138 -1.4527655518242448 4.485454112920427 -6.817114151609337
1177 -3.849996645104166 0.15650968339344593 -3.0683527891513105
936 4.482812238695423 6.660662432541525 5.397489264699753
18 0.9553851997566625 6.073534757222715 -7.89032621990335
809 -1.2544306083053895 10.654733023383049 -1.4000554917835275
1367 2.832307670413334 -2.5364480642059153 6.268892748349297
1812 2.6331149736101986 11.34670699901448 -5.433702889575566
1476 -9.129928812070018 -0.5997219919560838 0.7218898157094055
1909 -5.3024059959145085 -3.139933531815085 0.26215039906804566
694 -2.828897038264868 -14.305210635347429 20.38763677749759
540 6.666161967732518 14.40133359403573 7.63477100073851
772 -3.5424120726927057 -1.5928019702170644 -6.405423065960799
1586 -9.537823965764943 -3.0763910023402334 -5.7227781860584175
199 -5.925539077403163 17.10005977107454 -8.441178472672298
1643 5.084458277178737 11.04707670818351 4.406713785604434
1397 15.5475805689981 3.8068905387757193 -1.1528849671936254
2052 -9.010284783259287 -12.464101539316955 -1.9772573631652886
420 -2.114112977821066 -13.756280731797652 2.956565336031311
1454 -1.7486832400970238 -0.44548680517602945 2.0143337263462664
406 -6.44421141101922 -3.129880439046988 2.2528700799909176
1946 0.3838988585194945 12.128864881999563 -5.6577768433304545
1496 -8.319008561407822 2.068933335801615 -9.094228309325846
534 10.831752542022537 -10.09569487592624 9.785570125198861
97 -1.0591851014490192 -14.070704760862437 -1.2099248018181037
1741 1.039427830029258 -9.093415990909623 5.15547164678472
204 -5.748605629723397 3.1411204938248085 7.033066447232966
742 -2.6213705663128395 6.70395633805337 -3.08838421422636
832 -9.170576239761733 -11.51389851589382 -4.231597002487574
1652 -3.642280861455114 0.06276666265285673 19.444879884483623
1419 -2.511414274245499 1.8022877717373336 3.9345997109841018
1075 -0.6659743628294771 -2.697119644482148 4.772129651403089
258 -16.836657890266025 -3.0154333560821036 1.1371325255867244
1021 -2.6630872497164755 0.6723053978979466 8.526770718579643
48 8.390759306238072 0.44441509293976006 4.5215877040492
861 5.941016250397617 -5.295072164567348 14.162352078193958
854 0.5388053805472998 -9.318832617988102 -7.196117305538396
1661 -5.339171100274668 1.7327279613499094 -3.27838555481533
974 -2.3955545420171123 -9.669407556670622 5.03207148343086
1510 -9.317547148631887 22.839057932998205 -0.5803525954070106
2056 -1.1648278096144846 0.8524233853102817 -5.370981681919864
1906 -13.146919823591974 6.671878310900979 3.3417555366873617
793 -0.9185596382591343 0.4929335581367654 -2.5729763846700924
1584 8.52394821719688 -4.6624638274775325 -12.62321389181454
211 -9.439314046233944 -2.6166926397785697 5.605911461642632
1237 -8.95872195772545 -13.563797089207624 2.393120222146412
1674 1.2822894138885295 -4.105676556216417 5.192302178142512
1424 -13.165039075652723 -5.001064852649663 4.277535211695429
345 0.9158090019591706 1.2727910604739905 11.683359329605583
1359 -2.2479073875446254 1.8608407719417783 4.429821796942499
269 -7.690102664585973 -5.407322764261457 -16.851342190172677
1797 2.0646364418247516 -5.812266180118302 4.488862605620239
685 0.38432170070584987 -5.243493979387541 6.41423027572333
1174 2.7765664463700865 -9.753240292153349 6.200042275423834
250 -9.244893008139227 -3.7898526544123543 10.700635694193
351 -9.978550727265695 10.352036400879545 -6.610756098689063
356 -10.118184678095318 -19.762103549900555 1.0912690898878648
1402 -2.708882908240841 8.336826170778366 -13.986320752848647
994 -5.3185992489866 -1.0515193405500145 -15.736249118521112
422 3.8708852536834004 -1.7283501878294096 0.03331585196142019
2107 -4.769428671486779 8.915877671916341 9.90305928963356
358 11.837894872397412 13.55161144423327 8.701037497183476
813 -6.554983366074637 12.818657097339655 -7.829357884452105
1170 -0.239783115873031 7.643717491121239 16.01109754158232
1549 2.0982229680465534 0.388272727179412 -5.771680730046392
570 -9.50283370050668 -2.41211891315385 -4.89918693231556
1786 5.577332348785806 -6.847580423403526 -8.15369503562223
923 -5.058984940187576 2.8581787864543062 -4.045385853945355
719 2.3546214662926888 -10.563723329606496 -12.972011790203755
900 -1.4574626716003876 -8.582558191834341 5.587816109602484
1574 6.276341252339554 -2.4583996892305504 3.991035960057737
397 -3.5110787221335 3.8175931922935056 5.570232407303163
1568 7.48107216129704 6.857349225463674 3.5080941678123168
427 -0.2072067629792013 2.623259595064353 -11.42589568490725
1204 6.666890249051014 4.623349177062593 -1.8117827127014325
1631 6.061952669434729 -5.040908014064417 -1.5119954512230194
1744 4.738814224971313 3.2270071423239166 -6.650171144755387
317 -2.5701113272254927 16.02915477860723 -4.651092322573672
689 5.731534056943554 -5.676214707114135 -7.191607669500009
582 -5.412941837499723 -8.991424259703605 -4.437446015600165
2049 -13.142518228207946 13.241704277068148 -10.75462533210609
339 -4.420894972126033 3.0487811006535592 -11.765428078280996
1579 3.6244061660169353 3.5074495183523604 0.27707325591604437
1950 0.9784919455028789 -2.185599025428596 -5.472160877133893
1862 -6.786064615657824 1.0865923112557976 10.697407856795763
1267 -15.941497640921396 8.447631032873257 -7.1165590451870235
227 18.702840478191845 -17.193601174182948 -7.648463025196445
128 -0.9886509498096827 1.3180953849402628 -8.871641461468126
1725 -5.698245353195093 -6.989430923537664 -8.408227587854299
1767 1.5873949317485048 6.421069260988866 2.046554496342944
1871 6.889975348770089 5.370870558084568 15.407336264692379
2071 8.930237357703554 0.6177063747500048 -0.8337125641843579
2053 -2.898776499777154 4.7358774575233475 -3.1536713484161
85 -6.984654609981836 -0.6786915080805229 -1.505779106655586
404 9.257974973272786 6.960763008761268 11.290094015604774
957 -8.512368933865652 1.4191540462465115 -8.428051904846875
412 7.577790172262735 3.7786267203389636 0.8128175886980623
92 -1.2997263444722023 -4.095856172431223 4.2324752171965985
1991 -11.961990826804811 -3.6407296473567508 3.8625811417827887
36 -1.7379994084457222 -3.7683455028930273 1.5388583715893167
95 -3.2725286380023793 -11.602701617340756 4.552057402779188
26 4.957419768435231 -7.639929145675414 0.23863381473456155
705 -0.136791174479304 -3.104617654513091 -1.7758062145376674
796 -4.776663758759749 -7.959182842188243 2.0280376226367562
1605 15.333257633156451 0.0674183146622629 3.5735698905222884
1770 -4.455143280004077 0.7887891735975613 14.128010751442183
1667 -8.665981170444482 11.933204370759523 3.88960982565675
1898 0.21015252586472752 -2.4397589713923016 3.6376386682739743
1344 -1.911251915132158 -3.254090212607897 -6.215607951388938
1539 6.615863030393207 -1.0691636401375897 2.523550362876842
468 3.875282301699708 4.459745171429661 -6.15609984407815
683 4.636648120894344 -4.384095954688557 2.2406434624891327
2041 -0.9730970826436899 -4.2492092454948445 1.3026766538037928
1200 -13.953508966153093 4.976319828599807 -6.21757657042619
1098 -3.396011746292541 7.049043999321887 7.819776340778431
1034 4.474543498938677 -5.50626229495627 2.237325736150452
2124 12.74408268853373 -11.106235383411954 -2.054307775582114
1552 -2.9189496610853225 -2.589533405447586 -0.5136911546195375
513 0.22466188016127228 -1.325497597747371 -7.234606323664864
661 10.209846631318502 6.7628553656020705 2.934777517597357
977 -1.8786537996002202 -3.8063175775728157 2.471667148077504
10 -2.17163680498088 -2.5465174899929908 5.878462828324399
987 6.780356279896105 12.374440193642492 2.3146757518795824
1235 -10.380060967103057 3.866207068872145 4.1025834701636
1125 7.455530484226493 1.6584275493538627 -4.129463219121664
1123 -12.206903853711813 -10.53867167072075 7.74290251764263
603 -8.882780603733828 5.759327990785519 -9.553034670849295
58 9.927371192885483 3.284805831835137 -9.320231805902742
625 -7.786468999352231 -5.356754546607982 -5.128195446226639
1615 5.061925762511998 9.286853848620188 9.172832881609889
1512 0.6050980707897731 3.4422949962700735 4.213773586385849
1469 0.46363557824709223 0.026305722449909637 -3.0990501463106876
1225 -0.28046689115274687 3.319741342154081 1.7921939120556811
394 -5.475493988900609 -9.392573788207248 9.587516794334771
191 -3.8568980145880185 11.664784574499752 7.128984537184095
2139 -1.5645834006958397 -2.0689711209109403 -7.234720736974571
80 0.8210671818684918 -4.982967325359957 4.412117622145813
1330 11.202121996084175 5.353811367832855 8.867278795271131
553 -1.5511105382697603 0.47894324225519225 -13.363276774576732
2148 9.135527536450478 7.930474378875409 -8.430809906754368
40 -14.471964201038858 -6.232483927457202 -3.9287376003315204
1260 9.380605478431013 2.6699332211470317 -5.22437789916454
1057 -3.718906312216081 0.15093815312562234 2.6637609796808417
2025 -1.7404924247172378 -4.707525956460087 9.852447251366211
495 -7.7800876291100804 3.135980314722221 2.866773530512247
1062 13.83462950874995 -6.8787478228595225 -0.28019720061591885
114 -6.000966420117347 -2.511226457580321 -0.9176214899086356
225 0.9832829982020399 0.16475585416377087 6.901449714239839
1843 -9.134486193487879 -4.007489283004679 -5.541171733565219
487 0.9320149766082134 -10.647079935634833 5.5307155480517585
470 6.161725322101892 -2.4995592282783994 -4.437968023481241
44 -1.7737750107240855 8.32583768415942 7.413374447694031
1588 -5.023573135085023 2.188002280808487 0.7113201123745805
1297 3.6401807480671744 -0.8411109046672229 -6.75343922774947
463 9.032393317242017 -7.202917274719548 -4.64263713623574
681 -2.709856967136273 9.050143381849498 2.6480032158998013
1551 7.110725265279117 -2.097419530674877 -5.522542183299399
624 -1.4393136123653172 -4.796990226818305 13.393439576268825
1011 0.2981260778251919 2.558528591074056 0.1613421380922231
1018 -0.4116415492828263 -3.500804723540987 3.009461958892789
1091 2.695332977564631 -5.346230354629631 -7.649782297113863
839 6.1353343843219115 2.326812317145804 6.23273458825234
1936 -2.2318830192163164 5.139684243408847 3.7485396608871633
336 2.8558204483475493 -1.2108575406255633 -6.5473765720155646
622 -4.069171072577009 -21.744620893464 5.894626373872312
1706 0.6140311571549576 -0.764178824888268 -13.393036233465773
333 3.8144015332517607 1.313151116636071 3.4716427433862207
1901 14.046442807527944 -0.024368679205081185 6.931743170300051
1377 5.630472841453993 -7.869700784412851 -9.950826822326073
206 -2.224664268243958 3.2781744359110347 3.3153988918787034
1087 7.073134803627037 0.06778684809005248 1.430800984770677
1081 8.465883295268158 -3.2448487415807334 -1.314339887497446
881 2.097993501599341 4.113274705123499 3.191584022406955
383 6.0002131957650935 -12.718623614884033 -2.6877054357972185
1405 -1.0319103645482697 -8.002082707225025 2.507060759384047
666 8.72402063990644 -4.972739805010787 12.244455059615735
1264 8.799647107608289 -1.995780472306154 -1.891998549970747
1154 9.298413905317785 -3.5533969832465293 3.2448366996522418
2143 7.8177570403536105 11.407848276555894 3.152935060214366
1557 5.409891085271819 16.558450309479802 16.693518191262864
1117 -1.6376851733508613 2.249191544391735 -4.68724636468251
37 1.0227713445137518 0.5231410097294532 2.0704937334996942
215 6.354867237647759 0.6674488497582954 -11.738753381326209
1259 -5.028451504133986 -1.7612417284850095 0.12876415946696618
12 2.1960583464154864 10.647158752982348 6.856565179293246
2031 -8.75949129840149 0.6671281424300566 3.445539645632134
1573 9.970612380954272 -1.1868962385873811 -8.279986173760689
799 2.514931214523994 -13.94488291645773 9.678100897118592
1815 0.4623542456622788 3.8168698572131894 10.137317230113139
787 3.6202213658492233 -7.071650319279293 -4.818044808931497
1050 -8.4876293672338 1.799409271384368 2.738612875630461
842 -4.1168360174107255 2.8468274987895206 4.612356833490576
393 2.6201450434843223 1.6931887047663374 7.50399278801693
1578 8.441643872120546 -10.127817548601971 10.697267266415247
1023 11.086981530107172 2.1029247486633778 -3.209782277380167
2081 -6.094907346699009 11.684418723058121 7.793213414448495
1380 1.5690398160983394 -11.922916712016676 6.9126339271239505
1965 0.690540659932714 7.803289413612187 -1.8308595604490123
749 -2.774496443593028 4.938486913183761 5.72931048907713
1069 1.6951733344453352 -1.8637075387667923 9.366561578931888
1484 -11.918731427683698 12.14512407422157 1.4680017911492476
2007 -0.9099162567515526 11.524568359301432 -2.9423433939110866
137 -4.95946198209185 1.9771502497738274 5.08946933869651
514 -5.028217847038065 8.990041757755112 5.1292769360587585
1436 -15.076959999739467 4.249150173133183 9.330933173070775
1945 7.334056523838073 -4.42348833048138 0.4212031619277957
1116 -0.4674552489965857 1.4039274086505715 3.638854774316284
779 5.488087244296516 0.3480446402074909 8.819107568183789
1085 -2.706524830739685 -5.093487753503238 -2.3819265156179057
1902 7.721519565909831 -6.383840701896695 2.2662854069955927
755 6.467957380574976 -4.504170985655883 13.669985135161633
239 3.2780100040604454 -4.357607229318339 3.76282733735739
230 3.482735565214962 -4.4653141865686505 -2.9033586780239014
1016 -0.9827432592483469 -4.667323363780219 -6.192235314813162
547 3.5289784099988677 5.818573366540139 -0.7486076956900559
634 -0.4437677334763336 15.617473365862235 -11.564554629216923
1382 3.5676962797564746 -0.5426915010047559 2.9541456404696573
1890 -2.8416950830943644 9.1377626621095 -2.621605333398049
1122 -16.984215771048156 -9.587146966962743 -4.615626531866413
1394 -5.666718890073093 -0.7995525925753472 -6.705968876539855
411 0.4120677113587214 -5.59160597799106 9.975180807681978
1845 1.4522264984353592 -5.20996304405744 6.751846945591391
346 -3.440990535216757 -2.710265190623672 -8.503799105043926
711 -12.74884142794416 -2.3152805409070365 -1.7849002074279718
221 23.0421445519169 4.844385866415255 5.833631147693919
1252 0.5639450284110544 3.2305689579718635 -6.545269629610793
1439 0.9285299780545782 -6.3626307420421595 -5.465245355008133
1993 -6.316768377025035 -1.569215743023356 0.3272062368704083
117 3.3435198591877415 -5.015890696343091 9.974070305340375
212 -5.191707763615897 -4.870235834243131 -0.3359814579599148
2136 -2.011320748790685 -6.5505087729172145 -8.857617159353754
766 3.2432345163343594 -6.339663100631971 -17.389377708840932
1020 -0.5010494513828774 1.0196918371765595 -5.557336995254449
2149 0.06959743919766975 3.280820406873381 4.8157247431272525
1621 2.3560142873128234 5.508026709921809 -7.905296732143814
2030 2.6993479757527656 -5.637248398471531 -3.4855984060367406
1387 -1.0117155391648873 5.177441883684192 -12.940412322249838
125 3.0556708928992564 -3.3720714165968793 4.4637913752089915
2078 -3.1633361696326445 -3.482689993442674 4.7420201025544255
1654 7.641931780000611 -13.912477805567862 2.043329753699373
1975 0.1478038022595358 -3.5464782691017325 9.080598373516624
504 -7.118211186697957 1.5325235824733725 11.5572492801499
1817 -5.03595464082556 4.044573656542557 -3.3919448247494643
1585 -11.67356567148799 -8.979870264966873 0.05162793361170998
366 10.516954760242722 -5.69090976085324 14.166190977843652
43 -3.3079419879355556 8.052750170287416 -4.041502454619716
220 3.999061180860618 8.536089566977667 13.629098569249937
1447 7.857274974485122 4.404477763284535 13.265904719398419
1194 0.882679995131171 3.925236810733238 9.61158374138188
265 4.123251201019728 -2.1603476370013426 6.4902090201301075
391 4.4732567518453035 3.270784994054284 -1.437787759287316
958 4.052836534275301 1.0826754578301059 -5.309960857677458
1632 -2.4200967743843655 -4.435508928405734 11.041056259068153
1801 5.2182002280358954 6.071841528372432 4.90030118177511
2029 -8.833571073316218 4.892959998620312 5.145484383955693
35 -2.310029522018525 -7.929615158130749 6.94918393264391
826 -3.8519500977533783 2.6871872901394496 -2.440248918222317
782 -1.2399298483447778 1.8672255015556147 -6.366865669153469
919 5.575850971363163 7.990215748457448 10.349475064481883
1275 -4.730774262208466 -2.413969624321047 1.2072635588668195
326 -2.977027502607933 -5.451830205701889 3.311352667516963
1703 14.056162614795312 0.41388424220034753 -1.2656287777392319
652 0.5563327417956592 -1.262736911583198 1.4050092251343924
1644 -2.240951601002035 -6.752963754960334 0.38497550456085117
1251 -4.996368446490666 4.215742185342671 2.6936885857680997
1231 -2.895294169344389 -1.880606322005731 -3.3342393041540443
1072 -1.6910844422769022 -7.816872636364551 3.659889221146345
1988 -7.969156137127961 -1.8721155117379247 10.59421355498392
1855 -10.033856061643244 0.09540560670486725 -8.297170131466878
1086 0.8797661433529324 0.32690492056081666 15.10517494317813
1914 12.395173514979183 2.501278783267002 15.931599216025454
2077 4.512106744427641 2.24905886075401 -5.580830915597496
526 2.019553723237556 -0.0573105214736395 0.4087923965243366
1937 -0.17512414341649474 5.399970457420231 9.322067595533024
562 -4.164494398149133 5.78790729887219 -3.738799426707058
2085 -5.662004210635709 1.5054079112350542 -6.025639214779451
1870 -13.732519899714395 5.736186577056182 3.2716335291208027
1488 2.168110539340943 -3.4689558803432696 1.8604816737606744
2127 2.8439821322303263 -5.074846984836666 0.6440717765340079
783 0.7359702565180707 -5.00542637676414 2.622566334364565
426 -2.1383837385350515 -2.0776875287205105 7.958708604110537
