LAMMPS data file via write_data, version 2 Aug 2023, timestep = 5000, units = metal

2160 atoms
2 atom types

-0.13095198564362853 30.269865365641856 xlo xhi
-0.13140961780978877 30.375648137808874 ylo yhi
-0.15165527673719126 35.055480726733364 zlo zhi

Masses

1 15.9994
2 28.0855

Atoms # charge

2009 1 -1.2 8.587953944943427 1.7931039558185013 3.3376115342387065 1 1 1
1828 2 2.4 15.428348629375922 2.651347256771516 2.165000905770734 0 0 1
1677 1 -1.2 16.410267409744296 2.831765763662211 1.007099235531405 0 1 0
1002 1 -1.2 18.681421672626836 2.895648252257111 2.567276391618006 1 1 1
229 2 2.4 20.157219731873756 1.8195343638218204 2.4394905411220673 0 1 0
275 1 -1.2 19.34397386311627 0.31534226478314203 2.891984381351153 0 0 0
380 1 -1.2 20.291310122140253 1.5575114402485621 0.7343201592011676 -1 1 0
1140 1 -1.2 24.642936123966486 0.8413967747807145 0.8623453333055922 0 1 1
468 1 -1.2 26.612087314696815 2.210180397208719 35.03996930246231 0 0 -1
1657 2 2.4 25.446825795662612 2.2853482316846816 1.044465339021905 -1 1 1
528 1 -1.2 26.270638269689574 2.2491856555858383 2.96501658638458 -1 0 0
129 1 -1.2 4.593497647819495 4.3817166125552705 1.1434107935269995 1 -1 1
134 2 2.4 6.328464564895583 4.380994293458386 1.1618530448346531 1 0 0
485 1 -1.2 6.371741352808871 3.038881610547622 2.436632582249197 1 0 0
1281 1 -1.2 7.436644698695958 4.479214916920765 -0.0887914948230195 1 0 1
857 1 -1.2 6.4681398494247535 5.918817059723528 1.9381415040461567 0 2 0
963 2 2.4 13.00013143534898 4.908249695932157 1.4970576802848048 0 0 1
996 1 -1.2 12.083829351398668 4.861701901093445 0.2212044503418165 0 0 0
425 1 -1.2 14.113164798071317 3.6906563446766505 1.3957506840506066 1 1 0
80 1 -1.2 13.963628629513135 6.272023836750435 1.2143969536222998 0 0 1
2028 1 -1.2 18.841263334652265 5.536665406730462 1.8457528917749408 0 1 0
2109 1 -1.2 20.064428053832387 4.787087258903494 3.6721369757742535 0 1 1
1606 1 -1.2 22.244657490187464 4.472599878698457 2.1628998628294487 -1 1 1
1317 1 -1.2 24.152758131684 3.4578327274969802 0.7736852300741687 0 0 1
1561 2 2.4 23.757602999308627 4.736111030351782 1.5577822493572326 0 0 0
1134 1 -1.2 28.39043977364589 3.6208362405308754 1.7660378110210107 0 0 0
471 2 2.4 27.68916939856951 2.880457996628214 3.2227641177831714 -1 0 1
2025 1 -1.2 30.231173250601216 4.292394032557004 0.14077821265840293 -1 0 1
931 1 -1.2 2.172397891391527 5.036124378043639 0.8417249017985992 1 0 1
1671 2 2.4 3.5565393803814973 5.688415019231464 0.7941760570403401 0 0 1
1438 1 -1.2 3.5171524205241016 6.498171099063414 2.293583124309931 1 0 1
1593 1 -1.2 3.5767519556426346 6.957485707150369 34.99541389259741 0 0 0
394 1 -1.2 7.524131464245168 6.946372701547919 34.32865332214547 1 1 -1
1711 1 -1.2 8.495962795169683 7.660825436307265 2.8349130018884923 0 1 0
553 2 2.4 14.215802012163959 7.0518161763128795 34.930832140610335 1 1 -1
487 1 -1.2 15.251696673506402 8.2925428795188 35.04406396428171 0 0 -1
470 2 2.4 16.29443421143767 8.352623656575684 1.0926570266608118 0 0 1
145 2 2.4 19.009204736538237 7.220081846838722 1.306402631786549 0 1 0
161 1 -1.2 17.75263834988231 7.695554333645632 0.6378226221288651 -1 0 0
180 1 -1.2 20.371251166842534 7.285522867236336 0.3342083849835065 0 0 0
1984 2 2.4 21.9563549423341 7.188814859265287 0.013283075098518707 0 0 1
2093 1 -1.2 23.045232508819755 5.886542005451089 0.4466787053813224 0 1 1
1558 1 -1.2 22.567859478984282 8.275394520999814 1.1791385540480497 0 1 1
384 1 -1.2 24.929550273285688 8.770831547730268 2.688657084021149 0 1 0
280 2 2.4 28.359176923292264 7.470807681159034 2.1486229714455227 0 0 1
1384 2 2.4 28.703192947623474 4.563391696507697 0.7013890290335267 -1 0 1
66 1 -1.2 29.149029523360124 6.2055136837308575 1.3708105252649485 0 0 0
225 1 -1.2 9.344888600018686 9.08554564774453 0.17102320566740623 0 0 0
702 1 -1.2 9.459787587216606 11.070877292285347 1.9555354694457583 0 0 0
432 1 -1.2 10.688860693023011 8.733174087001235 2.188840252838896 0 0 0
615 2 2.4 10.325439352359572 9.88682062989727 1.1940731781367153 0 0 1
1456 2 2.4 15.572952294937847 11.505036208659652 0.9743787093819587 0 0 1
444 1 -1.2 16.241213080584288 10.084453756589173 1.0798526771609185 0 -1 1
98 2 2.4 24.081121244039792 8.991575537103708 1.2424007711870575 0 0 0
1896 1 -1.2 23.985711212094362 10.503808153892987 0.7284251246776324 -1 0 1
516 1 -1.2 27.943149459749172 8.139294680417605 0.7056639023885067 -1 0 0
879 2 2.4 1.5128875726952746 11.629596144475034 2.519948160960084 0 0 0
1015 1 -1.2 0.9365800137053899 11.05189164051374 1.3340644060019229 -1 1 1
1944 1 -1.2 2.9813718332985713 12.031598854084773 3.1375195101224644 1 0 1
991 1 -1.2 5.265545385782901 12.73925795953179 2.260248219939072 1 0 0
284 1 -1.2 7.33653196725272 11.051974126522614 3.30513439001784 1 0 0
1010 2 2.4 6.777841448411109 12.200545315121563 2.3818027716745656 -1 0 1
839 1 -1.2 6.875266505602921 11.459327588582976 0.8533303118347961 0 1 1
515 1 -1.2 11.601054213128203 10.648843645059989 0.49807489205829114 0 -1 -1
1129 2 2.4 12.376828529116617 12.087803328092104 0.9819132949379512 0 0 1
1577 1 -1.2 11.71609732521057 13.21450521554496 -0.15107389672706195 0 0 1
598 1 -1.2 14.215438985828515 12.122491765519706 0.08255572618536593 0 0 1
243 2 2.4 17.84563089197445 13.680025615763848 1.1883727498070913 0 0 0
286 1 -1.2 16.524006774298815 12.686106470724475 1.1115118953557082 0 0 0
1169 1 -1.2 18.704915385383845 14.62374964944824 2.348435174431805 0 0 1
2101 2 2.4 20.740394418709467 12.113568551571829 0.8329521585502834 -1 0 1
1234 1 -1.2 19.207876173224754 12.382642215200441 0.9448490353263798 0 0 0
618 1 -1.2 21.07973612801859 11.19850090536774 2.0914121345485084 1 0 0
1087 1 -1.2 21.260404375616602 11.961975512525763 34.33183406463038 -1 0 -1
574 1 -1.2 24.550799574608654 12.986003353325735 2.2623944881237463 1 0 1
302 2 2.4 25.339051419279937 11.990740508059002 1.0781517143726758 -1 0 0
21 1 -1.2 26.3542322735972 11.294599530130254 2.214869765499547 -1 0 1
1924 2 2.4 25.845174484503843 13.089074425029073 3.1304411876664147 0 0 0
701 1 -1.2 2.809437469589959 15.630654356080006 0.4233991477377814 0 0 0
1094 2 2.4 3.48298171898191 15.907724998044609 1.9638261142843638 -1 0 0
1295 1 -1.2 4.942022068903126 16.427473667206552 1.7453268435072824 0 1 0
152 1 -1.2 7.110953813509954 13.949543202190938 2.0535588304832144 0 0 0
877 2 2.4 8.49830353268401 14.734154841032266 1.8142924943765513 0 -1 0
2100 1 -1.2 8.59096631276338 16.503439533932713 2.144636601250052 0 0 1
1055 1 -1.2 9.050414852727542 14.487488971241932 0.33659778699048976 0 0 0
2038 1 -1.2 13.420790973121267 15.361294718096772 34.614233917630735 0 0 0
1928 1 -1.2 21.32746919161658 13.683110732155724 1.6140593621739827 0 0 1
1696 2 2.4 21.80542046691654 14.97080859180407 0.8298589172040224 0 1 1
542 2 2.4 28.050576767843136 15.403378483741738 1.8580301904743652 0 0 0
1457 1 -1.2 27.87413228071179 14.943933118530218 0.3435605220968639 -1 1 1
587 1 -1.2 27.68553887165683 17.00635719926042 2.1282754863204514 -1 0 0
982 1 -1.2 29.39886880193562 14.810899712126028 3.010542028791292 0 0 1
1484 1 -1.2 0.7261778499938989 17.74391905748511 0.5388464140530139 1 0 1
2007 2 2.4 0.6320275907055757 19.41002432926639 0.11503263923129604 1 0 1
1219 1 -1.2 2.5134820587629347 16.792175615731598 2.839577346250915 1 0 1
1006 1 -1.2 6.692959418687543 18.00062774125457 1.124493213998073 0 0 1
1754 2 2.4 5.466299205780272 17.468515348401855 0.223362298836131 0 0 1
1118 2 2.4 7.517824698578569 17.67641307022849 2.4922930967371206 1 0 0
453 1 -1.2 8.886040412914925 18.919747817583232 2.417431683381093 0 -1 0
396 1 -1.2 13.112469916037636 17.652501137156623 0.5304015998157939 0 0 0
874 1 -1.2 15.772693714776484 16.410149743560645 0.05703889553278628 0 -1 1
1740 1 -1.2 16.935263640604056 17.03217270401682 1.893115144024649 -1 0 1
673 2 2.4 17.36805982854124 17.62863081209857 0.3567636332700156 0 0 0
1607 1 -1.2 16.916231448999376 19.193147997348802 34.93621627794687 0 0 0
1590 1 -1.2 20.569013490670645 16.01417205592769 0.3689328373885438 0 0 0
197 1 -1.2 22.338801102556282 15.817538514124026 2.0486794706121647 0 -1 0
1760 1 -1.2 22.992179403192733 18.266008419067443 2.266225557988834 0 0 1
301 2 2.4 22.400421356204532 17.124221329025936 2.9756411073819335 0 0 0
200 1 -1.2 26.06436502490354 18.67073062232944 2.7716992296646654 0 0 0
248 1 -1.2 0.043870675867284936 20.115656328754607 1.3646894014911524 0 0 0
868 2 2.4 1.1302468810705781 20.833207977696357 2.318161314736052 0 0 1
1024 2 2.4 2.71927892624318 21.418466948586083 -0.0856691523518377 0 0 1
106 1 -1.2 2.348843185272645 21.4226102160925 1.5485033003702267 1 0 0
353 1 -1.2 6.377878692432195 21.531194651033452 1.199422713066663 0 0 0
1885 2 2.4 7.307686941504204 21.400204706231246 34.95252541792729 0 0 0
2104 2 2.4 9.724522518570211 19.941168458054875 1.3135414534509513 0 0 1
1427 1 -1.2 10.619389285734075 21.2424691720139 2.0063062715393416 0 0 0
1306 1 -1.2 8.56787864707655 20.907867692180854 0.4421466427724056 1 0 1
1391 1 -1.2 11.169612382658515 18.99824544007901 1.0940267470829559 0 0 1
1151 1 -1.2 15.949557573225919 21.945957820272675 0.3999439708032143 0 0 0
703 1 -1.2 14.71851316239688 19.612150456768905 0.906136033161636 1 0 0
2090 2 2.4 15.797761596767478 20.265634936007867 35.03769676198855 0 0 0
1846 1 -1.2 20.419091029325724 20.27522838292284 1.3899775559437344 0 -1 1
1189 2 2.4 25.820213540984696 19.72888495165544 1.313616746900518 0 -1 0
2001 1 -1.2 25.23323479856101 20.960999527833827 2.384530467729251 0 0 1
1583 1 -1.2 27.078376953457045 20.11377938302282 0.3326901034832534 0 0 1
1085 1 -1.2 29.36872377401913 19.498464126292166 34.645917248846416 -1 0 0
342 1 -1.2 0.5066926300446463 24.149527051723876 1.342699246737175 2 0 0
338 2 2.4 1.4202367487568208 23.92751677710746 34.845530682231534 1 0 -1
1250 2 2.4 6.706207830323206 22.738785727330285 2.0483166113829085 0 0 0
1855 1 -1.2 6.592822579650274 24.1440439529266 1.4591612183787224 1 0 1
682 1 -1.2 9.80506275132404 23.83032780486376 0.894503251819953 0 0 1
2030 2 2.4 11.02427365804693 24.976930405562516 0.6612371846372482 0 0 0
1653 1 -1.2 17.29111786373791 23.743323975066268 2.5808133026958737 1 0 1
939 2 2.4 15.766484652311126 24.120485049564568 3.099979960890523 -1 0 0
745 2 2.4 17.073371841606996 23.011672996676737 0.7066637303518494 0 0 0
372 1 -1.2 18.300586632431113 22.090246297302127 0.8292095273550701 -1 0 0
2014 1 -1.2 16.964760727073074 24.508638484480056 0.008388486991225026 0 0 1
1274 2 2.4 19.521809547980872 21.7106569651295 1.8497019643395967 1 1 0
1883 1 -1.2 20.603413934859656 23.09018362197923 1.7651754965441508 -1 0 1
83 1 -1.2 24.10476206935123 23.34415731375515 1.5170666155175014 -1 -1 0
38 2 2.4 23.26520887165984 23.45488728988432 -0.08968712091379144 0 -1 0
1228 2 2.4 24.92429157719972 22.550579042340697 2.834273920176751 -1 1 1
2151 2 2.4 30.231355527563057 23.185286559754662 2.6513993323955067 0 1 1
2136 1 -1.2 2.3520587778169624 25.137021500272624 34.840191708036855 0 1 -1
265 2 2.4 3.8315546658297635 26.113842993537308 34.91552214436742 1 -1 -1
1710 1 -1.2 4.51914595074811 25.995717485387956 1.2208641087720127 1 1 1
391 1 -1.2 3.2103115595940337 27.62195487996622 34.69433866566005 0 0 -1
1048 2 2.4 6.30720720843047 25.734151578824815 1.2602055933263534 0 -1 1
1361 1 -1.2 7.516795567325387 26.407858590953982 2.3246236028201683 1 -1 1
1387 1 -1.2 10.61109204568663 26.44266351679616 0.374470699813656 0 -1 1
1801 2 2.4 10.389794187202728 27.963082611563674 0.061955496482715436 0 -1 1
8 1 -1.2 12.786565162393583 27.346683530133724 2.587382601148842 0 -1 0
1632 1 -1.2 12.14382435572802 24.756291612665887 1.777804360898625 0 0 1
1851 2 2.4 13.457938768578185 25.867035972832962 1.8782572025228117 0 -1 1
708 1 -1.2 14.864506013172171 25.48572693821112 2.3577789964123874 0 0 0
149 1 -1.2 17.43413765831107 26.98185892895988 34.83317378651249 0 -1 -1
326 2 2.4 18.26946270655526 25.442102081589375 34.604313188985046 0 0 -1
63 2 2.4 20.9898508820756 25.421145290688425 0.8304709398494049 0 -1 0
2142 1 -1.2 21.378990921525247 27.04603666925118 0.515187819399114 0 0 1
1703 1 -1.2 19.611210439060866 24.794079296768526 -0.006559035923460312 0 0 0
1145 1 -1.2 22.35274098701572 24.686643849434137 0.1624789272207448 1 0 0
117 1 -1.2 26.35941133217515 27.128427823875736 0.5252083795323906 0 -1 0
365 1 -1.2 28.98774184571773 26.33727738049068 0.07791569630042455 -1 0 0
722 2 2.4 29.313296080015984 27.783791627629125 0.9323307293084616 -1 -1 0
1231 1 -1.2 0.08290356909026528 28.770891689237807 0.19929679167747835 0 0 0
1884 1 -1.2 2.2246877737525397 28.620814455836427 2.0523124020990355 0 -1 0
1072 2 2.4 2.851608387738313 29.091329803375384 0.300516155704667 1 -1 1
2018 2 2.4 6.203691735778058 29.861206459960368 0.3545038225340665 0 -1 1
1988 1 -1.2 4.430810116024097 29.794389274621313 0.3122710195837936 0 0 1
684 1 -1.2 6.572420338499315 -0.06793073964237223 1.7481106935795019 0 0 0
1914 1 -1.2 6.48511685506303 28.37900743181245 34.97024311795641 0 0 0
1592 1 -1.2 11.422683375498856 28.646961614940235 1.3196204419707973 0 0 1
104 1 -1.2 8.941976572859476 28.056847621573304 -0.057190997414933276 1 -1 0
262 1 -1.2 12.359120762564867 30.350607236984647 2.9106980174263013 0 -1 1
1372 2 2.4 11.891505121148732 28.55847847210091 2.804853170833313 0 -1 1
1354 1 -1.2 16.272981346659382 27.833322636103656 1.5097886764153594 0 -1 0
568 2 2.4 17.081321171710425 28.449405501938312 0.14491393633070093 0 -1 0
1187 1 -1.2 17.868572096154054 29.6748693879308 0.9123655996881738 0 0 0
50 2 2.4 19.293230204124505 29.59526867673748 1.8366544292162394 0 -1 0
972 1 -1.2 18.874022395908096 28.152911508197274 2.754629216511921 0 -1 0
2085 1 -1.2 20.291643960480307 29.452180976988853 0.5676404736776142 0 0 1
2127 2 2.4 21.63625454183726 28.582062859480075 0.17952007078490195 0 0 1
1488 1 -1.2 22.924973962635935 28.62547625192417 1.0300514670269805 0 -1 1
2125 2 2.4 24.076661560716865 29.786460883848058 1.471744903282204 0 0 1
956 1 -1.2 23.40791087805628 29.784047122144983 3.1118895476013044 0 -1 0
741 1 -1.2 25.44179284857784 28.909298047677023 1.043187869649009 -2 -1 0
410 2 2.4 26.83571717456476 28.446195975880304 0.18071263661502424 0 0 0
1668 1 -1.2 27.888367947571023 28.488159574239283 1.443362402449793 0 0 0
437 1 -1.2 2.9366360363272266 29.820431005972626 4.131664849026239 0 -1 0
9 1 -1.2 2.2005765098120693 2.1127353465346914 5.326875904726963 0 0 0
1263 2 2.4 2.7878429977952575 0.4266887406508295 5.304339102467797 1 0 0
1864 2 2.4 7.0949105309710365 1.335783980724413 2.5924996206326436 1 0 1
898 1 -1.2 6.688430377117065 0.7390476931691866 4.0711063647616 0 1 1
1464 1 -1.2 8.026714253386324 3.834180967587859 5.3416966436325914 0 0 1
1912 2 2.4 5.959894473370811 0.3577547625376579 5.400817450240676 1 0 1
1921 2 2.4 13.622031916596526 0.883764736180152 3.670268012153346 1 0 1
1386 1 -1.2 12.627920098051401 2.1000371499711874 4.364101061224258 0 1 1
2145 1 -1.2 14.451941599156315 0.2905629796299676 4.8665075785973055 0 1 1
658 1 -1.2 14.862973536074469 1.2529984487536423 2.7027337917550067 0 1 0
660 1 -1.2 17.66771363842812 0.1327169183768598 6.23111369014477 -1 1 0
1534 1 -1.2 15.970324920101037 2.1435478712277805 5.076098070926023 0 0 1
1043 1 -1.2 28.102931483876475 1.3870151847097283 3.9335284995382978 -1 0 1
1837 2 2.4 28.72895132957807 1.203433190059532 5.343840216997025 0 0 1
1782 1 -1.2 30.211686430253074 0.49214091500967116 5.353151782527435 0 1 1
2002 1 -1.2 27.965216564365985 0.7601041027439764 6.638252263085455 0 1 0
806 2 2.4 2.313500861772097 5.924656092200981 6.010073219641627 0 0 0
1304 1 -1.2 10.238509658588418 3.4067365653558674 4.448129378843502 0 0 1
1647 2 2.4 8.505392367389572 3.549799182849607 3.862099938048861 1 0 1
803 1 -1.2 8.881339562155173 4.913495163523171 2.9855402019002977 -1 1 0
60 1 -1.2 12.102520755252506 4.743398450107778 5.4977559073726106 0 0 0
240 1 -1.2 12.152494883891437 4.6470884567337825 2.886638928684834 0 1 0
1453 2 2.4 11.640833380316174 3.6194918225275408 4.287486339940097 0 0 0
768 1 -1.2 14.978877267833342 3.585651501545322 3.4513549976897773 0 1 0
1248 1 -1.2 15.484200437044674 4.746593995177416 5.6898992078062625 0 0 0
1537 2 2.4 15.868013733698849 3.7430632356545246 4.614672257161901 0 0 0
549 1 -1.2 17.47662498089909 4.819568120228449 3.9009492205956873 0 1 0
1156 2 2.4 18.7617566330063 4.412994541323312 3.0709369706442544 -1 0 0
2012 1 -1.2 21.219290151794006 2.503358984808824 3.377925066669418 1 0 1
795 2 2.4 21.530045784844393 4.3159907388994485 3.7565258411100952 -1 1 0
2063 1 -1.2 22.389901570285236 4.868928822371079 4.707525429511895 0 0 0
34 1 -1.2 24.975798706862815 5.644028405016636 2.202313558596394 0 0 0
1867 1 -1.2 27.650948675780736 4.152772112699345 4.3571430923923025 0 1 1
2075 1 -1.2 26.214806907558756 3.041305360086026 6.001891204897507 0 0 0
364 2 2.4 27.80439670189974 3.7493557275491245 6.0116485354303615 -1 1 0
642 1 -1.2 29.07375527667143 2.824206656716737 5.706929337382773 -1 1 0
1545 1 -1.2 2.652319656642357 6.646047908186367 4.539323869254549 1 1 0
292 2 2.4 2.9512455877749413 7.540534587503197 3.248562059956398 0 1 0
948 1 -1.2 6.762020805734976 6.147807872670189 4.554123943840402 0 0 0
1900 2 2.4 7.5456718174899855 6.182185686506588 3.1087920635612494 0 0 1
1506 1 -1.2 10.98666324735376 7.632911878272682 4.4044004332434765 0 0 1
1120 2 2.4 9.657374018660125 8.39830899208712 3.4029130892197306 0 1 1
260 1 -1.2 16.346154398695482 7.467335341007944 2.8196957584317177 0 0 -1
1636 2 2.4 17.30544683243036 7.82694479914523 4.202211510662377 1 1 0
1270 1 -1.2 19.434912962798773 8.146259184304911 2.4985732677365218 1 0 1
706 1 -1.2 21.876245537343976 7.612080276031413 4.2677761143234845 0 0 0
552 1 -1.2 24.40506659585648 6.561598769187766 4.408009990787003 0 0 0
409 2 2.4 22.776954545504356 6.6485247944227295 5.17825294836185 0 1 0
493 2 2.4 25.379386474165464 7.012075807828327 3.080626674739317 0 0 1
1475 1 -1.2 27.070963926111038 7.230142041601272 2.8788526841081024 -1 0 1
163 1 -1.2 1.5938878744293887 8.470752241079737 2.0309746109733333 1 1 0
867 2 2.4 0.5518648707587857 8.710792440640542 3.082742140242975 0 -1 0
155 1 -1.2 29.476787287809906 8.500090544350615 2.773637817802631 -1 0 0
1990 1 -1.2 3.6086948544687507 8.968482299364261 3.8543630638084583 0 0 1
1620 1 -1.2 9.267150163845278 9.719932363138943 4.361494814526154 -1 0 1
891 2 2.4 9.075203667663262 11.0882287037871 3.5556866540691945 0 0 0
596 1 -1.2 17.366523856082946 9.237256735672295 5.032336814763671 0 0 0
989 1 -1.2 18.736470992016137 7.2866389931407065 4.483190044653136 0 0 0
1948 2 2.4 20.27893177318545 7.962225165622943 4.527344955234616 0 1 1
2111 1 -1.2 20.168947435808274 9.657159357469453 4.012076440084471 -1 1 1
1218 1 -1.2 28.077435661873885 9.954547071854774 4.465492959114545 0 0 0
1165 2 2.4 27.612150621091427 11.22539491336194 3.709313488179492 -1 0 0
752 1 -1.2 0.8708686826309721 10.395394405872956 3.847390763160076 0 1 1
1752 1 -1.2 0.7726941228790517 12.842824537895792 3.082661283190253 1 0 1
254 2 2.4 4.334681409503413 13.18950954126064 3.406273533830435 1 0 0
981 1 -1.2 0.7372371343028626 8.076525503854313 4.568664164360392 0 0 0
1182 1 -1.2 9.503188522070065 12.251270721604161 4.762957403312311 0 0 0
315 2 2.4 9.062429722996834 13.956083221362299 4.783416317642944 0 0 0
800 1 -1.2 9.391752927859006 14.142309863961783 2.9674083456694875 0 1 0
1220 1 -1.2 12.790940126176526 12.099808939460663 2.495943433104021 1 0 0
1826 2 2.4 13.327228301537035 12.565577356247188 4.633199587063428 0 0 1
750 1 -1.2 12.983336669369917 11.340537263027016 5.509530191961688 0 1 0
73 2 2.4 16.16803812628296 13.428467018197205 5.5193903918745475 0 0 0
1497 1 -1.2 14.509095804064241 13.529759221397411 4.861185543116172 1 0 1
2055 2 2.4 18.793754347982997 14.021385661433207 4.018818736712559 0 0 1
1415 1 -1.2 17.23362183942367 14.084209706829926 4.571812025911463 0 0 0
1799 1 -1.2 19.633149774212388 12.624482782748975 3.8088734501413457 0 0 0
1516 2 2.4 20.428824608523463 11.361544241824038 3.6689072529678217 0 0 0
1728 1 -1.2 21.77800098292495 11.792206051564897 4.471957699758812 0 1 1
228 1 -1.2 26.361673517416076 12.19256397159199 4.455336257024428 -1 0 0
1700 1 -1.2 26.55605099528362 14.628745269977339 3.0304874037479794 -1 0 1
731 1 -1.2 28.551886810935436 12.317765811662136 3.0738978245624153 -1 0 0
421 2 2.4 29.58686959552297 13.370270859010484 3.7357443979890346 0 0 0
1186 1 -1.2 3.5608700821283357 14.49428323749246 2.7225920562151815 1 1 0
1446 1 -1.2 4.748529176347283 13.206432986497537 4.904187155737319 0 -1 1
1201 2 2.4 5.63370085341721 14.451827705134598 5.811261870404591 1 0 1
1726 1 -1.2 7.269036573794019 14.0456883658868 4.879769828920449 1 1 1
1329 1 -1.2 4.835846193883273 15.62011303565037 4.830933963039078 1 0 1
1171 1 -1.2 10.088862313507457 15.16743387704699 5.523214595953264 0 1 0
789 1 -1.2 12.184487547813655 13.823352031238725 4.633295462517141 0 1 1
2105 1 -1.2 19.66447027348778 15.272409634148792 4.806172249612769 -1 1 0
794 2 2.4 18.853963577011463 16.325782072918 5.586160652814602 -1 1 0
238 1 -1.2 24.524309974265897 14.501342655805011 5.500302829725888 -1 0 0
96 1 -1.2 30.07223577533005 12.945467075867473 5.342082817047982 -1 0 0
1894 1 -1.2 1.662328963899061 17.98067833522562 4.766859504872003 1 0 1
1444 2 2.4 2.681425907148549 18.120982281624233 3.641531393648944 1 0 1
1272 1 -1.2 4.413658592862976 18.35878163966593 3.8678668497963233 1 1 1
1429 2 2.4 5.313522412460812 17.221636760646746 4.722056979652723 1 0 0
1452 1 -1.2 6.618197726098932 17.150357835729753 3.7600566665030652 0 -1 1
405 1 -1.2 5.694643056232201 18.57840107885829 5.605117990077312 1 0 0
20 1 -1.2 13.741160354238657 19.688680067412225 4.263472782572621 -1 0 0
1408 2 2.4 16.48390449976354 17.44685722989826 3.4847863318606946 0 0 0
257 1 -1.2 15.138027289333525 16.945733180193688 3.9901644578454847 0 1 0
600 1 -1.2 17.827648189085757 17.40237822695598 4.646888127551042 0 0 0
208 2 2.4 20.480198469504927 18.609749891556856 5.597449674855982 0 0 0
917 1 -1.2 20.051924778283027 17.24223616487367 6.329774999595882 0 -1 0
1518 1 -1.2 20.94604873324125 17.616562296517053 3.9118401570461603 0 0 0
76 2 2.4 24.611718731614737 16.095351976851585 5.144562153201389 -1 -1 -1
1683 2 2.4 27.035731264891783 17.48204909505916 3.482577525990968 -1 0 1
223 1 -1.2 26.1914550997173 17.05538847452647 4.707637148694587 -1 0 0
910 1 -1.2 28.455940245880804 18.493505278973362 3.959568134372996 -1 0 0
1158 1 -1.2 29.975657694220914 19.919770612045138 5.565759629204845 -1 0 0
392 1 -1.2 2.1375828438440565 19.513615703700456 2.844029553088117 0 1 0
2076 1 -1.2 11.102630762424749 19.183869780105027 5.621908514132178 0 0 0
316 2 2.4 12.394521867641442 20.070596303414817 4.918592692448051 0 0 0
1471 1 -1.2 12.417888785026884 21.769705106846203 5.114779787020041 0 0 1
1878 1 -1.2 18.467127061773475 21.110003627992825 2.8446342315662405 0 0 1
512 1 -1.2 17.069131135418846 19.21515273223348 3.0786925653199653 0 0 0
818 2 2.4 18.022286017382758 20.390199417055662 4.300817686081599 0 0 0
886 1 -1.2 16.67793278063928 20.793391095294805 5.024233377665638 0 -1 1
1685 1 -1.2 19.277558419868324 19.643302635246567 4.965505859788405 0 1 1
354 1 -1.2 27.446046123082937 20.52049640085466 4.416843918045593 0 0 0
903 2 2.4 28.52200050326156 19.511144628579483 5.165464310024067 0 -1 0
299 1 -1.2 0.7843792372497418 21.940986239986604 3.508365735774243 0 -1 0
567 2 2.4 5.544327648984484 23.863797629871385 4.674221042792059 1 0 0
1111 1 -1.2 5.280848239646904 22.776394964307006 3.286717847238865 0 0 0
1860 1 -1.2 8.171529795608349 22.380029577190083 2.7765646796968175 1 0 1
1105 2 2.4 9.711695210840311 22.814483269390443 2.228549079416842 0 0 1
1553 1 -1.2 10.227529225783519 23.62917257827472 3.603755074474711 0 0 1
1381 2 2.4 11.306194254694484 24.404536793796908 4.630849286222233 1 -1 0
899 1 -1.2 12.881747965885124 24.365408441296953 4.852388327984412 0 -1 0
1420 2 2.4 13.630699577656165 22.82742434876161 4.750168162735974 0 0 1
309 1 -1.2 14.660300378930565 22.899571143033683 3.617381242428182 0 0 0
1626 1 -1.2 19.518066917066147 23.932301889752566 3.969116589516324 0 0 0
157 2 2.4 20.870775285332844 24.180073170886335 3.3239723864215533 0 -1 0
343 1 -1.2 21.835364555628317 23.53396825878184 4.6371309391283475 0 -1 0
1569 1 -1.2 23.950988197041443 22.453607084751333 4.051729984797806 0 0 1
2140 2 2.4 23.334068160201607 23.30283689069568 5.214988917854179 0 1 1
812 1 -1.2 26.544371917302755 22.87748671330277 3.2512205215596834 -1 -1 0
1166 2 2.4 27.77685721030389 22.081959684305914 4.206500485432228 -1 0 0
2094 1 -1.2 28.940242333939928 22.615544628761555 3.329655883345667 -1 0 1
1114 1 -1.2 0.16395529903607203 26.41965998339459 5.2329899600004 0 0 1
1758 1 -1.2 4.4501660297528085 24.8538554995523 5.0397000158556615 1 -1 1
1336 2 2.4 3.640409159974873 26.398961393066827 5.613166693702951 1 -1 1
2062 1 -1.2 6.736644659258044 24.511662339035425 4.232864076360586 0 0 1
1611 2 2.4 7.108056129713174 26.18868370404732 3.8993184908565466 0 0 0
1920 1 -1.2 8.504354934199322 27.24124280074116 4.635306923601852 0 -1 1
1598 2 2.4 10.00373957819517 27.22579255032384 4.697965122750424 0 0 1
1460 1 -1.2 10.949258009934434 25.929782279899204 4.124385803554337 0 0 1
594 1 -1.2 16.731396240050806 24.62518801162912 4.57815051393547 0 0 0
1430 2 2.4 18.33011976142532 25.12607528364361 4.376765417672641 0 -1 0
414 1 -1.2 17.780428981359385 26.181567827769765 2.890502416579375 1 0 0
1422 1 -1.2 21.286987426397676 25.330980049132222 2.3304877435860654 1 0 0
407 1 -1.2 19.92585395706618 26.381223736834535 4.792507399500708 0 0 0
586 1 -1.2 24.044807361819938 24.666447600131082 5.440019849838771 -1 0 0
2113 2 2.4 24.463882347388576 26.246316886679914 5.828047738497805 -1 0 1
295 1 -1.2 30.029227827101963 27.479985143977196 2.762681530656836 -1 -1 0
245 1 -1.2 29.933954976023752 24.832022093860072 3.4646528900389475 0 0 -1
1222 1 -1.2 28.312571723690034 26.312579913276153 4.691847982611426 1 -1 0
16 2 2.4 29.782298403670175 26.44889807041303 3.9119810430692192 0 -1 0
2092 2 2.4 0.8207942796560145 29.340068747693742 6.099816011321605 0 0 1
141 1 -1.2 0.6644413172049084 28.695174039812674 4.407577659798475 1 0 0
746 2 2.4 2.0709658558488533 28.45608226235434 3.56096570436144 1 0 0
1570 1 -1.2 4.3537720491760385 0.7913353182935899 5.089035978079152 1 1 1
1806 1 -1.2 2.662512904910454 26.91821703495268 4.224235311887927 0 0 1
1566 1 -1.2 5.986619882096627 27.093328332403317 4.73275348425995 1 0 1
667 1 -1.2 10.630280721151191 28.280144725493095 3.6780182975328795 0 0 0
1803 2 2.4 17.167429681335623 27.668887440383507 2.7808613355012697 0 -1 1
1115 1 -1.2 16.50880732527994 28.51360511555427 3.8307342645269578 0 -1 1
77 1 -1.2 19.077218243484303 28.59958912055832 5.283517563897156 0 0 -1
1214 2 2.4 19.791857707688962 27.784650311908475 4.188002687990533 0 0 1
670 1 -1.2 20.962151374813786 28.92006330187393 3.5124235268278383 0 0 0
1374 1 -1.2 23.336120802209052 27.566784697995097 4.829062969177062 0 -1 0
866 2 2.4 22.51528220009725 28.99713211700045 4.211982183828195 0 -1 0
1065 1 -1.2 23.071645208859366 30.131381302502493 5.4957081828316925 0 -1 0
533 1 -1.2 1.993247096881604 3.0469826567861604 7.714181934438121 1 0 0
327 2 2.4 6.539072278350577 2.2547441384697975 7.562671164142834 1 1 0
1963 1 -1.2 6.7508776433931414 1.0452922754881595 6.5277101649716895 0 1 1
644 1 -1.2 9.660090450034984 2.0352363924340837 6.683062714591466 1 0 0
399 2 2.4 9.392443506711617 0.9502579637162075 8.316397058468851 0 1 0
2033 1 -1.2 12.304793641567192 1.4828846610036652 7.007028112627213 0 1 1
985 2 2.4 13.014959501631633 0.43789494691968295 6.156595860571998 1 0 1
271 1 -1.2 14.1670616363611 0.03779740978982973 7.3023252188346435 1 1 0
1940 1 -1.2 15.636972958253175 1.7325867099882366 7.740800838846068 0 1 1
290 2 2.4 16.905322262795167 1.7300378826064287 6.505838764562196 0 1 0
1337 1 -1.2 18.27440657327843 2.6792050264378884 6.170468754257536 0 0 1
45 1 -1.2 20.396387182963792 0.097577280661826 6.839301048937294 1 0 0
1804 2 2.4 19.88816401800813 1.6893642060700451 7.280790677869597 0 0 1
503 1 -1.2 22.592157184578497 0.9153081216513952 7.99624319917375 0 0 0
2116 2 2.4 22.464972474182535 2.663646327435743 7.824797388827376 0 1 1
184 2 2.4 26.476037595658617 0.906066213808817 7.536174233043039 0 0 0
1681 2 2.4 1.9703406995563528 3.337609533153249 6.232520557482118 0 1 1
89 1 -1.2 1.3199911327774556 4.784663819251143 5.4985450789796 1 0 0
1133 1 -1.2 3.470798863037227 4.604677455297433 6.642652365123373 1 1 0
2087 1 -1.2 6.015565235907746 5.67840860953039 7.1419803934972625 1 0 0
1753 2 2.4 4.758316740649018 4.73231864895786 7.545614520805583 0 0 1
845 1 -1.2 5.046391812363185 3.266041525435622 8.25042316813253 1 1 0
785 1 -1.2 7.715209352583768 2.9197606744595226 8.074453603233996 1 0 0
52 2 2.4 8.603459489197443 3.4189818891743893 6.83177738242939 1 0 0
1318 1 -1.2 9.728732678031681 4.55247540250161 7.265617318015747 0 0 0
1383 2 2.4 11.290706741448341 2.4445567987099386 8.063563917262382 0 0 0
195 2 2.4 11.559277355487698 4.924890633672174 6.974143272449508 0 0 0
150 1 -1.2 12.148689244025025 3.7497870155028084 8.175038347689343 0 0 0
1185 1 -1.2 20.962360253086025 2.9306670535321224 7.175160827910188 0 0 0
1243 1 -1.2 23.588903058784126 3.6843694655380266 7.20697722358824 -1 1 0
869 1 -1.2 25.97321833445891 2.232608883182142 8.13654806284432 -1 0 0
423 2 2.4 25.178056623252985 3.4597134322748437 7.358719210864227 0 1 0
1373 1 -1.2 25.55512653533645 4.841061996247573 7.928719692692073 -1 0 1
632 1 -1.2 0.15511748300779493 4.980160606999543 8.446696655934236 1 0 0
2123 1 -1.2 1.8442628768731795 6.488312214095787 7.528264775314023 0 0 1
561 1 -1.2 4.900057572395052 7.8157259820060165 6.160636233742756 1 0 0
147 2 2.4 6.436809993503042 6.828063247056072 6.055840199160637 0 1 0
912 1 -1.2 7.9352726781370375 7.295509772206415 6.603901715774141 1 0 0
136 2 2.4 8.309853150019514 8.917267019361457 7.463718561850494 1 -1 -1
255 2 2.4 11.065605460030893 7.824614712614257 5.881792653304857 0 1 0
1061 1 -1.2 9.73421182592833 8.669436907040675 6.859373459458467 1 0 0
630 1 -1.2 11.10285175582879 6.5252819802129745 6.8645483519786765 1 0 0
807 2 2.4 16.07515623146032 6.1711704220839225 6.575818804248486 -1 1 0
1649 1 -1.2 14.796978288514516 6.249907638181737 7.3017927549727935 0 1 0
1056 1 -1.2 16.36883638064291 6.989062054656711 5.331752278249014 0 0 0
1269 1 -1.2 17.365866961162563 6.4053593514402065 7.6503195184772 0 1 0
1183 1 -1.2 20.19916495449609 5.34432363602481 8.114999215472885 0 0 0
1825 2 2.4 21.562091879971177 6.580992917230632 7.6216218027066445 0 0 1
1555 1 -1.2 20.806942444293732 7.283813074800172 5.8786264041215155 0 0 0
791 1 -1.2 27.272937459200605 7.607530876356246 7.006545134591242 0 1 0
1981 2 2.4 26.88191330794124 6.071621670882239 7.679086348638341 0 0 1
1040 1 -1.2 27.88771872627285 4.921634732178399 7.088195728608228 -1 0 1
1612 2 2.4 0.4899338460293781 6.562133861458197 8.46888406059874 1 1 1
1757 1 -1.2 27.69308708359706 6.588666562037864 9.269537005269738 -1 0 0
908 1 -1.2 0.674391115242028 10.400115773959008 6.716723633569281 1 0 1
1730 2 2.4 1.113398968840001 9.58619712000818 5.2844638292519415 0 0 1
27 2 2.4 4.038040777491487 9.069377144942171 5.535000456662964 0 0 0
1104 1 -1.2 2.5003337756599264 9.152030193352548 6.374678355513686 0 0 0
1790 2 2.4 4.76535909335559 9.675647495961133 9.854561255646887 1 0 0
1362 1 -1.2 7.45635144019281 10.028496484594951 6.719629911639644 1 0 1
56 1 -1.2 5.550612891850502 10.506200445846694 8.65530624962201 0 0 0
1432 2 2.4 6.061244341871998 10.828630989459151 6.991678865896232 1 0 1
1229 1 -1.2 12.254714505097029 9.051490001973683 6.279488549967925 0 0 0
950 2 2.4 13.479184842779237 10.164287878508558 6.415078253324939 0 0 0
341 1 -1.2 14.95649548898388 9.580106827847548 5.695886851131252 0 1 0
112 2 2.4 16.232342320140244 10.327458053067305 5.7662386703724655 1 0 0
954 1 -1.2 16.377829049342683 10.301729202968183 7.579653760975265 0 0 0
1511 1 -1.2 29.858543032837986 7.495990694683096 7.723778479751169 0 1 0
1732 2 2.4 28.27317291542901 7.886253379036323 8.283745506187815 -1 -1 1
1009 2 2.4 0.2659647087356188 11.492886622999597 8.08963968076014 0 0 0
1925 1 -1.2 0.08701273661092661 13.07076979815243 7.825070549218784 1 0 1
297 1 -1.2 4.895949369672536 10.559008284433117 6.075097334640069 0 0 0
1714 1 -1.2 6.661570130778545 12.268080856608373 7.527371654185134 1 1 1
1608 1 -1.2 8.774631433865176 13.769230915132308 8.440463867555868 0 0 0
751 1 -1.2 13.734157847689147 10.699995596090536 8.02767708530439 0 0 0
522 1 -1.2 16.70686352395248 11.875887380843285 5.650967455097302 1 1 0
815 1 -1.2 18.81162069250428 12.41661554056599 8.386215481060004 -1 0 0
1254 1 -1.2 20.935334317863877 12.80147491191928 6.785385575211031 -1 0 0
1095 2 2.4 20.416325420450846 12.582972539938941 8.558402777966007 -1 0 0
1244 1 -1.2 23.723068220001068 12.468436235535423 5.955445592273023 -1 1 0
210 1 -1.2 22.770509375050022 10.980454939088233 7.313465792393435 0 0 0
2005 2 2.4 22.149087351001466 11.955506101147437 6.183357963824984 1 0 1
1144 2 2.4 26.88044117953303 13.020280468677623 8.22352778316587 0 0 0
849 1 -1.2 26.9952894211437 11.296312310423883 9.225641132141805 0 1 0
1967 1 -1.2 27.865231728566165 12.899857594800531 7.00925514036818 -1 0 1
1755 2 2.4 29.56612459280991 13.654560087635998 6.574354922322298 -1 0 1
1172 1 -1.2 3.6311133196094505 15.446476687034114 9.283810261907409 -1 1 0
1762 1 -1.2 4.952477369036878 14.602475748151308 7.345871408062723 0 0 1
759 2 2.4 5.418694863439103 15.437103409471 8.81686761427456 1 1 0
1333 2 2.4 11.63362334873873 14.800562887389098 5.931903297685065 0 0 1
876 1 -1.2 9.383466674515478 16.824401828717765 8.093518819987587 0 -1 0
1715 1 -1.2 11.614636030378385 13.88478150673602 7.4837838494538484 0 1 0
578 2 2.4 12.413125643237441 14.191713553662403 8.78734540241801 0 0 0
2046 1 -1.2 16.0859495872455 13.993235703239568 6.838982953855726 0 0 1
231 2 2.4 15.644944689131881 14.513072916182853 8.576984874448405 0 0 -1
500 1 -1.2 14.003181729642835 14.685914269210269 8.431110965480347 0 0 0
907 1 -1.2 17.962620706741316 15.907929736655783 7.079894196093134 0 0 0
138 1 -1.2 16.223500192478717 16.027877130111925 8.907960684811908 0 0 0
282 1 -1.2 23.045501240387438 14.450316925706751 7.551251073804035 1 0 0
1502 2 2.4 24.255214394786385 13.681069632235047 6.86111114886088 0 0 1
588 1 -1.2 25.236005633373345 12.79581065545865 7.892137580993298 0 0 0
1039 1 -1.2 29.12137343427633 15.180544816973091 6.708696915200392 -1 0 0
1897 2 2.4 0.9380326862162485 18.72558521949525 6.164478337172256 1 0 0
2070 1 -1.2 4.9310640222907285 19.44320643325522 8.234616947281792 1 0 1
852 1 -1.2 6.738306831408804 16.02521159355882 7.974305307763794 1 0 0
927 2 2.4 6.26165921277835 18.69320414994217 7.207334721900545 1 0 0
1289 1 -1.2 7.676864514357107 19.960265735762214 7.397231023532943 1 0 0
1388 1 -1.2 12.032893132217069 16.31131442062574 6.282719318244464 0 0 0
952 2 2.4 11.28455410369257 16.56267102998585 7.899312719674724 0 0 0
1339 1 -1.2 11.584925507184368 18.031060128350706 8.459212985183681 0 0 0
517 2 2.4 17.745095164712925 16.785310246670306 8.524068288846733 -1 -1 0
1433 1 -1.2 17.15598493372174 18.265563245836013 7.735499903603146 0 0 1
348 1 -1.2 21.745011960492125 16.535176837697453 8.630241400092677 0 0 0
1853 1 -1.2 23.36084309032414 16.74154199683189 4.3740531062215915 0 -1 1
187 1 -1.2 24.555204490507876 17.171346393688584 6.5933894358341085 0 0 0
122 2 2.4 26.193246233317105 17.64671240251304 6.653568713124502 0 0 0
1092 1 -1.2 26.102558108247642 18.111845136674148 8.361643719810948 -1 0 0
174 1 -1.2 27.32985496938483 16.630914127034995 6.742147851737305 0 0 0
1033 2 2.4 28.89788508183635 16.72096475539321 7.462987290394223 -1 0 0
2147 1 -1.2 29.998208884052893 17.664343396537763 6.3090888481162954 0 0 1
1257 1 -1.2 2.0692389280204626 19.19816602412871 7.266509947140838 0 0 0
1360 2 2.4 1.5631745700178974 20.503529653600744 8.43802334636409 1 -1 1
737 1 -1.2 2.822876808092192 20.398805998649735 9.361354680289283 0 0 0
724 2 2.4 9.006481270106306 20.644753950550736 8.137093802001793 0 0 1
72 1 -1.2 10.494313907284445 20.135020843698484 7.741051550628764 1 0 0
194 2 2.4 11.74669887062803 19.50735215907116 7.2919201319187215 0 0 0
1724 1 -1.2 13.106609059053126 20.203372209714413 7.0766312899070805 1 0 1
226 1 -1.2 15.990628203672388 21.080927087651414 7.88172286302474 0 0 0
2102 2 2.4 16.02677371100174 21.778586876689438 6.370447560314467 0 0 1
539 1 -1.2 21.870697306687482 19.334031083363573 6.0458632060009245 0 0 0
651 2 2.4 22.612460767913888 20.853262485642787 7.218914572753063 -1 0 0
413 1 -1.2 27.172845594670257 18.904416968571148 6.200395532934794 0 1 0
1233 1 -1.2 1.1195161539404763 21.897972728771727 7.735311624847688 0 0 0
1646 2 2.4 0.3347022977621121 23.363368089424966 8.059439116738597 1 -1 1
1224 1 -1.2 0.7097307321437754 23.90239043227464 6.505882714940547 1 0 0
216 1 -1.2 6.1631514423751685 22.813850259761814 5.917036011752269 0 0 0
967 1 -1.2 6.123020087075016 21.97914210419664 8.370948229076538 0 -1 0
677 1 -1.2 9.04773432863102 22.18412366619637 7.532907126217066 0 0 0
1957 2 2.4 7.255414267144052 22.716162080447468 7.400464262026444 0 0 1
233 1 -1.2 7.096802255774211 24.27378433086018 8.116805920689062 0 0 0
1625 1 -1.2 10.77473971830234 24.386082360818552 6.189800093438347 0 0 1
559 1 -1.2 14.846309331941004 22.56361054531346 5.94746036635026 0 -1 1
1919 1 -1.2 17.190501471951926 22.911899033559234 7.050494443464587 0 -1 1
186 1 -1.2 20.87877932555504 21.56094680631054 7.301116894925589 0 -1 0
838 1 -1.2 23.27389651712153 22.077292329014544 6.336483394289126 0 0 1
1787 1 -1.2 28.326916315209893 22.765531532132997 5.530745304627307 -1 -1 1
2160 1 -1.2 26.65335547731184 22.754529258986736 8.31847161548993 1 0 1
1490 2 2.4 27.729469459430344 23.43070577778969 7.195897854748355 0 0 0
1256 1 -1.2 29.11752995233967 23.2780162301308 8.078337390340312 0 0 0
1084 2 2.4 0.8432273639519781 25.579456101950043 6.518732756456251 0 -1 1
2047 1 -1.2 -0.05167051257615058 26.35203033173572 7.951408611865048 1 0 1
1305 1 -1.2 2.3314554055560226 26.04483578286479 6.719015871956132 -1 -1 0
188 1 -1.2 6.865026578043413 26.870690958935256 7.215772124511092 1 -1 0
507 2 2.4 7.855070204838078 25.766537149132283 8.067683665889632 0 0 0
638 2 2.4 10.78495849773849 24.89175328634735 7.713152980878982 1 -1 0
1162 1 -1.2 9.389347646000923 25.64276503002893 7.911904774670642 1 0 0
91 1 -1.2 17.0204016072525 25.058186827361332 8.19147557989458 0 -1 0
2131 1 -1.2 17.85788669047607 26.093384120941604 5.688700267422759 0 1 0
1563 2 2.4 17.573079520466052 26.153541047037397 7.251129858790974 0 0 1
1292 1 -1.2 19.08594038716134 26.203871828979718 7.916933718553725 0 0 0
382 1 -1.2 24.42321863163989 26.75661904637295 7.290012112872251 -1 0 0
153 1 -1.2 25.98220576249424 26.043906512095056 5.5552608971772495 -1 0 0
663 2 2.4 27.483074430808067 26.211687572766515 6.0995049421396486 0 -1 0
720 1 -1.2 27.642788258184073 25.149540382232644 7.3835920411041345 1 0 0
1089 1 -1.2 28.075382901069034 27.447304092779003 7.012855245795781 -1 -1 1
1524 1 -1.2 2.276050354696679 30.00885315080901 6.523990652469399 0 -1 1
449 1 -1.2 4.087636401199229 27.511875718952197 6.74413288350616 1 -1 0
1526 2 2.4 5.885239099932157 27.826029527672638 6.390816412860402 0 -1 1
41 1 -1.2 5.884054469835764 29.41045447401058 5.927150504065015 1 -1 0
417 1 -1.2 10.408026058703493 27.7954848729277 6.299704659600756 0 0 0
1690 1 -1.2 9.696517379766417 30.039317051838832 7.312781558715778 1 0 0
1899 2 2.4 10.863267405192262 28.873603884853964 7.245727440618537 1 -1 1
524 1 -1.2 12.049943044919011 29.590238693376673 6.203988037867687 0 -1 0
2061 1 -1.2 16.634028989472696 27.421929563498235 7.306929352034271 0 -1 0
139 1 -1.2 16.00034474716063 29.436512118313285 8.908677675539609 1 -2 0
144 1 -1.2 19.036668870426286 28.674408153837003 7.726801956523979 0 -1 0
599 1 -1.2 21.264166046106194 27.41788197432111 7.527901484065091 0 -1 0
481 2 2.4 18.981692309861284 29.589369864417197 6.493170884874815 0 -1 0
1863 2 2.4 19.92165627099483 27.53976264410401 8.575600213968075 0 -1 1
1705 2 2.4 22.921637383575625 27.41134252716223 7.954690563142562 0 0 0
1262 2 2.4 23.488470727919154 30.22866517981426 7.054790262112448 -1 0 0
190 1 -1.2 23.35053474928031 29.074775285841245 8.154185020434216 0 0 0
834 1 -1.2 25.13031950084326 0.17818769022287484 7.00593852855026 0 1 0
1521 1 -1.2 30.15894242272906 28.611523911508026 6.957937575855971 -1 0 0
1 2 2.4 29.2435482464466 27.448711629485512 7.9766038561946555 0 -1 0
1437 1 -1.2 1.0578980005229033 3.418052920173328 10.33950273159495 1 0 0
1519 1 -1.2 30.0623842989387 2.0934211162722183 7.855493669218631 0 0 0
148 2 2.4 0.4260913736674098 3.3493621010614474 8.69504055845268 1 1 0
121 2 2.4 6.839340908961831 1.053378699338829 10.1790377118627 1 0 0
691 1 -1.2 6.051347628851597 1.2409307229933775 8.858464133987267 0 0 0
1014 1 -1.2 7.151179835970144 2.3170961643028782 11.383837477804171 0 0 0
30 1 -1.2 8.522159281184319 0.4658002058589133 9.513754337245963 1 -1 0
1773 1 -1.2 11.077921430392728 1.3330930963343737 9.090419008149876 0 1 1
1100 1 -1.2 15.410343718064198 0.997596235769351 10.121461417487298 0 0 1
817 2 2.4 15.115487720385131 0.47710130639115833 8.692226881207972 0 1 0
930 1 -1.2 19.24124180771075 1.7094328418919134 8.667162962980589 1 0 0
1996 2 2.4 19.6757489267769 1.5711393967253922 10.162121542817342 0 1 1
418 1 -1.2 21.056020239457464 0.9355592389262933 10.857940645784312 0 1 0
2021 1 -1.2 22.237303079486438 2.6645999262790125 12.016403054755244 0 1 1
979 1 -1.2 26.95026317577452 -0.04723442815323982 8.895633409865532 0 1 1
769 2 2.4 27.329358161190143 0.057592241681019105 10.521471562129847 0 1 0
1363 1 -1.2 25.840868110655375 30.209600817360677 11.420375840085896 0 -1 0
1351 1 -1.2 28.034828607457648 1.4193096272783836 11.560575970901795 -1 0 0
792 1 -1.2 16.49251584259229 3.6944261279517923 11.270088643463778 0 0 0
1624 2 2.4 18.107081893092378 3.862629459562376 10.722827670931458 0 0 1
945 1 -1.2 22.95335022359496 6.614356259601716 6.708746401649495 -1 -1 0
395 1 -1.2 19.140571437852213 2.492662482570496 11.15965601584867 0 2 0
247 1 -1.2 22.83777770531319 3.3267364078730752 9.29904702196211 -1 1 0
352 2 2.4 23.24369929669249 3.5020832812104925 11.002625672869176 0 1 0
1331 1 -1.2 23.661848025379296 4.8654730614494 11.689577446535685 -1 0 0
1368 1 -1.2 2.946656431537214 6.3142237667105405 10.640549769872715 1 0 1
261 1 -1.2 4.0907893028310784 5.386041700494132 8.83817884236761 1 2 0
592 2 2.4 4.204893690185472 6.77953707294713 9.737202533483964 0 1 0
1042 1 -1.2 6.031152082085199 6.410659630977141 10.139692562161473 0 1 0
1241 1 -1.2 7.839689904273872 8.996200987507716 8.89370876855859 0 1 1
828 1 -1.2 10.767253971663157 6.000835575140308 10.302145105963508 -1 1 0
1830 1 -1.2 12.68819626906361 6.404890159913824 8.947974428999943 1 0 0
675 2 2.4 12.002615744679034 7.146760570224969 10.135814364955426 0 0 0
1127 1 -1.2 13.37495197985692 7.731673067531923 10.898833091184402 0 0 0
1575 2 2.4 14.21691863593565 6.931476841459347 8.702619418438905 0 0 1
90 1 -1.2 15.391893534755626 6.159570839875071 9.806653115107812 0 0 0
28 2 2.4 14.596876916308789 6.616253689690399 11.417000833912443 0 0 0
1952 1 -1.2 17.778274603838433 4.236922186937245 9.023718839269684 0 1 1
434 2 2.4 18.597556239868744 5.661747782677753 8.610170890339907 0 0 0
462 1 -1.2 18.706840376165633 6.951291297555114 9.538487458038093 0 0 0
564 1 -1.2 21.66760404735454 7.5672849123771995 9.068207308203588 0 0 0
319 1 -1.2 22.957232238215788 7.462478093668768 11.69448695992943 0 1 0
639 2 2.4 24.024524839389343 6.482792836445074 12.334520228576167 0 0 0
551 1 -1.2 25.912764948898097 6.247199191817533 11.602391468894519 -1 0 0
305 1 -1.2 0.9496984472544413 7.401457180306926 10.130170875798495 0 0 -1
761 1 -1.2 3.9078140647973965 8.28326621819594 9.383396957322823 0 0 0
1343 1 -1.2 3.860426323977298 11.06325640824299 9.857666386567924 0 0 1
1279 1 -1.2 8.695211233604198 10.282652078672555 11.326096606959762 1 1 0
728 1 -1.2 10.884236013153952 8.27670284101647 9.854359071548169 0 0 0
278 2 2.4 9.125766411149135 8.816518351307325 10.337570861481765 1 0 0
1978 1 -1.2 14.642740860885262 8.299825762521934 8.187651970475885 0 0 1
884 1 -1.2 15.257392151954972 10.243598557357284 9.968519722590562 0 0 0
1514 2 2.4 15.170602612335621 9.751141146962423 8.398860013795897 -1 1 0
949 2 2.4 22.14000633994431 8.355297684053838 10.398928652204416 0 0 0
1076 1 -1.2 23.35450785758146 9.234115659753883 9.558695436535356 0 0 0
67 1 -1.2 21.06232651789837 9.362366776490955 11.067443868440396 0 0 0
1794 1 -1.2 28.228832255094513 9.263675971063615 8.82348304137377 0 -1 1
457 2 2.4 28.201375920378965 10.515458893045961 9.926047091145207 0 0 0
1964 1 -1.2 28.406828232415457 10.999930543476573 11.39742966401949 -1 1 1
1781 1 -1.2 1.5189522295804148 10.910357344994262 8.9734874488992 1 0 0
1442 2 2.4 2.3121370265057486 11.229455878577728 10.332406599071676 0 0 0
1053 1 -1.2 2.0245424390939983 13.505961599200953 10.47075915602406 0 0 0
1261 2 2.4 8.001762327983728 11.932435776376536 11.657517991677699 0 1 0
729 1 -1.2 8.180885726034944 12.217447017383824 10.010653028814822 0 1 1
887 1 -1.2 13.027976416404762 11.28248336466369 12.158427021407517 -1 -1 0
865 2 2.4 7.236721443521715 13.119161963447574 8.66372475179253 0 -1 0
1051 1 -1.2 11.077004073471047 13.092371521344907 11.20869153560129 0 0 0
649 2 2.4 12.344667821355598 11.978063764114232 10.98435005758836 0 0 0
2079 2 2.4 16.348925787050266 10.825429636817375 10.953914134894537 0 0 0
466 1 -1.2 15.909676540799687 12.777754453179222 9.128623771147973 0 0 0
479 1 -1.2 15.93291730404481 12.295225156161871 11.981103507625628 0 0 0
986 2 2.4 17.483559079302765 12.479322003303787 9.468905374200103 0 0 0
259 1 -1.2 17.728480795016207 10.997762197575522 10.151768580324923 1 0 0
1844 1 -1.2 21.324049589950057 11.222500807502135 9.070829250047407 0 0 0
1861 2 2.4 22.802270627834382 10.819141315467013 9.213918444448144 0 0 0
1523 1 -1.2 23.820522360083398 11.913060492133248 10.007658707443156 0 0 0
1686 1 -1.2 29.47265603267873 10.980415881726719 8.955510444838222 0 1 1
1326 1 -1.2 28.829045282662 16.3913953716206 8.878460872827263 -1 0 1
1342 1 -1.2 1.1552968385185483 15.958510018571115 9.364909430159637 1 0 0
253 2 2.4 29.991119020138772 16.104797887796355 9.93936391141069 0 0 0
1107 2 2.4 2.316941095273203 14.827452852896823 9.929442527426344 0 0 0
2121 1 -1.2 5.732897164246281 16.554208875200292 10.16127712269687 0 1 0
308 1 -1.2 5.96023575493718 13.942459007453738 9.416604519756824 -1 0 0
123 2 2.4 8.629316511020688 15.657694678387706 8.703056755902297 0 0 0
1638 1 -1.2 8.313994474188746 15.914344354144216 10.311519144395174 0 0 1
1027 1 -1.2 12.755162116396725 12.57334314832172 9.47541006233053 0 0 0
1877 1 -1.2 12.883727227255301 16.056353032681823 11.32720662129918 -1 0 1
690 1 -1.2 10.317325486670757 17.477894028175342 11.438877130353342 0 0 0
1995 2 2.4 16.630687850722207 13.736359488141623 11.548509883528913 0 0 0
1749 1 -1.2 18.007661856779087 13.609282155406063 10.734765903789098 -1 0 1
693 1 -1.2 18.903840416895306 16.745079254358068 9.571178001641934 0 0 0
1997 1 -1.2 21.068680644862575 13.674772007280334 9.591238262413512 0 0 1
577 2 2.4 22.122834392398413 14.815834953082119 8.991894330979463 -1 0 0
450 1 -1.2 23.294216948188005 14.891471803248905 10.252272118322615 -1 -1 0
1346 2 2.4 23.6029416075656 13.512435733116536 11.04239591971583 0 0 0
321 1 -1.2 24.72765480618238 14.162925895820292 12.134850290876205 0 0 0
2036 1 -1.2 27.065623195504745 15.235675089071755 11.964910749533354 -1 0 1
415 1 -1.2 27.308185389662626 14.010355819682134 9.347027212042901 0 0 0
2091 2 2.4 27.954263746997867 14.239437181531827 11.16764912137224 -1 1 0
116 1 -1.2 29.244009202909044 14.705742337272518 10.52607515058871 0 -1 0
1327 1 -1.2 30.157873059083432 17.44616561033869 10.970218585233066 -1 -1 0
1461 1 -1.2 4.006588429831622 18.473788407921646 10.649265263804589 0 0 0
1658 2 2.4 4.394266860591465 19.687329021229925 9.710116984021733 0 0 1
2155 1 -1.2 11.63004111486537 15.704028896254687 9.123352578551138 1 1 0
915 2 2.4 12.181431421953643 17.479650173172256 11.522980236328191 0 0 0
1589 1 -1.2 12.984855882900817 18.390061721029173 10.628363119797106 -1 0 0
1852 2 2.4 14.619510653801232 18.83590524888431 10.82805554227163 0 0 1
88 2 2.4 20.790317713392565 17.27442169828712 9.794042889379519 0 0 0
1271 1 -1.2 21.807037492245495 17.552559948859773 10.95116168383507 0 1 0
403 1 -1.2 19.731390270441 18.843306339738984 9.74628455821458 0 0 -1
1150 1 -1.2 25.410202999830513 16.47165222812223 10.08032588254072 0 0 0
1131 2 2.4 25.90741654435671 18.21057800670963 9.908947366171295 0 0 0
895 1 -1.2 0.7308333937777333 20.184025894378195 11.939275801276645 0 -1 1
439 1 -1.2 0.3671477262091038 19.76466038889225 9.420121597549782 0 -1 0
605 1 -1.2 5.578860305551913 20.394102838517835 10.520783915960823 0 1 0
1370 2 2.4 6.725750416110292 21.185195760631593 9.6102734498532 -1 0 0
859 1 -1.2 8.267064154449605 20.373522088416994 9.883398556572496 0 0 0
1161 1 -1.2 10.617439691107311 21.699354057657775 10.267157735307684 0 0 0
69 1 -1.2 15.12752176210219 18.354571176279737 8.993503772341201 0 0 0
1074 1 -1.2 15.41951934414257 23.19095960196449 11.22554642152429 0 0 0
734 2 2.4 16.413454483803726 19.36993787615986 8.588248351303124 0 0 0
725 1 -1.2 17.46935292619395 20.149990176672816 9.863195232500724 0 0 0
267 2 2.4 19.031864361327866 20.31383642720468 10.285537038421463 0 0 0
1445 1 -1.2 19.935651440998015 21.54674566812631 9.577301432951385 -1 0 1
1426 1 -1.2 22.981634242776003 20.517577180456698 8.855869658117026 0 0 0
1663 1 -1.2 24.659100898708928 19.267611940601558 10.6668675172614 -1 0 0
1478 2 2.4 23.389864651805322 20.273248008483414 10.732740368915122 0 0 1
1258 1 -1.2 27.024766144553894 18.732471762753477 11.221643191745267 0 0 0
518 2 2.4 29.977446136838207 20.640922006165116 10.795549865153227 0 -1 0
379 1 -1.2 28.387561083715102 20.55066245039155 11.238829967463436 -1 0 0
170 2 2.4 0.1221654491379603 23.89868319188812 10.896019763799277 0 0 0
476 1 -1.2 0.8607086208573337 24.081967784706066 9.457725540497753 1 -1 0
1987 1 -1.2 7.36042270667406 22.305631095478166 10.624886818899586 0 1 0
1178 2 2.4 11.803310880730233 22.826688931766242 9.713904143577196 0 0 0
502 1 -1.2 11.130729591381158 23.301078031526174 8.351442395832397 0 -1 0
419 1 -1.2 13.503246676675074 22.33150215640265 10.031452129287409 0 0 -1
2008 2 2.4 16.97319095000085 23.675825437412453 11.088326822380786 0 0 1
2119 1 -1.2 17.94958863935649 22.97627736762878 9.895795700700075 0 0 1
1407 2 2.4 18.145689252724985 23.533119566496392 8.101016779820265 0 0 1
320 1 -1.2 19.695945827952507 23.797563272188768 7.9342720824625825 0 0 0
1596 1 -1.2 17.468704889412965 22.49482421991228 12.102446260807762 -1 0 0
219 2 2.4 20.607135041893564 22.727358525657298 8.559325416786688 -1 0 0
1193 1 -1.2 22.062767238833352 23.70536183748869 8.81193633966168 0 0 0
1210 1 -1.2 24.761522361900873 23.85690996802075 9.270393862329025 1 0 0
773 1 -1.2 26.506025846355644 22.483355185601688 11.246025012028328 -1 1 0
880 2 2.4 26.312251110554588 23.3545597982711 9.802665155415335 0 -1 0
2086 1 -1.2 29.80061073113497 22.338426717336525 10.311004438776129 0 0 0
22 1 -1.2 1.1842299837141754 23.46417438124278 11.962102241203004 0 0 0
2084 1 -1.2 7.669111480158332 26.180346777841976 9.553040826404825 0 0 1
448 2 2.4 6.952663059925268 26.523346873685522 10.97959289256374 0 -2 0
655 1 -1.2 5.8925192130330455 27.90024055996216 10.632251708956495 0 -1 0
1774 1 -1.2 11.983913212233995 25.78663085326493 8.228962456707594 1 -2 1
1455 2 2.4 12.754146544225623 27.09175467370395 9.050010994475741 0 0 1
201 1 -1.2 12.538702798213485 27.192188147650956 10.897673885258113 0 0 -1
1567 1 -1.2 14.328272558532852 27.17895288960193 8.652673768749505 0 0 1
1203 2 2.4 23.14573006195528 24.71232446469551 9.473540756776096 0 0 0
1196 1 -1.2 22.703574274598555 26.142282541091785 8.87125991190368 0 0 0
443 1 -1.2 22.940636743209712 25.494490687522298 11.09144393964195 -1 -1 0
947 1 -1.2 26.888219366170052 25.07851957203038 10.382728035589698 -1 -1 1
1345 2 2.4 27.910880668379004 25.542668781299835 11.61633115092301 0 -1 0
381 1 -1.2 29.560038739433608 25.074211629735395 11.399503527634911 0 0 0
1236 1 -1.2 5.903954337296481 0.04808415694230558 11.16491655343664 0 1 0
635 1 -1.2 11.77868554157892 28.30483898213103 8.47948881806565 0 0 0
4 2 2.4 15.464422653973944 28.526485480286297 7.650053903310879 0 -1 0
143 1 -1.2 18.381309362148045 0.06447188850109487 10.438338145690857 0 2 0
2048 1 -1.2 18.045326961744596 27.53969119262831 10.261875545544834 0 0 1
1792 2 2.4 19.050591913365686 29.11471748164558 10.823086937953821 0 -1 1
1893 1 -1.2 20.41798144657986 28.51876053894477 9.81483183401746 0 -1 1
1823 1 -1.2 23.081509917090624 0.3226764363170257 11.97934575441035 0 0 0
1097 1 -1.2 28.327630701331127 29.604487347489012 11.246562930478749 -1 0 0
767 1 -1.2 28.965198263206375 27.914695122885743 9.53034925681258 -1 1 0
1887 2 2.4 29.27918211898677 28.325971660828547 10.999371036043136 -1 0 1
205 2 2.4 1.2240055265951075 2.797876463071502 11.882575214334121 1 0 0
173 1 -1.2 1.294242892953716 1.3985192930144215 12.321421440154017 0 2 0
780 1 -1.2 2.32125662396335 3.908573785343263 12.367848484478282 2 1 0
334 1 -1.2 9.207037942438093 2.1845894278615594 12.744819400761777 1 1 0
1501 2 2.4 9.711642322046568 1.6151197757120512 14.162717947705621 1 0 0
135 2 2.4 7.958872192679116 3.092406168671303 12.412955147407514 1 0 0
584 1 -1.2 10.962565646974436 2.238702567019001 15.019544460372739 0 0 0
760 2 2.4 15.754426005087488 1.3312827732190953 14.168584755806755 0 0 0
723 2 2.4 15.309671631372984 2.3381350449572156 11.215486383890955 -1 1 0
1727 1 -1.2 14.867617888106016 1.395750906920549 12.811424610442778 0 1 0
1821 1 -1.2 20.904657583151845 1.4396106716882269 13.637072676759573 -1 0 1
1276 2 2.4 21.712919371145738 1.1350643118356738 12.133388330214325 1 1 0
2114 2 2.4 20.960679462866775 2.656402939180926 14.509687308020938 0 1 0
1780 2 2.4 24.7616975704164 0.6985426888798116 12.202469488461173 0 0 0
984 1 -1.2 24.813606680130597 2.611957758058572 11.650519152329807 1 0 0
2117 1 -1.2 24.8243888360299 1.106797714495904 13.74125160135136 0 1 0
1316 1 -1.2 27.113366262350247 2.6210336380785106 14.19573431084275 -1 0 0
398 2 2.4 26.15331774566511 1.5604292645662359 14.922461003216478 -1 2 0
933 1 -1.2 29.643211186344352 2.016177684320347 13.571314114684153 0 0 0
1635 2 2.4 0.43166586624120346 1.137666563780482 14.149331509814747 1 1 0
1751 1 -1.2 2.73097124205517 5.99488546798212 13.677043326715891 0 0 0
556 2 2.4 1.847982316238088 5.707348431626288 15.076121006747911 1 0 0
1941 1 -1.2 7.134499888812901 3.8357152456205674 13.544464696580098 1 0 1
1717 2 2.4 6.1944155062389274 5.034730920097501 13.68207340565973 1 1 0
1532 1 -1.2 9.213785405123264 4.692634151382241 11.501345651166202 0 2 0
709 2 2.4 10.448653651029254 5.505634948606359 11.955198118847642 1 0 0
488 1 -1.2 11.60631143284277 4.225985149805125 12.458286557207398 1 0 1
2138 2 2.4 13.32634548644546 4.074713586083049 12.567198260440692 0 1 1
946 1 -1.2 14.017464852954156 3.1370521954257713 11.384361940696714 0 1 0
490 1 -1.2 13.88188766837465 3.977928345431795 14.039892488169224 0 0 0
355 1 -1.2 18.586590868166233 5.17948403511532 11.553786685274773 0 1 -1
1841 1 -1.2 20.529953932491 3.9204631107746386 13.562842573847634 0 0 0
591 2 2.4 19.902482674781236 5.3042776348970015 12.841127950093762 0 1 0
763 1 -1.2 27.84831380257484 4.048437852462541 12.097177111665474 0 0 0
579 2 2.4 28.039008300465866 2.669470477024396 12.964191199710893 -1 0 0
1933 2 2.4 1.7842085090413982 7.035059250243468 11.370269616956088 1 0 0
550 1 -1.2 0.3629164543817721 6.788542024262341 12.734799762409487 1 0 0
2022 1 -1.2 7.059646376831686 6.726776586865802 13.141223724338799 0 0 1
1807 1 -1.2 8.26844924745927 7.562328755698878 11.103085483393977 0 0 1
892 2 2.4 6.779983367910127 6.9368769905013 11.447918900879179 0 1 0
167 1 -1.2 10.456374925393176 6.990709533895108 13.268471646228148 -1 0 0
33 1 -1.2 13.536655463907534 5.702425141632553 12.150026201842483 0 0 0
527 1 -1.2 17.11231709378626 8.246864132619983 13.965457433205188 0 0 -1
376 2 2.4 18.613473977573342 7.648189631936018 14.147205429184368 0 1 0
1164 1 -1.2 19.07664859769643 6.20866428892179 13.991540242580747 -1 0 -1
1462 1 -1.2 23.986933906143697 6.36944848518139 13.943161949803649 0 1 0
1226 2 2.4 26.789384412859842 5.279785810294292 12.482594569342227 -1 2 0
277 2 2.4 25.14972954834839 5.6109293091670835 14.969878710724874 0 1 0
2144 1 -1.2 26.255702549106967 4.958685632937263 14.033236394660367 0 1 0
1451 1 -1.2 28.39352958703203 6.091932267774226 12.940405729621864 -1 0 0
699 2 2.4 29.564746215799808 7.300003949880239 13.321094195067296 -1 1 0
1003 1 -1.2 28.572477174996443 7.63670624476896 15.579038059387186 1 0 0
2015 1 -1.2 2.579235226702385 10.596887022909831 14.534556465824583 1 1 0
1167 2 2.4 2.4089463774008553 9.607539634146391 12.894526449451584 0 1 0
851 1 -1.2 4.317437454098696 9.71808936177303 12.82042868625176 0 1 0
1572 1 -1.2 2.0460528628245394 8.16237519506091 12.377987766622747 0 0 1
619 1 -1.2 11.461801857972553 9.631114960176632 13.624360324664671 1 0 0
408 1 -1.2 15.197635230430242 7.585890708686241 12.406824496144031 0 1 0
1393 2 2.4 15.96367791323351 8.81130361940808 13.077934087948453 0 0 1
71 1 -1.2 16.502683652845963 9.969795667730414 12.260369945896876 0 0 -1
1699 1 -1.2 19.234792377681792 8.532137492348832 12.848883200048133 0 1 0
2044 2 2.4 20.517575796700843 9.550792227180603 12.622822572015165 0 1 1
1793 1 -1.2 21.943009532310796 9.391108936051591 13.505084055515201 1 0 0
19 1 -1.2 25.19219432999534 8.286665948589988 12.670720823498725 0 0 -1
911 1 -1.2 28.662594939985084 8.690715983103797 13.28984485580336 -1 0 0
1285 2 2.4 0.527932017358727 12.999929922369612 14.328333515922413 1 0 0
1412 1 -1.2 1.646734809306116 10.682895881620738 11.876345319196286 1 0 0
1538 2 2.4 5.958689207108459 10.193918516910573 12.667278302020888 0 0 0
1301 1 -1.2 6.220608727828609 9.333063016592938 11.039368019195003 0 -1 1
2146 1 -1.2 6.458725702887194 11.872613999081983 12.565255320541436 1 0 0
816 1 -1.2 8.75554445557807 12.999512071842346 12.65892603437887 0 0 0
159 2 2.4 10.240419648421442 13.637496584714254 12.517647850734955 0 0 0
943 1 -1.2 10.738422583635097 12.417593879779938 13.939400044860491 -1 0 0
222 1 -1.2 10.112383812459534 15.169718530184213 12.435803589132998 0 0 0
154 1 -1.2 20.513486390432252 11.208570909687396 12.714646161334183 -1 0 -1
218 2 2.4 21.669173489148207 12.377000956143998 13.220985322388342 -1 0 0
2016 1 -1.2 20.939154461066316 13.724478991449988 13.622531255584182 0 0 0
499 1 -1.2 22.513805081838502 12.651247682772166 11.799520544939517 -1 -1 0
1775 1 -1.2 22.67158279464322 11.720097001950515 14.363813422142181 0 0 0
1293 1 -1.2 30.23558228934578 12.158223526732371 12.969054503649932 0 0 0
1489 2 2.4 28.57385203794516 11.692631252947741 12.774387513084088 0 0 0
942 1 -1.2 28.073187795098253 10.937578629377068 14.116514577936758 -1 0 1
2158 1 -1.2 27.73804219951372 13.072589271063096 12.487284002995557 -1 1 0
263 1 -1.2 0.3878331439462478 14.549873820413605 14.502783523439414 0 0 0
1124 1 -1.2 8.18712180915853 16.470206743910456 13.13545827418116 0 1 0
340 2 2.4 9.3486531234274 16.33356773785873 11.611829681249073 1 1 0
1209 1 -1.2 14.724381470670677 14.658892904999108 11.43921179567891 0 1 0
461 1 -1.2 13.663819158415071 15.886588330938956 13.766324854509225 -1 -1 0
1481 1 -1.2 17.2727508282539 14.68309403051145 12.900046370457 0 0 1
1829 1 -1.2 19.282757322215605 16.59831950857783 12.87203030777091 0 -1 0
51 2 2.4 19.873986880583402 15.052685372467355 13.930612814491326 0 0 0
829 2 2.4 25.355761403002568 15.763623258413952 11.714625893861935 -1 0 0
548 1 -1.2 24.884155460994243 16.47025691601985 13.302305788768027 0 0 0
1533 1 -1.2 0.34884283802200694 16.92410568623023 13.678820466855058 0 0 0
565 2 2.4 4.946461439962862 17.304003999093553 11.27494901049883 1 0 0
306 1 -1.2 4.520242873341003 16.1989287434546 12.387329813251135 0 0 0
350 2 2.4 3.734308567168932 16.62218029257928 13.677380297854151 1 0 0
535 1 -1.2 3.8218627647835914 18.019713378007747 14.194142559918943 1 0 0
65 1 -1.2 5.887086060643796 18.631292458120186 12.10525562685444 1 -1 -1
966 1 -1.2 6.564774241377318 17.6873102653679 15.063334000754313 1 0 0
2066 2 2.4 5.432005864903497 18.76269362967315 14.038608898437815 1 0 1
1876 2 2.4 8.486844956291625 17.44369506738854 14.466970757117785 0 0 1
107 1 -1.2 9.5476858691054 18.395221166443033 13.78682016322932 -1 0 -1
1664 1 -1.2 10.843907619349444 20.058242579948278 12.589972511172121 -1 0 0
1691 1 -1.2 11.861006448124595 17.78367860470944 13.163489913643462 0 1 0
1093 2 2.4 11.256430931864488 18.9682602802274 13.829933182451846 0 1 0
1413 1 -1.2 14.915358348455811 17.300113639206952 11.724804406005711 0 0 0
687 2 2.4 14.222446775707096 16.02345808658415 12.142310286590114 0 0 0
103 1 -1.2 20.43249086340911 18.812841891630786 13.6641684938652 0 0 -1
1645 2 2.4 21.712589746462267 18.666252421765364 12.529234282320544 0 0 1
1548 1 -1.2 23.209253509037424 18.33312440158505 12.878123713753634 0 -1 0
109 2 2.4 24.446981649019072 17.771861076312018 14.058283217965112 0 0 0
272 1 -1.2 25.781521402524007 18.60505296017745 14.381957774230607 -1 0 -1
1731 2 2.4 0.23655790072650296 18.184476280241977 12.530884218220324 0 0 0
283 1 -1.2 28.92514324591888 18.491487385352766 12.97872489676696 0 0 -1
388 2 2.4 1.4332944809592296 20.550650298498898 13.346122390501149 0 1 0
489 1 -1.2 0.7884171673574224 19.291675262156524 14.053465276276151 1 0 0
1678 1 -1.2 2.876337400721332 21.01607109229841 13.146825290574178 0 0 0
733 2 2.4 4.47995513948347 21.73356904408869 13.90370931420108 0 0 0
978 1 -1.2 5.242991071631415 20.488954736912415 14.321714832331232 0 -1 0
1119 2 2.4 8.252768021539811 23.0277698175463 11.72833812180578 0 0 0
386 2 2.4 10.620803123740622 21.383983391040598 11.966325581871809 -1 1 0
1223 1 -1.2 9.055899696586653 21.60841346700348 12.367708141363499 1 0 0
498 1 -1.2 11.338081883484858 22.66809689143693 12.781586886667297 1 0 0
1684 2 2.4 14.671951254100728 21.94932363934846 11.548856301934958 0 0 0
1980 1 -1.2 15.360231402619084 20.198041220742425 11.428554056460289 0 0 1
1932 1 -1.2 17.605013097916213 20.666095038718396 14.437562485320903 1 -1 1
2141 1 -1.2 19.040098120705807 20.34711338280762 12.00564785935044 -1 0 0
436 2 2.4 18.39906915472872 21.538639369938704 13.080357389835099 -1 -1 0
1031 1 -1.2 19.38312488381639 23.25318254351506 13.920517495054824 0 0 0
929 1 -1.2 21.825566664674437 20.102315455898875 11.596101482162393 -1 -1 0
1783 1 -1.2 24.05633539866418 21.69542534851939 11.054292216328744 0 -1 0
435 2 2.4 25.055007658227005 22.520898550297463 11.844713687100926 -1 0 0
433 2 2.4 25.673113609410432 20.511275252346806 14.172574830610325 0 -1 0
1483 1 -1.2 25.118965948507395 21.59586631777974 13.170414887622092 -1 0 0
162 1 -1.2 27.401625642672503 20.564064774248447 13.989149011720851 -1 -1 0
1035 2 2.4 27.792093240085002 19.668684294322706 12.557736595279282 -1 0 0
1037 1 -1.2 2.396338960632516 24.08531750562208 14.27533856027094 0 0 1
883 1 -1.2 5.047400627336074 22.964069386433568 12.99525591668147 0 -1 0
298 1 -1.2 7.4526347281186265 23.524857082089042 13.012896769900856 0 0 0
310 1 -1.2 6.081098723712158 25.28474542338117 11.567035796545955 0 0 0
1756 2 2.4 6.158993005614248 24.20150600159758 12.833776932809029 0 0 1
169 2 2.4 10.90318272811834 24.14921738649496 11.853543099299237 0 0 0
166 1 -1.2 11.93450452715579 24.323596726628136 10.503194931292242 0 -1 0
2118 1 -1.2 11.235876034752515 24.83683612057239 13.287665400694815 0 0 0
608 1 -1.2 14.725402125180707 21.895695454117117 13.196377395883088 -1 0 1
2072 1 -1.2 16.69097932586296 25.282723709033874 11.026237864544775 0 0 1
1486 1 -1.2 21.721946487925187 24.601051902257097 13.194142302358838 0 0 0
2083 1 -1.2 24.371141017810793 23.925174432257577 12.158390840777558 0 0 1
1312 2 2.4 23.256346555082498 25.0189218767259 12.633911861448885 0 -1 0
331 1 -1.2 -0.0031215055344279326 24.532549987272063 14.052063809964263 1 1 0
904 2 2.4 28.82536473429473 24.65198404404631 14.484599123326321 0 0 0
1689 1 -1.2 27.602915673240624 24.73233681203295 13.285934681748365 -1 1 0
1240 2 2.4 1.005561569867083 23.316685803299855 13.57139953554747 0 0 0
607 1 -1.2 3.017925135063571 26.011838537096892 13.29815215808071 0 -1 0
1536 1 -1.2 8.01873953304236 27.222227904776794 12.181813576235015 0 0 0
1417 2 2.4 7.827818367582973 28.274868315672165 13.496165690719314 1 -1 0
1927 1 -1.2 13.335710102122764 26.468226417512057 13.662029492278023 0 -1 0
555 2 2.4 13.025200897732487 27.549081362854306 12.49085807247701 0 0 0
1675 1 -1.2 16.713922233477923 27.22581890994069 12.4538590391643 0 0 1
111 2 2.4 18.115113585480362 26.82321995430333 11.761162488684555 0 0 0
918 1 -1.2 19.310927193200442 26.66470524960238 12.70227082153148 1 0 0
1332 1 -1.2 23.67619575938295 26.563942920903052 13.648872723498574 -1 -1 0
585 1 -1.2 28.5608404566841 27.2168138068487 11.908714627642748 -1 -1 0
700 2 2.4 0.4031848791232168 28.6908510705321 12.974940545134125 1 0 0
368 1 -1.2 1.6863324661107701 27.589906737437627 13.228645668460562 -1 0 0
771 2 2.4 3.3290463494505533 27.67542554136218 13.429571912442345 1 0 0
1352 1 -1.2 4.148006584482386 28.486943382800458 12.396612201890886 0 -1 0
1414 1 -1.2 6.407692988107224 28.98147365678283 13.22869956700097 1 -1 0
2089 2 2.4 5.788580218385158 29.140300254159722 11.753178135078452 0 0 1
801 1 -1.2 11.651077237961166 28.599740283823895 12.440512865626243 0 0 0
2110 1 -1.2 14.257444253834196 28.680048497595138 12.321892706710438 0 1 1
2095 1 -1.2 16.19118062280923 30.078810864367536 13.387100733547475 0 0 0
2065 2 2.4 15.607147762305553 28.429382822592387 12.949501961720577 0 0 1
363 2 2.4 19.23116295530581 28.193643731296238 13.698330040403706 0 0 0
1530 1 -1.2 19.603844598302793 29.106068639847553 12.409187661104129 -1 0 0
1159 1 -1.2 20.377148145196763 28.76748545938942 14.67965768257587 -1 -1 0
569 1 -1.2 26.59695724455411 0.24393268733221912 15.583586370733329 0 0 0
1820 1 -1.2 25.206121316956143 28.699780741922158 14.582678996603342 -1 -1 1
1307 1 -1.2 0.39103845360523953 28.855127212502477 11.246356159741524 0 -1 1
1977 1 -1.2 0.26163828106288495 29.957710775375805 14.135730596546958 1 -1 0
84 1 -1.2 27.642193408596466 28.673400821350477 16.233156831696764 -1 -1 0
909 1 -1.2 1.9526357867030915 1.8676029803794039 15.063236272433642 0 0 0
631 1 -1.2 4.04478973505838 3.248123247961368 14.491148602812578 0 0 0
3 2 2.4 3.4424345440035244 4.571823970767077 13.516682964640566 0 0 0
1875 2 2.4 3.0094819889229445 3.1316779025606585 15.474524825474594 0 0 0
264 1 -1.2 5.304329019820928 29.185406893561186 16.135427943681194 0 0 -1
532 2 2.4 5.978738242242302 29.462187839210486 17.588968792857774 0 -1 0
1499 1 -1.2 8.251764689279234 1.5601309607498968 14.975219873621086 0 1 0
686 2 2.4 7.787541083789358 1.614278138331563 16.573287922172508 0 1 -1
788 1 -1.2 9.289497888787325 1.900589548476967 17.038995528617207 1 0 0
1320 1 -1.2 10.767011464703995 0.11156014865117633 16.66824747933394 0 0 0
1041 1 -1.2 12.093518920157667 2.3836295707353843 17.479291161520173 0 0 0
940 2 2.4 10.927968514972646 1.8292155438920583 16.59980010551958 0 0 0
1347 2 2.4 13.91229676874593 2.490446289969153 17.021767719539476 0 0 0
330 1 -1.2 14.418719201543876 1.4693244188130417 15.16142588794761 0 0 0
1290 1 -1.2 17.117051301532634 2.16527974220213 14.235629788005191 0 0 0
469 2 2.4 18.101100295079966 2.5034289698511194 15.56910708596699 0 0 0
511 1 -1.2 17.894795828067938 1.1558464577010308 16.264347045192217 0 0 0
606 1 -1.2 19.757647562150886 2.563476441650897 15.508685939753347 0 0 0
1423 1 -1.2 22.30963327321342 3.3468664669118176 15.267205908450416 0 0 0
2130 1 -1.2 25.020826166478862 2.0507783044357124 16.128838452352536 0 1 1
850 1 -1.2 29.51065803789515 1.5326780881852076 16.178306670040037 0 1 0
1550 2 2.4 29.722207016218285 1.1392362901343625 17.735243851452953 0 0 0
1314 1 -1.2 2.5699449841118267 6.995231137174796 15.891509612620455 0 0 0
1508 1 -1.2 0.18616176791103634 5.631612855299605 15.104570693610802 0 0 1
864 1 -1.2 2.233456045762522 4.399861063351682 16.001590509405382 1 1 0
1364 1 -1.2 4.878873513675313 4.695306877804871 12.369565969293955 1 0 1
740 1 -1.2 5.729330478032578 5.466644538683204 15.270194251514658 0 0 -1
1868 1 -1.2 7.03889856255158 3.0821516389922574 16.869254491378932 1 0 1
1669 2 2.4 14.611153374461566 4.710952585888775 15.453468315875858 0 0 0
1603 1 -1.2 14.013818316268782 4.033870707795032 16.837696373698115 0 1 0
467 1 -1.2 13.504384604302947 5.801032780549097 15.259582326252547 0 0 -1
941 1 -1.2 18.299763051580076 4.250114487496538 15.607926125504976 0 0 0
1000 2 2.4 23.762684483386487 3.1865035363953536 16.413082841394477 0 0 0
1974 1 -1.2 22.98553277101667 2.934247052437614 17.74220993638727 0 0 1
1640 1 -1.2 24.787864792554778 4.837212751580125 16.60174642709131 0 1 1
447 2 2.4 29.487918534562795 6.606313949757349 16.083923113678527 -1 0 0
2017 2 2.4 1.783289223995689 7.9819486456213005 17.128861227436897 0 1 0
2108 1 -1.2 0.2745601859375267 7.77384735314648 16.502184870634412 0 1 1
6 1 -1.2 2.2657641908050135 7.217799892199567 18.579227158933897 -1 0 -1
224 1 -1.2 2.7190177561177635 9.202876891482946 17.079815566547417 -1 0 -1
1353 1 -1.2 5.768759349915332 7.692518900165827 16.10978627646778 0 0 0
482 2 2.4 5.6621792997702 6.186893370225247 16.636946670577863 0 0 0
130 1 -1.2 9.666310672292164 8.474790653558191 15.269556523117588 0 0 0
2103 2 2.4 10.90009671320244 8.293802042034217 14.210077579103903 0 0 0
1325 1 -1.2 12.010428214172519 7.601037885863325 15.530874518322273 0 0 -1
1582 1 -1.2 16.049424888105484 5.567373862273471 15.570789025336964 0 1 0
1600 2 2.4 13.365183509440216 7.075737917492721 16.426074637899713 -1 1 0
2098 1 -1.2 14.36979944125841 8.171188685583267 16.000466658618084 -1 1 0
1071 2 2.4 17.274690865372495 5.264211031810931 16.570061731293524 0 0 0
1474 1 -1.2 18.21061874645649 6.6373310884686205 16.990874929946287 -1 0 0
717 1 -1.2 25.748942725201797 7.2868193215306505 15.531792385427797 0 1 0
1099 1 -1.2 28.73266197217721 6.012261901474209 17.336948142970115 -1 0 0
961 2 2.4 3.2581954379698503 10.461178619753232 15.973182559059971 0 -1 0
1554 1 -1.2 6.518935474726032 9.471851858987293 14.082484199413042 1 0 0
1106 2 2.4 6.3763728169232285 9.37150993594729 15.632960392906774 0 0 -1
236 1 -1.2 7.518150048540144 10.233187289452687 16.495932354157166 0 0 0
86 2 2.4 9.093754128007904 9.754484857895685 16.272328475172134 0 0 0
1847 1 -1.2 10.253637553200994 10.71786284379291 15.858045403094522 0 0 0
808 2 2.4 11.493570250295988 11.059276857683756 14.63676853658781 0 0 0
1836 1 -1.2 13.074559467861835 11.005071870736211 15.186479634392603 0 0 0
1498 1 -1.2 15.002749015618981 9.746991388242732 13.810124959912264 0 0 0
1515 2 2.4 14.177113446657357 9.87349142039612 15.166402704330112 -1 0 0
281 1 -1.2 15.135717140065143 10.593769882450962 16.407049712095873 1 0 0
1341 1 -1.2 18.932245601740437 8.289105630252983 15.548176240724684 0 0 0
1441 2 2.4 19.26315850621828 7.780685480268261 17.172246407031363 0 0 0
1983 2 2.4 22.757067951074458 10.07357068313106 14.662104307932545 0 1 1
944 1 -1.2 23.75393024714249 9.06578779251287 15.209057030667443 -1 0 1
1835 1 -1.2 26.20096199122591 9.659100322929627 15.327637414710825 0 0 0
196 2 2.4 25.11173024386752 8.528775734184661 14.491389696721576 0 0 -1
62 2 2.4 27.810418046988463 9.396184519184013 14.898364815995192 0 -1 -1
288 1 -1.2 29.063292408928522 10.024004897616374 15.656248856535639 0 0 0
1716 1 -1.2 2.0495208567822116 12.925923586217026 15.19669954498665 1 1 0
770 2 2.4 2.9284219661300535 12.857533093515235 16.637902153600095 0 0 0
473 1 -1.2 2.851556074687628 11.450483174057934 17.384570878101087 1 0 0
938 2 2.4 16.348252914366903 11.889690670571794 16.538005943007164 0 0 0
2059 1 -1.2 16.78440417784896 12.550375586210194 14.93659927509763 0 0 0
429 1 -1.2 15.15945479444965 13.002209129172416 16.874214863263614 0 1 0
648 1 -1.2 18.91238415372961 14.835206367407718 14.963125298118975 0 -1 0
1128 1 -1.2 21.773978711312452 10.25308471455513 16.17639276506457 0 0 0
5 1 -1.2 29.85740004895101 12.603094680238227 15.588360477072298 -1 -1 -1
520 2 2.4 29.194138223045474 11.616765285085487 16.567314608906166 -1 0 0
460 2 2.4 1.222142934214204 16.032441380324695 14.669073205275385 0 -1 0
1113 1 -1.2 1.2219103429474483 16.445619454126348 16.46569596541007 0 0 0
1951 1 -1.2 2.030156439384461 13.868195566604307 17.493674040283036 0 1 1
935 1 -1.2 4.381874996491851 13.488026399057519 16.19721665391305 0 -1 0
1052 1 -1.2 4.749773160592444 15.79884770178642 15.063755238759748 1 0 0
483 2 2.4 4.842978204908354 15.245168605435493 16.587434872016107 0 0 0
1882 1 -1.2 6.148393361532402 15.504719965680106 17.42331306812582 0 0 0
614 2 2.4 9.678178210588364 16.363915450185033 17.46672704242937 0 0 0
571 1 -1.2 8.880272636892997 16.99468089341277 16.152097832347174 1 0 0
1277 1 -1.2 11.278195155833945 16.244392153809848 16.792082183361682 1 1 0
1477 2 2.4 12.719085918989618 16.231507666996542 17.898042290446483 0 0 0
756 1 -1.2 13.613541535679046 15.596374245483984 16.582710541255572 0 1 0
458 2 2.4 14.405750890214138 15.999734327045637 15.15281883659722 0 -1 0
1721 1 -1.2 15.644242852037646 15.03386562761838 15.070509541689017 1 1 0
1334 2 2.4 17.066438576747903 14.179095086400112 14.602294623226102 0 0 0
1188 1 -1.2 20.88437561717734 16.31261676476352 14.738757537786293 0 0 0
1601 1 -1.2 27.629657427395923 14.887736573031054 17.610457240886184 -1 0 0
1733 1 -1.2 2.4849719031976782 15.773778325488626 14.003799984083788 0 0 0
1529 1 -1.2 3.0168202983126444 18.049589738008034 17.636706849193015 0 0 1
2006 2 2.4 1.4553999840141092 17.68465935515524 17.615367834754732 1 0 0
1931 1 -1.2 9.733126949238624 17.225856406577105 18.59533205506938 1 -1 0
969 1 -1.2 11.939958834674488 19.739930520080666 15.086355598391654 0 -1 0
1324 2 2.4 14.735995188591977 18.194187496506164 16.78620085831381 0 -1 0
1470 1 -1.2 14.322259616784585 17.727365642570124 15.396559452797602 0 0 1
710 2 2.4 19.79578036104913 17.378198169538496 14.450405574945178 0 0 -1
814 1 -1.2 18.90489734752514 17.97022223416993 15.665261323222172 0 0 0
1840 2 2.4 19.65467839293551 18.27028324619992 17.229303991916108 0 -1 0
1217 1 -1.2 21.40088945098894 18.084357588117914 16.89039501486705 0 0 0
896 1 -1.2 19.005121647886263 19.544068454376667 18.05207929245259 0 -1 0
1629 1 -1.2 23.62133465036445 17.40404044783288 15.383218586490697 0 0 1
472 2 2.4 23.094310073462527 18.1576354502459 16.80711088648663 0 -1 -1
1064 1 -1.2 27.713184614785078 17.495205172102462 16.852914126208834 0 0 0
628 2 2.4 28.64862639355102 18.866782982066457 17.138559819891515 0 0 0
1895 1 -1.2 0.7247644652571398 21.903958983447126 14.05125586367569 0 1 1
2013 1 -1.2 3.292002446462404 20.46598114345206 17.019012914852045 1 0 1
758 2 2.4 3.750334976113981 21.937766242959032 17.10938800402636 1 0 0
888 1 -1.2 5.670480089348086 19.244878683872464 17.686195306062302 -1 -1 0
1670 2 2.4 4.053831175428428 19.36196180870818 17.916229471584167 0 0 0
1761 1 -1.2 9.294589357077706 24.046674763575783 11.32509214401423 0 -1 1
1467 2 2.4 10.777915073773093 21.39947179551675 17.128098221737343 0 -1 0
1126 1 -1.2 10.149503781912923 19.809418937567646 17.276433245716845 0 0 0
252 1 -1.2 12.492091950841205 21.19847056842908 17.277498223058608 1 0 0
580 2 2.4 13.099774881439188 20.597966266649955 15.830450789458514 0 0 0
24 1 -1.2 13.193686149692276 21.88932184742932 14.64383430160776 0 0 -1
1242 1 -1.2 14.817380194825965 19.930454960089342 16.461438415373074 0 0 0
590 2 2.4 17.174418782528452 21.662737191603266 16.033318891888893 -1 0 0
378 1 -1.2 16.975669411424153 21.14585199353713 17.712067868939187 0 0 -2
1278 1 -1.2 18.403184373112843 22.55662995322007 15.9453265618603 0 0 0
1642 1 -1.2 20.9170262824795 21.200554090792863 15.245722010897577 0 0 0
1994 2 2.4 19.91554534050798 22.545629454182397 15.139283212679981 0 0 1
337 2 2.4 22.531946269390094 21.081717401261773 16.469451592373776 0 0 0
1148 1 -1.2 23.50764894996655 22.040656338632488 15.643145851838414 0 0 0
1375 1 -1.2 25.378907178555227 21.13660420530693 15.644415515597101 -1 -1 0
999 2 2.4 26.066642531683495 22.141203137674996 16.85879183007195 0 0 0
1662 1 -1.2 28.396175139592543 20.345483586734787 16.348052655834632 -1 0 0
1130 2 2.4 28.737777766119905 21.98045955805918 16.790488078585852 -1 0 0
1101 1 -1.2 2.4257687528322402 22.99788383616372 17.273607981087153 0 0 0
654 1 -1.2 4.309010977595257 22.01444834061418 15.477220463739588 0 0 0
998 2 2.4 7.692335784130098 22.827695264407573 16.80351162174608 1 -1 0
357 1 -1.2 6.881833725942342 23.685500296552046 15.82755152965166 1 0 0
704 1 -1.2 9.766316901469027 22.803071471185177 16.392796926775507 0 0 0
1067 1 -1.2 14.371614096394275 24.293948355571565 14.425094880913901 0 -1 0
400 2 2.4 12.78591935965787 24.892786124833663 14.407239567438218 0 0 0
1216 2 2.4 14.474289303084879 22.686932581799084 14.637942957197813 0 -1 0
1764 1 -1.2 15.758005082384514 22.26883062053372 15.616518341744854 0 0 0
906 1 -1.2 20.95763150178439 23.732331022409195 15.841871449162465 0 -1 -1
1695 2 2.4 21.567020816573358 24.986507243073326 14.845334885133681 0 0 0
1389 1 -1.2 27.4050067704404 22.18475962240806 17.67154785194342 0 1 0
1366 1 -1.2 28.833137034167738 23.416882690467435 15.697157293042189 0 -1 0
118 1 -1.2 -0.06669834102672083 21.94895422686474 17.482361438570116 0 0 0
2010 1 -1.2 2.0576878880406664 26.347298307900548 16.408011578223327 1 0 0
64 2 2.4 1.004594875542875 27.663715869472263 16.679884705293656 1 -1 0
1090 1 -1.2 30.12045293304456 28.261362297318062 15.903199753029236 -2 0 0
544 2 2.4 2.8672232818749923 25.445984240575125 14.99034986935045 1 -1 0
402 1 -1.2 4.208726689319489 24.69285288299236 16.028385669135613 1 0 0
158 2 2.4 5.728686642327039 24.914732159304794 15.713417075351506 0 0 0
1954 1 -1.2 5.83736193205104 25.302196204126293 14.114361376455271 0 -1 1
960 1 -1.2 6.0640919211371624 26.355837748649307 16.877548821366137 0 -1 0
486 1 -1.2 9.184052527226278 28.90491811481974 13.62503145575038 0 -1 0
156 1 -1.2 11.860491283512287 24.856440949609965 15.794226990236265 0 -1 0
1029 1 -1.2 13.458907057923344 26.17582426710567 17.40157556403096 0 -1 0
1416 1 -1.2 16.482400742537372 26.620182610540045 16.753812925531502 0 -1 0
1340 1 -1.2 20.85703322839133 26.540292215033205 15.258460592831959 0 -1 1
841 2 2.4 21.458111674145897 27.8545234687719 15.828339206993713 0 0 0
1542 1 -1.2 23.21718041990682 25.164110755245726 15.419869670807339 -1 0 1
1701 1 -1.2 25.267180720686138 26.235792072579557 15.851694843042816 0 0 0
784 2 2.4 24.432046921613722 27.30106601687096 14.891264234503156 0 0 0
1796 1 -1.2 22.924978789160487 28.504990065896063 15.401450837900725 0 -1 1
698 2 2.4 24.33424690677011 25.092570402080106 16.38429484393129 0 0 0
491 1 -1.2 28.82729766025511 26.770608943373635 17.835970400130876 -1 -1 0
102 1 -1.2 28.87095185692017 26.38035415545366 14.851514978725197 0 -1 0
2020 2 2.4 28.74489360786905 27.63128018751662 16.447131764627038 -1 0 1
477 1 -1.2 1.59574662194356 29.162782650832998 17.166871564154803 1 -1 0
1221 1 -1.2 4.022962189352733 27.696471335952264 14.842921274470903 1 -1 0
1881 1 -1.2 7.295268907903669 27.66538354515571 15.004410081808912 0 0 1
531 2 2.4 5.7735085249001274 27.87938436597614 15.498920530757381 1 -1 0
300 1 -1.2 10.67478728932891 0.2973344851017788 13.792006227458833 0 0 0
1480 2 2.4 10.716536249105964 29.25934518274233 13.853179602394373 1 -1 1
647 1 -1.2 10.209185571658765 28.342115127595026 17.038175064099576 1 0 0
1299 2 2.4 11.429122230030737 29.05033428949499 16.38929225379914 0 0 0
1163 1 -1.2 11.341439403617263 28.357247696081853 14.974060788516615 -1 -1 0
1109 1 -1.2 15.0548301575649 28.012071175643815 15.080238605823014 0 0 0
988 2 2.4 16.385438828446237 27.870812750873842 15.681901776129143 1 -1 0
234 1 -1.2 17.900929172331544 28.010017177400716 14.86884252394337 -1 0 0
2082 1 -1.2 20.987264111104626 27.576952765085558 17.39190681947563 1 0 1
890 2 2.4 26.042585826687265 29.059301546312405 16.039126172424176 0 -1 0
53 1 -1.2 25.3580758816916 28.814334051035488 17.392413555468522 0 -1 -1
1619 1 -1.2 1.1278266854379448 0.9592998689335299 18.451305364956912 0 1 0
901 2 2.4 2.47648963986716 1.8812049002745923 18.3075256960495 1 0 0
2039 1 -1.2 3.4956550388568406 1.2306663102526076 19.31843209044302 0 1 0
1179 2 2.4 4.736968746712773 0.8370681483920182 20.21658594837657 0 0 0
1001 1 -1.2 5.206490777328172 -0.045975050332021 18.739768944578834 0 0 0
1025 1 -1.2 7.089834123506142 0.27150009504253886 17.252113296058216 0 1 0
1365 1 -1.2 10.591196958690945 0.047001523550126635 20.560333072588588 0 0 0
914 2 2.4 11.01796770826755 1.7725446715355597 20.667499502564734 1 0 0
762 1 -1.2 12.593717586340551 1.325752269902895 20.826098292680427 1 1 0
119 1 -1.2 14.424759733976998 2.293073166804706 18.50519938809239 0 0 -1
566 2 2.4 13.979892807132483 1.159925764688411 19.610507354775983 0 0 0
1019 1 -1.2 15.123088412211949 0.9301288553639204 20.59167350739282 0 0 0
176 1 -1.2 16.91432191442609 -0.027176666286892123 18.73303774088643 -1 1 0
1791 2 2.4 27.3903615209348 1.5804611778691777 19.449415885865047 0 0 0
836 1 -1.2 26.493723597234744 2.8816918426398686 19.360518050105096 0 1 0
1556 1 -1.2 26.768581278598646 0.4865622393366721 18.65535711632907 -1 0 0
1349 1 -1.2 27.357268123458564 0.4294126635566061 20.793145812134895 -1 0 0
1030 1 -1.2 28.998846079417145 1.5588663190004686 19.210244171083684 -1 1 0
1007 1 -1.2 29.694820372273092 29.930997290561095 18.19884357963666 1 0 0
2045 1 -1.2 0.9634528363818746 5.33647555405295 20.347132768543315 1 0 1
671 1 -1.2 3.274716394297583 2.3427602575868165 17.095325781434518 0 0 -1
597 1 -1.2 3.2158019442671826 4.9124014256684125 19.745820385396886 0 0 -1
1026 1 -1.2 5.685451175538438 2.002860256277296 20.779621906650885 0 0 0
203 1 -1.2 7.125392284900691 3.6043362444335836 19.579935385320134 1 -1 0
1175 1 -1.2 10.757515281260995 3.0543792067927127 19.720159159335445 0 0 0
1142 2 2.4 7.428330847449794 4.148579540165486 18.01236117823679 1 0 0
451 1 -1.2 9.19395950093024 4.37866452469841 18.45154006196878 0 -1 0
1310 2 2.4 9.99087679993559 4.51274674230095 19.83208863637647 0 0 0
1066 1 -1.2 11.477957587215757 5.744582521241297 20.29973854833895 0 0 0
572 1 -1.2 14.164411576429238 4.536787694253214 19.467735880626222 1 0 0
2037 1 -1.2 16.727184840442654 4.487032638037148 18.020579680959735 -1 1 1
747 2 2.4 15.762262544807328 4.383752185727401 19.28479897381633 0 0 0
322 1 -1.2 21.198459593682536 4.825740324487554 19.182883444983204 0 1 -1
858 1 -1.2 21.9014172938453 2.088812189192409 20.15039662390324 0 1 0
268 2 2.4 22.396436172585886 3.491776736967127 19.222888261621275 0 1 0
669 1 -1.2 23.877404683810393 4.147457290616205 19.774435243667657 0 0 0
1004 1 -1.2 26.294683041404493 5.355207388238226 18.77330005361599 0 0 0
1564 2 2.4 25.46289802755336 4.143833545080356 19.398325070162684 0 0 0
2026 1 -1.2 4.570162995233532 6.154164181796432 17.83762426797565 0 0 0
529 2 2.4 3.6299928520090137 6.502347275007332 18.974836266691874 1 0 0
1207 1 -1.2 4.642107782254928 7.220113180469703 20.17681058077632 0 1 -1
774 1 -1.2 6.732549709211612 5.393745239280499 17.517026696751216 1 0 0
1522 1 -1.2 13.01859010459222 6.749014176638375 17.92964185315304 -1 0 0
424 2 2.4 13.091789883757787 5.967764242335354 19.589628919734835 0 0 0
2069 1 -1.2 16.311064319609624 5.845703892782256 19.950974203180273 0 1 0
894 1 -1.2 20.780728975389145 7.1300436547328045 17.458380955782467 0 0 0
601 2 2.4 21.374833420538458 6.507422079105589 18.841394828313216 0 0 -1
777 1 -1.2 20.52134136404984 7.552843429528826 19.73582762119302 0 1 0
1966 1 -1.2 23.16958536042055 6.738352982472393 19.00241448559288 0 1 1
454 1 -1.2 25.598368646306234 8.58000346098941 20.143769850242606 -1 0 0
1198 1 -1.2 27.942864868953407 7.559787696400835 18.98225423634897 0 0 0
1913 1 -1.2 28.79728989922341 5.41113965505329 20.06727872216221 0 0 0
1190 2 2.4 28.01499755683411 6.016828393315357 18.76416543000159 0 -1 0
371 1 -1.2 30.045460744101803 9.627491545735213 19.71558681015095 -1 0 0
621 1 -1.2 4.387578829001297 9.934725842354062 19.246206143678243 1 0 0
1398 1 -1.2 4.986189348910791 10.307792749475675 16.540928999695225 0 0 0
1970 2 2.4 6.009005365121779 10.001642176336626 19.131383354234494 0 0 0
2058 1 -1.2 7.238053990845267 9.06599928894185 19.171741815295356 0 1 0
428 1 -1.2 9.175866031949083 9.62279996450076 18.02984397718795 1 1 0
1597 2 2.4 9.054565822238292 9.382319097375579 19.581345745361872 0 0 0
70 1 -1.2 19.092072300574213 9.05088046068877 18.02704060286744 1 0 0
1493 1 -1.2 22.173344894848896 11.036500527193976 19.113254202613916 0 -1 0
1322 2 2.4 27.356112099303658 8.901770628970793 19.884579724370212 0 0 0
1463 1 -1.2 27.24843949499167 10.587350574048276 19.296716805884902 0 0 0
1227 2 2.4 29.122282884127614 11.020686440917283 19.44170372864298 -1 1 0
754 1 -1.2 29.85793450326639 11.005577701419396 17.822938340833232 -1 1 0
1302 1 -1.2 6.0118033009516925 11.491958194153936 19.12062633857199 0 0 0
1630 1 -1.2 7.63249186535258 13.780564175339576 18.873894456645438 0 0 0
1401 1 -1.2 10.595361067668053 13.28671795739112 19.113641987430412 0 0 0
127 1 -1.2 12.901188099564255 12.602172371242018 18.483409233500737 1 -1 -1
688 2 2.4 11.998317900764144 13.563661848006383 19.343699281267394 0 -1 0
2 2 2.4 14.571783911885104 12.712245381696716 18.267157982146266 -1 0 -1
1494 1 -1.2 14.851286206055185 11.017433359957275 18.78249107896417 0 0 0
1434 1 -1.2 17.629621537525136 11.498234854311143 17.419058070867926 0 0 1
604 2 2.4 18.764536193728215 11.112193921083419 18.279681895559836 0 -1 0
1798 1 -1.2 18.33495719503963 11.611761209400083 19.75064395195212 1 0 1
993 1 -1.2 16.622547657214174 13.845873770088293 21.205182768743896 0 0 0
2064 1 -1.2 20.257343409859246 11.669171845959307 17.41471972406426 0 0 -1
916 2 2.4 21.77540827526644 11.55987985231347 17.411681627976662 0 0 0
1063 1 -1.2 22.528745292706503 12.919871041207681 17.130859983338297 0 0 0
713 1 -1.2 23.88629868043644 13.135449489369186 19.363157960082756 0 -1 0
805 2 2.4 23.77223543902347 13.651988369819776 17.870603424182097 0 1 0
318 1 -1.2 25.203110271794806 13.411211134583608 17.34203735732658 0 0 0
1789 2 2.4 26.798109155121338 13.385518524977726 17.794952608503827 0 -1 0
1245 1 -1.2 26.827959811134765 13.293281368466335 19.69663696531143 -1 0 0
1722 1 -1.2 27.477119807744803 12.085491617966726 17.42475378089063 0 0 0
1734 1 -1.2 29.804163924324968 12.584734336039483 20.018588101638606 -1 -1 0
2097 1 -1.2 1.0467125551478154 16.259391084501157 18.796931895712298 0 0 0
325 2 2.4 2.147361364253622 15.014954917918118 18.545588924136823 0 0 -1
992 1 -1.2 3.662450009716875 15.752722020592342 17.83053938495782 0 0 0
802 1 -1.2 2.340118912549354 14.035332025368538 19.830216114401875 0 0 0
2156 1 -1.2 5.32175066433768 13.813932827330328 19.699722256468647 1 0 1
1525 2 2.4 6.404573914710268 14.920968520872822 18.83217041789772 0 0 0
1206 1 -1.2 7.559280593392046 15.776280271117608 20.348475612280193 1 1 0
1313 1 -1.2 9.601885809419402 14.74133650372671 17.640393037640823 0 -1 0
1012 2 2.4 9.112720335836908 14.15339063471133 19.33922557995524 0 0 0
1917 1 -1.2 9.649437110324117 14.40485512105693 20.79860086590458 0 0 0
452 1 -1.2 12.231130249837733 15.282979731511858 18.971953856829412 0 -1 0
1811 1 -1.2 14.993020222094508 13.845278085473598 19.381596507394402 0 0 0
538 1 -1.2 17.396324978230826 14.960916200819524 18.92142859086382 0 0 0
1694 2 2.4 18.73153388518484 16.057263283592466 19.372798851556542 0 0 0
1191 2 2.4 16.16596142295335 15.100506741260872 19.99297293608425 0 0 0
1355 1 -1.2 19.10585281443853 16.94805628554723 18.13194567343055 0 0 0
1176 1 -1.2 23.71988334555482 15.358589397818989 17.71296781995707 0 1 0
928 2 2.4 24.599998383728668 16.36252769938505 18.782371957793707 0 0 0
1286 2 2.4 27.686759994596386 16.348312982509547 18.068548131745747 0 0 0
937 2 2.4 29.827209700994633 16.641352052498032 20.559531394211994 -1 -1 0
7 1 -1.2 29.299386267909988 15.013969581174369 20.679994444469212 0 -1 -1
2003 1 -1.2 29.157745386614224 17.011001138661893 18.868542013460615 0 0 0
824 1 -1.2 8.086781715190492 18.898465492071193 18.780440862382036 0 1 0
1971 2 2.4 9.685770998116666 18.695472884342813 18.777367367661736 0 0 0
1962 1 -1.2 13.91442476681308 17.440893352253934 18.112598736639274 0 0 0
646 1 -1.2 16.58829839132632 18.18527957405836 17.454100014744373 0 1 -1
721 2 2.4 15.568354569058085 17.787725473589596 21.84481576590397 -1 0 -1
1152 1 -1.2 18.545679040411226 16.537007483250196 21.011590507753386 1 -1 -1
965 1 -1.2 24.312981304925756 17.807247703650024 17.947825792976804 -1 0 0
1580 1 -1.2 26.05063119520104 16.65843814110677 18.427427683398527 0 0 0
1102 1 -1.2 0.06765130736495606 18.72523076484621 17.4211283528543 0 -1 0
1616 1 -1.2 27.611747749907167 19.115146721908424 18.601184055426778 -1 0 0
1077 1 -1.2 4.335694816555597 19.722273946230885 19.74002159830238 0 0 1
576 1 -1.2 6.736043925240937 21.260541141383452 16.809842949819565 1 -1 -1
830 2 2.4 7.052622350613637 20.22590971953714 17.965932437635963 0 0 -1
359 1 -1.2 6.860392455811447 20.731135147503124 19.670410819594476 0 0 0
1541 1 -1.2 10.28077692433104 19.235012068418637 20.22983662372734 0 0 0
1247 1 -1.2 13.093775068038264 20.831030683048652 19.807717429987033 -1 0 0
1907 1 -1.2 15.299928619270782 20.529666943416 19.396530841273282 0 0 0
617 1 -1.2 14.422607911674813 18.331654992851202 20.711490926532147 0 0 0
1273 2 2.4 17.381420337243608 19.398837179745897 18.17076813226687 0 0 0
509 1 -1.2 17.42450611481806 19.30490501999881 20.00316732634619 0 0 0
679 1 -1.2 21.52027108820903 20.995183512564687 17.929995921020414 0 -1 0
844 2 2.4 21.69126831885928 21.299090467259788 19.77313287401615 0 0 0
101 1 -1.2 21.17644053639692 20.07521971948184 20.569481966235905 0 0 0
1296 1 -1.2 23.284403164668724 19.659199464762704 16.376291595403732 0 0 0
1676 1 -1.2 23.26189034587897 22.04583723501452 19.88940179080908 -1 -1 0
1473 1 -1.2 25.116968200284308 22.307714875873955 18.157949515453513 0 0 0
374 2 2.4 24.793236737722445 22.451131502367595 19.782203859351398 0 0 0
142 1 -1.2 0.7180677445279732 22.141442405766107 19.69711534437306 1 -1 0
1080 1 -1.2 4.559177536574838 22.18217863998738 18.43266447876971 1 -1 0
541 2 2.4 4.806140700149186 23.144313963608482 19.816260911641034 1 -1 0
871 1 -1.2 4.014608979830429 24.38608622187645 19.61023479697453 -1 -1 0
329 1 -1.2 8.007743389955365 23.19129500055662 18.25697471027139 0 0 0
846 1 -1.2 10.742652439985855 21.378271822808326 18.75384619894379 1 1 0
1049 1 -1.2 11.225686682057923 22.938935198775695 20.60978766718906 0 -1 0
1246 1 -1.2 12.615335994173883 23.497462566699824 18.312832233667237 -1 0 0
640 2 2.4 12.011313075744006 22.107285694938863 19.579888397081167 0 0 0
1153 2 2.4 16.14550482052119 21.76756185402546 20.546168286808225 0 0 0
1315 1 -1.2 17.61469428345961 22.048202803724976 21.035347702352777 0 -1 0
1528 2 2.4 19.064848812352686 22.949901392845 20.950024202138582 0 0 0
672 1 -1.2 20.129661266109093 22.152418520687338 20.183401689321812 0 0 -1
1173 1 -1.2 25.49672339063547 23.86235452860454 16.493615704602075 0 -1 0
776 1 -1.2 25.189319076291056 23.950049890399864 19.800168618969767 -1 0 -1
270 1 -1.2 0.8613169527892118 24.60127932433662 18.84688369537364 1 0 0
1718 2 2.4 1.03647545601922 22.987994741468555 18.261675072535425 1 0 0
168 1 -1.2 0.5177548117813912 27.616386207920915 18.391695358664833 0 -1 -1
1784 1 -1.2 3.688788290913492 27.162483805113865 19.73907601047281 0 -1 1
554 2 2.4 6.755037965816516 26.711129731025196 18.47785062144313 0 -1 -1
1739 1 -1.2 5.890781755930587 26.080840597217254 19.43549500649023 0 -1 0
665 1 -1.2 8.484811209136007 26.393441824731855 18.40242301639661 0 -2 0
1610 2 2.4 10.000612644648907 27.15627850229157 18.307451834624516 0 -1 0
2115 2 2.4 12.320719351755862 24.88596531590506 17.543039689597844 0 0 0
595 1 -1.2 10.944346098534238 25.906338566869938 18.13600872520003 0 -1 0
1291 1 -1.2 16.078213517162652 25.236506670936215 18.82989125353622 1 0 0
1778 2 2.4 15.85207581205758 24.96475287762287 20.36881227682262 0 -1 0
1239 2 2.4 15.176209269528249 26.29323341753312 17.80212261776801 0 0 0
1989 1 -1.2 14.910139871315312 27.842233602810257 18.43605612107521 0 0 1
1005 1 -1.2 17.055465976577274 25.885013484785247 20.97357200379079 1 -1 0
39 2 2.4 18.80322500820015 25.864225098740338 20.398103235781722 0 0 -1
1459 1 -1.2 19.083186356174966 24.360189487619415 20.071443488698467 0 -1 -1
953 1 -1.2 18.938641420593267 27.373192048862567 19.49211936971343 0 -1 0
1112 1 -1.2 23.77506567912062 25.5567746270492 18.284180735170906 -1 0 0
1143 2 2.4 24.923987789168997 25.525167905207226 19.409216142954893 0 0 0
478 1 -1.2 26.409659422882328 25.85240470927348 19.34164369568318 0 -1 0
1396 2 2.4 27.76686660795659 26.87141761010808 19.12224603636543 0 -1 0
506 2 2.4 0.11270762568609588 26.11818051627361 19.55744886844263 0 -1 0
1805 1 -1.2 29.01215424117255 25.973701721125142 20.163090636761893 -1 -1 0
1371 2 2.4 0.8575944820340037 29.68855019325951 18.539557588811597 0 0 0
1410 1 -1.2 1.6900218844734423 29.4140616090195 19.840963135129922 1 -1 0
47 1 -1.2 6.892261469719906 28.451173020457166 18.544483978806717 1 -1 0
164 1 -1.2 10.050013073781669 28.255885298099322 19.53405670641695 0 0 -1
1505 1 -1.2 13.03969974342501 28.75115769508941 16.875786991304317 0 -1 0
1858 1 -1.2 12.635330717961361 28.172886237574428 20.225740303545532 1 0 1
1911 2 2.4 13.54790158146155 28.60093074231346 18.50846795298675 0 0 0
1184 1 -1.2 13.743429440168045 30.219324073843243 18.973673650323555 0 0 0
837 1 -1.2 16.590132509233843 29.28424794350557 16.52214395304898 0 0 0
1777 2 2.4 17.64180499054799 30.08820350068993 17.242648304684927 0 -1 0
2154 1 -1.2 19.111111497617866 29.608364128758804 17.347056459735732 0 0 0
2080 2 2.4 20.01015074900629 28.28600051560747 18.47808333131078 0 0 1
2096 1 -1.2 20.52891411798112 29.329773604124917 19.66586651284942 0 0 0
1110 1 -1.2 25.12621121500303 29.230194943966897 19.917302010569625 0 -1 0
962 2 2.4 26.201817132231202 29.462892982238667 18.814664643939583 -1 -1 0
1942 1 -1.2 26.95591716037003 28.286685604962795 19.117258273037027 0 -1 1
1472 1 -1.2 1.401697344156075 3.1667414191278285 18.93455671574854 0 0 0
1738 1 -1.2 7.0154357301006 0.007419093980299987 23.575798660612893 -1 0 0
293 1 -1.2 10.35941742554238 1.5567139711576818 22.305129673651276 0 0 0
581 1 -1.2 16.78437754300109 28.925916639304653 20.934214452728284 -1 0 0
23 1 -1.2 17.479512515246473 1.067465418252375 21.144077158165363 0 0 0
1213 2 2.4 16.477225472310053 30.355341453434452 20.47762830297291 1 -1 1
695 1 -1.2 20.55650218682686 0.6962077745676603 21.77466839112205 0 0 0
496 2 2.4 20.796050162571238 2.158264886494387 21.43511848950842 0 0 0
1587 2 2.4 26.37319803207216 0.649034764090754 22.0818142242972 -1 1 0
970 1 -1.2 24.71599514894541 0.876572134678892 21.46897856988766 -1 1 0
1692 1 -1.2 26.80736987770475 1.9118034332494716 23.098059049737337 -1 1 0
1998 1 -1.2 27.04893822398287 29.902998054201987 22.909667721820913 0 0 0
2019 2 2.4 2.020847907321651 4.123533258657764 20.350466094478495 0 1 1
1544 1 -1.2 2.6256180280585943 3.5533927907407934 21.771582109621338 0 1 0
925 2 2.4 0.8800233301376429 3.694837460952809 22.78184057174757 1 0 0
657 1 -1.2 6.080662582970166 4.192386256440471 22.228585849462796 0 1 0
637 2 2.4 6.774280996802134 3.106031152946798 21.016307935141576 1 0 0
1121 1 -1.2 8.1746304924882 2.631846571708032 21.870744047591625 0 1 -1
361 2 2.4 9.209881711949196 2.7627651493773215 23.141802639361917 -1 1 -1
1788 1 -1.2 18.14167308596272 3.748601973375094 22.70266517331258 0 0 0
1659 2 2.4 17.668961142851508 2.688275932312798 21.30842094220625 0 1 -1
620 1 -1.2 16.854999019293263 3.4344855793044315 20.200209587952457 0 0 0
860 1 -1.2 19.46177665201281 3.066234623152714 20.746199858068042 0 1 0
2073 1 -1.2 21.842359620801805 2.2487304206345984 22.870625851306258 0 1 0
653 1 -1.2 24.89412144887528 3.540171447025548 22.931241839559778 0 0 0
1822 1 -1.2 26.171714462474828 4.222202670393612 21.098784481062612 0 0 0
973 2 2.4 26.28976005487928 3.4800350934524764 22.511390370372787 0 0 0
1771 1 -1.2 30.041224690369766 4.603543887602486 22.047372143876313 -1 0 1
1149 1 -1.2 0.004224622881597844 7.443575149063049 21.600976979055602 1 1 0
1745 1 -1.2 5.609821622794132 8.900008282839027 21.51216016391089 0 -1 0
1208 1 -1.2 7.689037158393893 6.875401068217122 22.458981761509133 0 1 0
1707 2 2.4 9.156773608628871 6.946918962353971 21.718060632993392 1 1 0
1013 1 -1.2 9.123702233638562 5.22456283187289 21.072677208822046 0 0 0
715 1 -1.2 10.150364440779628 7.0270661050658925 22.90957645061617 1 1 0
285 1 -1.2 13.947811617633782 6.768045785488458 20.740854920837464 0 1 -1
1765 2 2.4 15.393087443859352 6.640764392927721 21.133315399846772 0 0 0
778 1 -1.2 16.19669670308445 7.7104575424223345 22.26759592866718 1 0 0
1265 1 -1.2 18.437131263508178 7.736723183415997 21.782532282645256 0 1 0
1491 2 2.4 17.68418850769651 7.785616201268196 23.25731583193922 0 1 0
1926 1 -1.2 21.18499346532216 6.671589102721667 21.9593997713959 0 0 1
1768 2 2.4 20.328117977616266 7.811763524648812 21.332443651167722 -1 0 0
1082 2 2.4 24.279215883381763 7.744197046460385 20.36068178294923 -1 0 0
1960 2 2.4 22.729904958309273 6.250965427249687 22.591254302853038 0 0 0
1535 1 -1.2 24.011691700418353 7.070997960277832 21.82349151626027 0 0 0
1168 2 2.4 30.154415405605018 6.005429156547955 20.952443866837598 -1 0 0
843 2 2.4 2.2944664250518407 10.854317132311428 22.018404086294318 1 1 0
465 1 -1.2 0.6405339123034576 10.20137478406402 22.242570312554307 0 0 0
1910 2 2.4 4.213592623766024 8.781497865210918 20.588145520050162 0 0 0
1769 1 -1.2 3.000397663478966 9.61790450364673 21.141920169833103 0 0 0
1816 2 2.4 6.853679402722207 8.403452975939633 22.48576335139232 0 0 0
1637 1 -1.2 8.565222766886466 9.4349977552347 22.440056738539123 1 1 -1
1656 1 -1.2 9.468031609713258 7.896568063105589 20.392140956629326 0 1 0
1973 1 -1.2 9.658103537067527 10.67896196277386 20.49450151365973 0 0 0
885 1 -1.2 14.029677391940092 9.808330830212384 21.214348134318904 0 0 -1
926 2 2.4 15.287725845199928 10.151316880609293 20.32198298959826 1 0 0
736 2 2.4 13.442671821251555 10.592659595584886 22.65284143820586 0 0 -1
1651 1 -1.2 15.983881063887798 8.745960952648062 19.99677966511939 -1 0 0
1458 1 -1.2 20.79367962393365 9.665875622200101 21.113388959741474 0 1 0
1378 1 -1.2 23.054000716975043 8.93235954644067 20.01994110007761 -1 0 0
385 2 2.4 22.489601639537188 10.410632898992077 20.576700940333023 0 1 0
1406 2 2.4 30.20111636745575 9.178214111915105 21.404162961345037 -1 0 0
1929 1 -1.2 28.533803968729725 9.384295993383654 21.584770860772736 0 1 0
611 1 -1.2 1.7425730523331977 12.338405086390601 21.634702327934324 1 -1 0
1623 2 2.4 2.989688933532661 13.570332357512015 21.209093648830994 0 0 0
1986 1 -1.2 4.39524262462768 12.548436142610653 21.47655374476026 1 0 0
1934 2 2.4 8.849179324704423 11.023146284693114 21.843641165562808 1 0 0
124 2 2.4 5.7611972281114285 12.446663980558801 20.651131013652492 1 0 0
641 1 -1.2 7.05068580150984 12.089764088056082 21.697502199162695 1 0 -1
1294 1 -1.2 13.007275607841033 12.115837932595399 22.902671245610136 1 1 0
202 1 -1.2 16.290187973559064 11.340609605311117 20.827780011463762 0 0 -1
1369 2 2.4 17.585527421068818 12.384811017433941 21.004486978890682 0 0 0
1602 1 -1.2 18.64535556368458 13.23011098745316 21.92856029428571 0 0 1
1594 1 -1.2 23.47822433584416 11.580374859739825 21.492051766838784 -1 -1 0
508 2 2.4 22.921968069328223 13.18791125764022 21.109963585252785 0 0 0
612 1 -1.2 25.831774159317966 11.536987218852234 23.238405298367095 0 0 -1
1648 2 2.4 27.585876800328506 12.529426044383607 23.53232686988157 1 0 0
74 2 2.4 28.567700328638924 13.4283873811527 20.698694274906558 -1 -1 -1
732 1 -1.2 28.14781614845265 12.952904995515073 22.0294477786657 -1 0 -1
1443 2 2.4 1.1072386316812506 16.562098021198185 23.200891368570755 0 0 0
1617 1 -1.2 0.7697202892464526 17.082589387108744 21.419789549299583 0 0 0
367 1 -1.2 3.220890982666648 14.510046823551304 22.670833989647996 0 1 -1
853 2 2.4 8.685558197438349 15.74713295905822 21.338210990826816 1 0 0
360 1 -1.2 8.96286250594499 16.22050813300946 23.245434254103845 1 1 -1
1854 1 -1.2 12.269633083109929 13.234123873505363 20.992943581111433 1 0 0
674 2 2.4 12.558266019482087 13.576570491781315 22.47302466408085 0 0 -1
1485 1 -1.2 13.486254719068684 14.919163339137741 23.02768444843937 0 0 0
1747 1 -1.2 15.968615749314454 16.26868203152441 21.014112504784126 0 -1 0
2133 1 -1.2 19.991580016417853 15.01526459463533 19.678009090501323 -1 0 0
2129 1 -1.2 19.943156145092356 15.299838839814344 22.988443692548984 0 1 0
1759 1 -1.2 21.100609784074393 13.06492325101328 21.12407813017694 0 -1 0
1036 2 2.4 19.81447343256615 14.345156413829203 21.303022382164922 0 0 0
1385 1 -1.2 23.117050738181323 14.360496994539746 22.133939103836976 0 0 0
49 2 2.4 24.35031770759301 15.827841415383842 21.828890528537034 0 -1 0
714 1 -1.2 25.78671898611465 15.555970920794087 22.773664751239608 1 0 0
1736 1 -1.2 2.31533175836729 18.011257900121425 23.364621256702886 0 0 0
976 2 2.4 2.240237180503076 19.525272300674104 23.12875729371142 1 0 0
1953 1 -1.2 3.417060824895796 19.057044042068686 21.793857370866213 0 0 1
1869 1 -1.2 9.3562130112063 17.234323413904683 21.247370539593486 1 0 0
664 2 2.4 9.480027803025175 18.75986726224119 21.60530869223546 0 0 0
1155 2 2.4 11.800159386757299 18.644539247553478 23.06673594528369 -1 0 0
1680 1 -1.2 12.133270598512267 17.0013869370235 23.462700669555435 0 0 0
1874 2 2.4 13.65632016101438 16.40130094526453 23.634940833315248 -1 0 0
1956 1 -1.2 14.685677431293339 17.6527542653148 23.323927318516358 0 0 0
1356 1 -1.2 17.008097881269094 18.244073984436824 22.267223553105467 0 -1 0
2128 2 2.4 17.790830262142524 18.114393999427037 21.025177273459178 0 0 0
1448 1 -1.2 24.574625309078552 16.34384890805658 20.393516294628665 -1 0 0
416 1 -1.2 21.70851311897775 18.251723913662637 22.684619783255428 0 0 0
589 2 2.4 23.347405782580008 18.593302612564415 23.029683046500296 -1 0 0
1520 1 -1.2 23.954245112960255 17.11104430104845 22.848251442826488 0 0 1
523 1 -1.2 27.46187696811883 19.66485484475846 21.35030029594006 -1 0 0
1404 1 -1.2 28.2372736844282 17.486780279607185 20.855688703734824 -1 0 0
1180 2 2.4 28.168315740150376 18.945247888539672 20.13581001432417 -1 0 0
1282 1 -1.2 29.97640367193313 17.0246336450821 23.37520691840869 0 1 0
401 1 -1.2 2.0081996640050725 21.190623629789155 20.7896106278507 1 0 0
735 2 2.4 0.3211094045085826 20.94619833402326 20.819356658982848 0 0 0
521 1 -1.2 4.072788864801176 22.529350846226446 21.13697062423374 0 -1 0
878 2 2.4 3.5374467251297954 20.57140231960881 20.84215012320185 0 0 0
934 1 -1.2 5.978367713209617 21.057148772755383 22.408450024990795 1 0 0
1335 2 2.4 7.042631032136992 20.732430691341655 21.237407141090966 0 0 0
214 1 -1.2 7.935921772487768 19.49349986504431 21.903820358501523 1 -1 0
1507 1 -1.2 10.135936401428856 19.075407687912413 22.9964999265823 0 0 0
1697 1 -1.2 12.764404637627198 19.570592755186464 22.294656662994228 0 1 0
1958 2 2.4 14.314664387803035 20.018126826640927 20.56155963391642 0 0 0
1044 1 -1.2 15.433038420916969 20.58322859362758 21.67337921637448 0 0 0
1614 1 -1.2 19.23136362235576 18.535308203248803 21.753004712335045 0 0 0
1238 2 2.4 20.65209559348019 19.35953716017887 21.948171442641698 0 1 0
1146 1 -1.2 20.039183095305876 20.474528867594724 23.136957529702507 1 0 -1
1283 1 -1.2 24.332218870795938 19.446290563649644 21.924782680628628 0 0 -1
2122 1 -1.2 25.44437822484324 21.80962568568391 21.120263397183745 0 0 0
1562 2 2.4 25.89085083037735 20.426875234613053 21.677107231168577 0 0 0
296 1 -1.2 26.49726979656319 20.79564432861533 23.416921415755183 -1 0 0
1800 1 -1.2 29.500614473300917 20.034160903323816 20.46468929086326 0 -1 0
659 1 -1.2 8.083945229917184 22.22412321260529 21.198186163285943 -1 -1 -1
1622 2 2.4 7.906936836061456 23.29848978826552 20.011520879517263 0 0 0
1017 1 -1.2 6.418282430288699 23.500559608303902 20.120367125749787 -1 -1 0
160 2 2.4 10.285801522752163 24.39467513316268 21.097445419731525 0 0 0
932 1 -1.2 10.504923160385095 23.641263571568306 22.50924518344961 1 0 0
14 2 2.4 11.564828980589805 23.27026649523088 23.672700220381714 0 -1 -1
312 1 -1.2 12.9817723367272 24.357718685100306 23.85735548856604 0 0 -1
1428 1 -1.2 15.378989412073171 23.09433287359051 20.206025148745248 1 -1 0
237 1 -1.2 19.03143222471161 23.7058211816884 22.276082048031792 -1 0 0
54 1 -1.2 30.189637881823405 22.528595580942397 21.781692460837316 0 -1 0
764 1 -1.2 0.8589362575838109 26.80478542415638 20.790161484595817 0 0 0
1969 2 2.4 4.394772986534747 25.95154395851987 20.149491339070224 1 -1 0
2134 1 -1.2 4.63112276559893 25.793252809604997 21.679326404121017 0 1 0
1135 1 -1.2 8.826190338758966 24.452582171564888 20.49955736085313 0 0 0
389 1 -1.2 11.165877493267631 26.173910675735428 21.132562067786605 0 0 0
15 2 2.4 12.11138502492212 27.314661752826808 21.664845848620313 0 -1 0
2106 1 -1.2 13.195175246298536 26.837515877040673 22.475511408010686 0 0 0
1999 1 -1.2 14.659470705146699 24.9360298323821 21.508878243292266 0 0 0
232 2 2.4 13.899956019723328 25.44237534330762 22.88010805860736 0 -1 0
344 1 -1.2 19.29683421713689 26.108549046520167 21.984022443900102 0 0 -1
811 1 -1.2 24.718435894712155 26.47365246396794 20.89595096463719 -1 0 0
1939 1 -1.2 26.40825702455472 26.085102823912937 23.06818939712272 0 -1 1
304 2 2.4 25.061645609741895 26.987248521110864 22.64568095155634 -1 -1 0
855 2 2.4 27.5590095656314 27.008226740456703 23.892730083527205 0 0 0
1503 2 2.4 30.15961509717754 28.095566302694348 23.007670050884702 0 0 0
126 1 -1.2 0.42789031329444815 28.89456595596211 21.861859387838432 1 -1 -1
193 2 2.4 1.8937656101820641 28.223656100137568 21.021364040117692 1 -1 0
1022 2 2.4 4.528314012348338 29.055559452249607 22.736926459850316 0 -1 0
743 1 -1.2 3.2427650205470693 28.00680335630894 21.85554924945846 0 -1 0
185 1 -1.2 4.592727459155638 30.337752827965538 21.450146534677092 1 -1 0
519 2 2.4 7.686217348043053 29.143854346327025 22.95100845765452 0 -1 -1
1199 1 -1.2 6.05912742971569 28.832804280466643 22.883896039366245 0 0 0
560 1 -1.2 8.446804509615921 29.240670195390074 21.449947233419483 1 -1 0
913 2 2.4 9.970645427795905 28.99622836462767 20.994879485586992 0 -1 -1
1409 1 -1.2 10.683822160129312 28.25635143757063 22.408630212712133 1 -1 1
1888 2 2.4 17.050331211662066 28.85694066488795 22.644590374672354 0 0 0
1088 1 -1.2 17.473343910538038 27.489478780057336 23.497648589710927 0 -1 0
1959 2 2.4 20.87481590467338 29.720737238488777 21.311075847415832 0 -1 0
2051 1 -1.2 20.01045394742702 28.653366750019085 22.330658992720494 -1 -1 1
616 2 2.4 19.091173383381737 27.366492355789674 23.201419728959802 0 0 0
1073 1 -1.2 22.670582748205682 29.71212850686995 21.747125445218806 0 0 0
1492 2 2.4 24.20416540557259 29.842115967264792 21.144490002358015 0 -1 0
235 1 -1.2 24.74134641667537 28.507350628241788 22.20551972196459 -1 0 0
1905 1 -1.2 28.955531718936918 26.90834239530552 22.915901483011893 -2 0 0
1930 1 -1.2 1.5324637615419798 2.7970682918859806 26.52776863302079 1 1 0
510 1 -1.2 3.8699745464657442 0.41151384714713235 26.412114539062205 0 0 -1
1215 2 2.4 4.996048909283162 1.8444899227790164 26.811642918005525 0 1 0
975 2 2.4 7.555819762342408 1.067776376330035 24.96909209470736 0 0 0
441 1 -1.2 8.28262073020334 0.010494404136146582 26.249227162048477 0 0 0
823 1 -1.2 8.669850882136476 2.005651395380995 24.412574914135767 0 1 -1
980 1 -1.2 10.852547703482168 29.770892629632947 25.139661182541747 0 -1 0
1079 1 -1.2 13.848632149724617 0.8639588285240679 23.86980591965437 0 0 0
870 1 -1.2 15.951895550703599 29.98261614234763 25.253894765413023 -1 -1 -1
2057 1 -1.2 15.395630309528888 2.8423517267843432 23.45380474835155 0 1 0
2068 2 2.4 14.681079940808587 29.832743177446805 23.993665782445255 1 -1 0
251 1 -1.2 18.09135636312093 1.7043812786397532 24.636669603791237 0 0 -1
217 2 2.4 17.66109490046077 0.03830601921253643 24.812131627819962 0 0 -1
1719 2 2.4 23.8101462925905 2.392716125236118 26.24866107320551 0 1 0
955 1 -1.2 25.54954416759181 1.8560627184910556 26.25671751623624 -1 0 0
1655 1 -1.2 -0.06326364887955895 2.2196573238609765 23.285613584089226 1 0 1
387 2 2.4 0.4544668857439181 3.1193371737893 25.201492371685045 0 1 -1
863 1 -1.2 1.3317285806863797 4.26836368150746 24.384507474797427 1 1 -1
1139 1 -1.2 4.327634325474708 3.3181451996975184 26.797068856093073 0 0 0
1785 1 -1.2 6.131332451629604 1.5675973854762075 25.391065543600394 1 -1 0
1308 1 -1.2 7.463378512425143 5.043649374083386 24.376683554868077 0 -1 0
1915 1 -1.2 9.810184336188497 4.197769840715457 23.419444074116853 0 0 0
13 2 2.4 8.927813445004933 4.892106112129046 24.630702018614482 0 0 -1
32 1 -1.2 13.21404562710793 3.0661915948151255 25.070784538644663 0 -1 -1
99 2 2.4 14.354084275616058 2.2700971111567854 24.53528426730086 0 0 -1
2032 2 2.4 13.0533655464356 4.464024986162081 25.989084501130318 0 1 0
2126 2 2.4 17.216861697392375 3.1380854318542983 24.018758242152945 0 1 0
1403 1 -1.2 17.597403794909773 4.151218896677757 25.16769409488519 0 0 0
29 1 -1.2 22.41569933893302 4.750163971731554 22.836432960650498 0 0 0
1839 2 2.4 23.244359034500544 3.1538790336809925 23.292923760960083 0 0 1
1450 1 -1.2 23.27023129746857 2.814906416718855 24.834154604809306 0 0 0
1627 1 -1.2 27.16098895665319 4.231664245326631 23.821455161194283 -1 2 0
2027 1 -1.2 29.286021889642434 3.5756548684306573 25.461391914996636 -1 1 0
1249 2 2.4 28.29525465547956 4.642213072945679 24.839407402671547 -1 1 0
1938 1 -1.2 0.9287399247856112 7.968062148806294 25.24987141950805 1 0 1
1650 1 -1.2 5.253794059235723 6.26589210498868 24.226485215159926 1 1 0
1141 2 2.4 5.4654913367058295 7.453335068921115 25.15381473909641 0 1 0
827 1 -1.2 3.9031201004871425 8.223601559225788 25.507988155344037 0 1 0
61 2 2.4 6.219909289176983 5.2019400534942495 23.305581852327805 1 0 -1
727 1 -1.2 6.438394137938309 6.952660135957717 26.23693054757668 0 0 0
1908 1 -1.2 9.802844000801903 6.359729231868978 25.09433948328748 0 0 0
623 1 -1.2 12.911489944728656 8.542453334468682 25.10093316440529 1 0 0
1818 1 -1.2 12.639410465955635 5.8595194704579034 25.17724436521318 0 -1 0
786 1 -1.2 15.614795128818253 6.218571133838442 25.507706905645488 1 1 -1
1923 2 2.4 17.101055679233916 5.760957245429818 25.327349316034265 1 0 0
1665 1 -1.2 18.076978156684 6.642970707780481 24.390944304502572 0 1 0
1181 1 -1.2 22.726555502830834 7.527397974269754 24.05290779911292 0 0 0
951 2 2.4 29.792469449791323 7.51548878349489 25.53239872665984 0 0 0
1819 1 -1.2 29.330985770275817 6.086615462855669 24.68379171947147 0 0 0
1809 1 -1.2 3.3130368953581697 10.621750432713737 23.407350972316916 0 0 0
1540 2 2.4 2.514591941099517 8.801110318055105 26.00525202539836 0 0 0
1350 1 -1.2 2.0189720845369274 10.448690484292623 25.497545356879623 2 -1 0
1880 1 -1.2 6.411240239992354 8.330437545295029 24.275926475687882 -1 0 0
2060 1 -1.2 10.158366628391457 9.221137320991422 25.183668546731138 0 0 0
1083 2 2.4 11.704985861472556 9.703976182094747 24.67107962740699 -1 0 -1
707 1 -1.2 11.897104231982395 10.258445359839557 23.24184813779467 0 0 -1
1712 1 -1.2 14.82888440341909 10.109301280501905 23.558986488052653 0 1 0
902 2 2.4 16.491447688857185 10.431229596829642 24.073078552260693 0 0 0
1487 1 -1.2 17.518967959442143 9.302770707515602 24.078182580039307 0 0 0
1842 1 -1.2 15.865016192673515 10.926417852533339 25.75653687906641 1 0 0
1321 2 2.4 23.496404708262116 8.654184063902852 25.060100779766778 -1 -1 0
1147 1 -1.2 22.026355422466903 8.927668033891315 25.86362229892927 0 0 0
68 1 -1.2 24.368553129248603 9.9147972647177 24.627585888335034 0 0 0
55 1 -1.2 26.5279712437286 10.966790467234219 25.968969776928137 -1 0 -1
480 1 -1.2 28.72285542342821 8.708110128837978 25.450152393695554 -1 0 -1
314 2 2.4 28.334619833992193 10.634272203960439 25.54673331140032 -1 0 0
1766 2 2.4 3.124879643930264 11.423465266190858 24.883487901422612 0 0 0
1425 1 -1.2 2.277234007438581 12.747888997209678 24.60261756999956 1 0 0
1028 1 -1.2 4.721556237563597 11.654014652350368 25.702890623786768 -1 0 0
1103 1 -1.2 9.539444452292638 12.001942194006443 23.019083707878575 0 0 0
1808 1 -1.2 7.360333503859804 11.664806420317248 24.792628394068288 0 0 1
242 2 2.4 8.665774632383926 12.524530665422628 24.580439498524047 0 0 -1
1400 1 -1.2 8.178880448032547 14.052895956158965 25.03610802879207 0 0 0
775 1 -1.2 16.894778169891804 12.051299905842283 23.263181759902103 0 -1 0
1479 2 2.4 17.189669689163136 13.307593531259206 24.648246396814518 0 0 0
718 1 -1.2 24.534079715804857 12.474314538160288 25.751227279662857 0 0 0
1096 2 2.4 25.34676826963338 11.103853802760215 24.765963398657405 -1 0 0
1865 1 -1.2 28.546347761479876 11.379120901815677 24.14221376965312 0 0 1
1613 1 -1.2 0.9107575668228299 14.98037241190951 24.126086049690915 0 -1 0
1060 2 2.4 2.439648728279418 14.25368447470782 24.265362454641913 1 0 0
1903 1 -1.2 3.5636417580682087 15.164779669011928 25.10928456896563 0 0 1
291 2 2.4 5.142671103362559 15.69814606233755 25.42369122025348 0 0 -1
1581 1 -1.2 6.191454243864368 16.055674434257227 24.24120509413032 1 0 0
207 2 2.4 8.096215563328316 15.710810701445194 24.553697479690694 1 0 -1
1032 1 -1.2 8.602551065080196 16.727448001449208 25.86977112713541 0 0 0
1212 1 -1.2 11.342261516692318 13.97134594531723 23.75609316538607 0 0 0
1904 1 -1.2 10.623831775193867 15.073617285770945 25.92672823131558 0 0 0
627 2 2.4 11.51713908530773 13.986138943381999 25.346699685729714 0 0 -1
1476 1 -1.2 12.943098528667054 14.372997627822079 26.007565470102293 0 0 0
694 1 -1.2 14.663890776064216 16.81449766052416 27.952981002980867 0 0 0
108 1 -1.2 17.510341592334637 14.858939730647547 24.002747192964982 0 0 -1
1886 2 2.4 19.079195177837583 14.897019051196706 24.35696497989749 0 0 0
643 1 -1.2 20.316915929937405 14.082908536981588 25.3136144046757 0 0 -1
537 1 -1.2 22.051038595573573 15.782217258043252 25.97369464063344 0 0 0
676 2 2.4 26.11608901996835 15.120760681722093 24.315425119748586 0 0 0
609 1 -1.2 26.950185426114885 13.761158889079264 24.572326729870294 0 0 0
1038 1 -1.2 24.527600123103554 15.297163311492433 24.92623925151885 0 0 0
1633 2 2.4 23.80668617159569 16.068797909161784 26.188522174205392 -1 1 0
738 1 -1.2 29.248661715312046 17.224390740663882 26.23066562763259 -1 0 -1
1205 1 -1.2 2.888041101264674 20.19822031434901 24.591992291063207 1 0 0
347 1 -1.2 8.003432710019524 20.445955802081958 24.325315621085224 1 0 -1
375 2 2.4 6.542194202794405 20.00699706738993 24.042984056042606 0 0 -1
893 1 -1.2 14.252206177248548 16.42224865769904 25.360477241230832 -1 -1 0
2042 2 2.4 15.423416162442566 17.139135489495683 26.300427274752973 0 0 0
456 1 -1.2 15.035461329279771 18.711699068061765 26.07672031133586 0 -1 -1
1857 1 -1.2 16.849819680139987 16.8549307959975 26.217146446596185 0 0 0
1468 2 2.4 18.3670980961567 17.682999504020422 25.994482186584136 0 0 0
833 1 -1.2 19.30953423013832 16.363448205140664 25.024416276520522 -1 1 -1
1866 1 -1.2 27.18363067624625 16.57577226721172 24.547042574568234 0 0 0
1873 2 2.4 28.68515040973692 17.179874381730798 24.538810683558676 0 0 0
246 1 -1.2 1.6177529412092082 21.334590844639262 26.476577719401305 0 0 -1
1309 2 2.4 2.4291428206314922 21.81541335377297 24.821310265871443 0 -1 0
1979 1 -1.2 0.6305251181262338 20.063807495343966 22.56411517228516 0 0 0
2157 1 -1.2 5.692662160268436 19.363945482863556 25.235450898004984 1 0 0
593 1 -1.2 11.186724901165622 20.820101869931513 26.136024785491774 0 0 -1
1338 1 -1.2 11.991763265623504 18.920585315529554 24.79207495585305 0 -1 0
494 2 2.4 12.219917798436413 20.61314966998576 24.9138703221337 1 -1 0
105 1 -1.2 13.763859606011572 20.763939247722536 25.658673178476132 0 0 -1
94 1 -1.2 18.716565291629067 19.329178895054262 25.015526442718276 0 -1 -1
1513 2 2.4 19.405893433981042 20.69922536292924 24.62115609603735 0 -1 0
840 1 -1.2 20.960996045812546 20.64208908847153 25.18545626705 -1 0 -1
1735 1 -1.2 23.25520609310169 20.14037988590814 24.040319615789034 0 -1 0
1813 2 2.4 22.458958356034817 20.923736548349623 25.269210004177857 -1 0 0
971 1 -1.2 27.158108497133387 21.39762738124579 25.776959347011253 0 0 0
273 1 -1.2 28.47429644425467 19.01814738906577 24.43739011464938 -1 0 0
2054 2 2.4 27.770703099488202 20.520438547412752 24.386543799864146 1 0 0
81 1 -1.2 29.649217459306428 21.15697472236992 24.460058430570623 -1 0 0
79 1 -1.2 1.6635925622227885 22.64286172175463 23.73193964985486 0 -1 0
613 2 2.4 0.08383507418566749 22.22362419607699 23.312396470804043 1 -1 -1
696 1 -1.2 4.063592907357759 22.0810335848928 24.934440628190632 1 0 0
183 2 2.4 5.171796662447571 23.29079722803204 25.02498058348233 0 0 -1
810 1 -1.2 5.4034335884015405 24.300632638434045 23.783438764398355 0 0 -1
995 1 -1.2 6.405528186237602 22.386911264809655 26.041289369483437 1 -1 -1
175 1 -1.2 8.987130046260402 22.53696692099226 26.81831398056076 0 -1 -1
2132 1 -1.2 12.184899832486643 21.614849705999923 23.464592672174852 0 0 0
650 2 2.4 10.6112135180829 22.4011925741505 26.340836380858153 0 -1 1
575 1 -1.2 10.498347335815444 23.09663426784034 24.869364195508993 1 -1 0
1546 1 -1.2 14.925702648213157 23.585849928664633 24.59702351287929 0 0 0
1850 2 2.4 15.96880052619441 24.91020263478515 24.947153316096472 0 -1 0
835 1 -1.2 17.434447472033554 24.280913110913385 24.327350795168982 1 0 0
131 1 -1.2 18.473110931927216 22.093102753758117 24.88513859144496 0 -1 -1
602 2 2.4 18.949256091165058 23.60036055823777 24.12952829125889 0 0 0
1976 1 -1.2 23.295296563049217 22.308266126686863 25.681686769357416 -1 0 1
1253 1 -1.2 24.480302951672485 24.790061623933934 25.57333181988601 0 0 0
662 2 2.4 24.04644908623479 23.522569209803294 26.274123165496214 -1 0 -1
825 1 -1.2 30.059094789474027 24.617778408627338 24.496501097404366 0 0 -1
332 1 -1.2 28.006746668849996 23.826042154913697 26.30692633785283 0 0 -1
1421 1 -1.2 0.8322855261183887 26.69788317642272 23.661640165190068 1 -1 0
2152 2 2.4 1.2708363620453138 25.31743534378568 24.601355247286147 1 0 0
474 1 -1.2 2.8762391235505667 24.971828275463636 23.614109217155058 1 -1 0
1641 1 -1.2 1.7238793749703967 25.508790246200352 25.999556885973707 1 0 0
1838 2 2.4 4.37259051534942 25.52246519029278 23.12843067789853 1 0 0
2088 1 -1.2 4.7960563508440455 26.429837968808958 24.785331315721564 1 0 -1
1046 2 2.4 5.586995893858843 27.343155108793365 26.031586370709356 1 0 0
1737 1 -1.2 15.01085539367293 25.943683119636123 24.099713787601335 -1 -1 0
1968 1 -1.2 16.138851335555884 25.3259138434794 26.55658541485778 0 0 0
431 1 -1.2 20.389509318163345 24.079179864804647 24.370485690996336 0 0 -1
1849 2 2.4 20.30205627361515 25.579775750354997 24.985839483983234 0 -1 0
1949 1 -1.2 19.85367345673385 25.672167444790578 26.67253252785595 -1 0 0
1832 1 -1.2 23.77202795503751 26.18704925300957 23.313510512345335 0 0 0
1856 1 -1.2 21.872100118904118 26.256214585628044 24.939177043312874 0 -1 0
1300 2 2.4 23.59513777007828 26.085119642080883 25.073938785152883 0 0 0
303 2 2.4 28.879409988220143 24.923675178547544 25.635846114433825 0 0 -1
209 1 -1.2 27.52086139484809 26.017471344702525 25.303229600842553 1 0 0
57 1 -1.2 3.7889764502577368 29.373948121673486 24.167856913194708 1 0 0
459 2 2.4 4.557905992391984 29.365490696155298 25.68126707243755 0 0 0
2135 1 -1.2 6.092419794540042 28.931137646497437 25.34920430448413 0 0 0
179 1 -1.2 8.804365835342631 28.480071418702213 24.03043174020798 0 -1 0
1599 2 2.4 9.283915702082911 29.258816506072602 25.407349129616758 0 0 0
2120 1 -1.2 13.65758395067033 28.850288638159657 25.02486483205598 0 0 0
1859 1 -1.2 15.579713832007021 28.980028029631256 22.912389237039203 0 -1 0
1411 1 -1.2 17.895970345633096 29.95854642925383 23.50154956327985 0 0 0
1571 1 -1.2 19.593018367294654 27.083245489554873 24.742586095070976 0 0 0
922 1 -1.2 22.428020033804316 30.006391916840016 24.046174440993173 0 -1 -1
335 1 -1.2 27.686045339032102 0.2578078772013768 25.3690426536163 0 1 -1
1268 1 -1.2 27.715102884502457 28.205726337799426 25.01465784545921 -1 0 0
804 1 -1.2 29.84615181214474 29.411242841796888 23.90442138359987 -1 0 0
1323 2 2.4 28.15716940097409 29.70829902549202 24.133800980819913 0 -1 0
1547 1 -1.2 3.747742353248705 1.665328617708682 28.70906634079902 0 0 0
266 2 2.4 2.4718669675958638 2.8338410720860407 27.88985616056584 1 0 -1
557 1 -1.2 2.8637229944861424 1.2633305533326382 31.334683277638874 0 0 -1
1742 2 2.4 3.401030331814046 0.5902810151383188 29.764295656870875 0 0 0
1834 1 -1.2 6.3283898108320376 1.8413824019802878 27.977534862735304 1 1 0
1311 2 2.4 7.329648812293994 1.8155287799500792 29.07720264608049 0 0 0
1591 1 -1.2 7.153897617105117 0.16539645980182327 29.487055939882158 0 1 0
213 1 -1.2 8.53504322152803 2.5371469602789256 28.13908952598307 1 1 -1
1266 1 -1.2 15.315316476545862 4.901067884903171 27.0554752312362 0 1 -1
1688 1 -1.2 12.404065519051944 0.3884762298085583 27.13536880409769 0 1 0
873 1 -1.2 15.508162911898175 2.077039149344349 28.576484592991683 -1 0 0
546 1 -1.2 17.409146976498057 0.850236082905158 27.722535632500424 0 0 -2
2053 2 2.4 16.444976100331296 0.6554545606800314 28.99478869531251 0 1 0
1639 1 -1.2 22.795453335877447 1.4134145820274198 26.82255762340073 0 1 0
256 2 2.4 25.937309187140002 0.38240454146534303 26.257448783117177 0 1 -1
990 1 -1.2 26.791566921759806 30.10627323480949 27.43514365269084 0 -1 0
505 2 2.4 27.938206630902197 30.139227507439557 28.452277505593884 0 -1 0
11 1 -1.2 7.774712899842575 4.91038481210345 28.16366657879646 -1 -1 -1
668 1 -1.2 8.434132144020605 3.845402448074031 25.85038241731817 0 1 0
349 2 2.4 8.893885701937984 3.9590405246608817 27.61291552298191 1 0 0
1709 1 -1.2 15.241870951472167 2.410974525174399 26.07080231377775 0 1 0
889 2 2.4 15.412187540372226 3.2376210821352767 27.62275723835267 0 0 0
1943 1 -1.2 17.00827186150508 3.823772620424998 27.761463243516854 0 1 0
1376 1 -1.2 18.035078400323293 6.183286058475419 26.94302370496315 0 0 0
1763 1 -1.2 23.993859424991307 3.477078860241888 27.524354787838423 -1 0 0
2067 2 2.4 23.251279339857152 4.807325609735936 28.128469651693855 0 0 0
370 1 -1.2 27.816991307127118 5.281963852111029 26.28636816108298 0 1 0
1358 2 2.4 7.394275557781428 6.610974353372335 27.4526750532722 0 0 0
875 1 -1.2 6.399885356076769 6.742342341915138 28.85136392935796 0 -1 0
1068 1 -1.2 8.711688935972916 7.7011992614459235 27.174375057118336 0 0 0
146 2 2.4 9.905961536535598 7.838540257713428 26.02964144673143 0 0 0
1255 1 -1.2 11.281455723220725 7.370837928203831 26.684057095094378 0 0 0
1922 2 2.4 12.864369964062211 7.246868603384916 26.103395133713345 0 0 0
536 1 -1.2 12.818687539874682 4.456009851692713 27.43886120904878 0 0 -1
1814 2 2.4 17.25339662421211 5.282245110468672 28.09498639915765 0 0 0
1618 1 -1.2 16.277087486014004 6.681084910494781 28.645140614451126 0 1 0
1746 1 -1.2 20.311380700642278 8.725594091223803 27.992882075281777 -1 0 0
1720 2 2.4 21.26309734847861 7.713641906402578 26.848003261738384 0 1 1
897 1 -1.2 21.679655523562733 6.382410005091762 27.241895058585918 -1 0 0
1918 1 -1.2 24.445126342544444 5.9586821260197125 28.235867936855136 -1 0 0
87 2 2.4 25.258640446295665 7.490963675942331 27.71621914144307 -1 1 -1
1531 1 -1.2 26.778437910875784 7.211426798503577 27.266291989102097 -1 0 0
2024 1 -1.2 25.437973383382815 8.39968867764872 29.064564400607694 -1 1 0
545 1 -1.2 27.699274150628856 5.579996303912702 28.809315322924622 0 -1 0
241 2 2.4 28.158155735811494 6.319495078817138 27.505602569497825 0 0 -1
189 1 -1.2 29.776016509753244 6.490231956038132 27.17121990744305 -1 0 -1
492 1 -1.2 2.7344289471347896 8.793678134673284 27.75132010948745 0 0 -1
1059 2 2.4 1.7431328235167118 9.113635495827614 29.17674375791985 1 0 0
1615 1 -1.2 0.4962768312834058 10.505633807874222 29.12511544827389 1 0 1
959 1 -1.2 7.051462164404446 9.820074805351828 26.283919941280146 0 0 0
1348 2 2.4 6.376918267858377 11.16331518474301 26.034797190419106 0 0 0
924 1 -1.2 11.610235507957533 10.827282569262803 26.055783058294903 0 0 0
525 1 -1.2 13.737346764030235 7.344985157598956 27.481140755324958 0 1 -1
820 2 2.4 15.808038889600963 10.384002758174567 27.204538943254438 0 1 -1
182 2 2.4 18.271999981737917 12.041911118536618 27.418238992337436 0 0 -1
294 1 -1.2 19.907058378187614 11.452197695259521 27.848245299368024 -1 1 -1
501 1 -1.2 15.63722525311945 8.65324054987414 27.03977391993445 0 0 0
1395 2 2.4 19.527404581880443 9.926578028308152 28.54181133674895 0 0 0
1916 1 -1.2 24.246847453025836 7.895391056383283 26.251069110618527 -1 0 0
983 1 -1.2 29.647812404019078 11.300910534375863 26.61084206228722 -1 -1 0
1824 1 -1.2 28.457223518288124 9.815206482250197 28.69617493892583 -1 0 1
543 2 2.4 29.489033979909962 10.94635349463601 28.195577212921656 0 0 -1
1399 1 -1.2 2.0859207728195406 13.58324133032631 27.557784821834254 1 0 0
1576 2 2.4 3.1698598957108395 13.257004658794251 28.710772914928437 1 0 0
920 1 -1.2 4.494629147372519 12.48752127413953 28.195612188825848 1 -1 0
1955 1 -1.2 6.759670947175606 12.438857810541101 26.9731270502651 0 0 0
697 2 2.4 5.943677928125868 13.601696065836656 27.811277952022493 1 0 -1
1440 1 -1.2 9.051531463927887 11.675654694642825 26.08312843487421 1 1 0
1961 1 -1.2 10.022760061286364 11.333620000266729 28.483627582115833 0 1 0
1982 2 2.4 10.474171737958418 11.50428119206741 26.80601770662591 0 0 0
1723 1 -1.2 11.301448340450213 12.897188615487485 26.873478854937154 0 0 0
475 1 -1.2 17.099844719415017 11.220108636202092 27.999966638044455 0 0 -1
2034 1 -1.2 18.682921423148652 12.245809791431034 25.660548374432437 -1 0 0
1559 1 -1.2 18.347452459010732 13.487418927697192 28.14431488514564 -1 0 0
626 2 2.4 23.637847591446402 12.746392734436187 26.947412435860073 0 0 -1
438 1 -1.2 22.34892405778927 13.144416222847246 26.2190523491309 -1 0 0
968 1 -1.2 23.832107238978878 11.646750769616347 28.248665926956274 0 0 0
1831 1 -1.2 24.175492565891116 14.67519849669107 27.373386497034623 0 0 0
645 1 -1.2 29.03464520221144 12.302938953824581 28.754809107243176 0 0 0
1298 2 2.4 28.928556433717205 13.914759036707975 29.29864794129086 0 0 0
921 1 -1.2 1.1366659061041522 16.161453159991858 27.70246093421586 1 0 0
1527 2 2.4 1.4911394910694296 14.780684059431671 28.442717526978655 1 0 0
2035 1 -1.2 3.08364184087868 14.949485219938552 29.1289685032103 1 0 0
2050 1 -1.2 6.000128372075348 14.792954732793595 26.639250053645604 1 0 0
1045 2 2.4 9.81958971805385 16.0355391947275 26.77518817661418 1 0 0
1812 1 -1.2 9.726657863518854 15.870195243963929 28.469574219880858 0 -1 0
1604 1 -1.2 15.306216928714186 13.387203765623797 25.180012786071625 0 0 0
369 1 -1.2 15.362404857123371 14.60427540462205 27.511137598660408 -1 0 -1
1465 2 2.4 14.547001627629282 14.52019202529316 26.061193521773006 0 0 -1
165 1 -1.2 18.392549359055618 16.092959915192246 29.0479976682929 0 0 -1
862 1 -1.2 20.507055137598925 14.91904144652775 27.98647659520161 0 1 0
748 2 2.4 19.175366802144453 14.682843875909697 29.01338162521543 0 0 -1
484 2 2.4 21.296560438883343 14.50441260787181 26.60768642508739 0 0 -1
1397 1 -1.2 25.65643944624951 16.071286970990275 29.425058628070804 0 0 0
1454 2 2.4 26.71927379221632 15.873605250499281 28.02613207461448 -1 0 0
2052 1 -1.2 27.0948425347037 15.084512970378203 26.798091505585976 -1 0 0
1058 2 2.4 0.1940813564957799 17.517249767610675 27.172704501310662 1 0 0
323 1 -1.2 1.2120726788070622 18.86929572507168 26.768704118848277 0 0 -1
821 1 -1.2 3.586178393692385 19.39881799729869 26.754773556130473 0 0 0
178 1 -1.2 4.396078758068399 17.02174954142707 26.071608274233654 1 0 -1
1418 2 2.4 4.7402248422386535 18.43051829957892 26.372964065021957 1 0 0
798 1 -1.2 5.019814569175241 18.320389541507666 28.34847609351066 0 0 -1
872 1 -1.2 10.663268637161512 17.53912219130145 27.375202950626193 0 0 0
1848 1 -1.2 7.73375343151675 17.67094495379751 29.225003735668203 1 0 0
313 2 2.4 10.72586138480882 19.162434845262528 28.20730533786351 0 1 -1
765 1 -1.2 12.37770865207639 19.41588915222949 27.696732773763216 0 0 -1
1303 1 -1.2 18.941227819083192 17.881401904404616 27.46084380314 0 0 0
25 2 2.4 18.816088720157214 17.571740079518516 29.129808207273165 0 0 -1
790 1 -1.2 24.186201702345247 16.945628002429775 27.478304898923724 0 0 0
712 2 2.4 23.788155752958975 18.649965476346917 27.58261266205561 0 0 0
1008 1 -1.2 22.330726507827524 18.418195297004356 28.438412170529922 0 0 0
406 1 -1.2 28.183990059170295 16.40609368077291 28.607729457747542 0 0 0
1021 2 2.4 28.64944696065019 17.804041511198438 29.27986978635717 -1 0 0
1679 1 -1.2 30.073783173020757 17.910845692590108 28.6155659278921 -1 1 0
1935 2 2.4 2.267114062169877 20.076735468789256 27.23047955140786 1 0 1
1495 1 -1.2 1.934202961048995 20.632879851669834 28.746541425262084 1 0 0
2153 1 -1.2 7.218711506080269 21.51887291503389 28.688296116416726 0 0 0
793 2 2.4 8.88657582622281 21.154104850657514 29.297400718263862 0 0 -1
1584 1 -1.2 9.255134052439418 19.74108748746816 28.342634683012495 1 0 0
757 2 2.4 13.826196953223675 19.738182979539065 26.989370548575618 1 0 0
636 1 -1.2 14.625187303323596 20.61645085078878 28.02179593806972 1 0 -1
279 2 2.4 15.421401831533755 22.011057453353317 28.790571818005912 0 0 -1
563 1 -1.2 17.05109331810431 21.960229322319968 28.323785722040675 1 0 -1
573 1 -1.2 20.049447624636063 22.03597145944748 28.917468144196004 1 0 0
1776 1 -1.2 23.361471790304076 19.70874224120877 26.323022593308348 0 0 0
1174 1 -1.2 24.988585643947257 19.15835840922379 28.640583242345098 -1 0 0
78 1 -1.2 4.883828155692662 24.27784736618031 26.31248787540194 0 -1 -1
1136 1 -1.2 4.432500629593143 24.215930871476445 28.93633087165964 0 0 0
455 1 -1.2 6.863112091147599 24.07704916936214 27.918958911123656 0 -1 0
2150 2 2.4 7.335454483817675 22.684737248791734 27.551600210206935 1 0 -1
1211 1 -1.2 12.255131890494358 22.993060494380263 26.703496615434553 0 0 -1
1108 2 2.4 12.919550779618062 24.032092490072607 27.724095326563987 0 0 0
2107 1 -1.2 11.695379025737733 24.44919784018303 28.780680588682042 0 0 0
656 1 -1.2 14.2893994805471 23.349051225278334 28.735922582942255 0 0 0
1827 2 2.4 18.476799930909127 22.66968858152184 28.79149499715815 0 0 0
113 1 -1.2 19.022246695131773 23.801564381913796 27.536951698439207 0 -1 -1
59 1 -1.2 21.03315497703385 24.48548961485689 29.167783069017002 0 -1 -1
115 1 -1.2 22.96515779460055 23.924832425656138 27.658267635291686 0 0 -1
1672 2 2.4 22.570965450343813 24.107883363204348 29.300455820684025 0 0 0
610 1 -1.2 27.86287501717985 22.550072821690073 28.502418426331424 0 0 0
1947 2 2.4 27.136960497336673 22.66820568921329 27.077333088268336 -1 0 0
274 1 -1.2 25.397129591578963 22.94370810446412 27.227011703915853 0 -1 0
75 2 2.4 0.6426658859736241 26.484652270450283 27.04609571343339 0 -1 -1
2137 2 2.4 5.527733561668304 25.00478540105027 27.67992492333311 1 0 0
42 1 -1.2 6.303352086461199 26.678135590048893 27.445972177504988 0 -1 -1
905 1 -1.2 10.555469604597008 26.900243053111986 28.84203937684805 0 -1 0
1319 1 -1.2 13.870983039116128 25.340820970071594 27.269081078427277 0 -1 0
1192 2 2.4 15.161009635602321 26.2912553688792 27.221106370950963 0 -1 0
582 1 -1.2 15.442431687742788 26.613965254024222 28.880259038286674 -1 -1 0
1708 2 2.4 19.50197948137419 25.074244796274485 28.27172532532315 0 0 0
177 1 -1.2 19.028438323346723 26.3123924626146 29.34373960284392 0 0 0
1687 1 -1.2 23.841440866147277 27.51842177321144 25.65168840342321 0 0 0
276 1 -1.2 0.6384144459336688 25.822912185094747 28.499127704301273 0 0 -1
1392 1 -1.2 29.706084515398462 25.79422811693896 26.683426572313962 -1 0 0
583 1 -1.2 0.9644607671664974 28.01402954832701 27.541888446049448 0 -1 -1
249 1 -1.2 2.080225490324035 -0.021153517766618904 28.791567757668027 1 0 -1
882 1 -1.2 4.208041071175912 28.01775413637449 26.388469629921204 1 0 0
128 1 -1.2 4.764215975294534 30.159606140067243 29.880517342286005 1 -1 -1
1357 2 2.4 10.276183806283306 28.185922070208125 28.04270680277253 1 0 0
1509 1 -1.2 10.764196813624014 29.76195851459045 28.814264564056675 0 -1 0
31 1 -1.2 11.997543502779385 28.333248284851397 27.228436033126723 0 -1 -1
2000 1 -1.2 9.25777925307839 28.395642309060943 26.678351215767737 0 0 0
171 2 2.4 12.275433858239522 29.415493740696387 25.978080166911475 0 0 -1
287 1 -1.2 14.97353981391892 27.87622522218558 27.001175769488995 0 0 -1
446 2 2.4 14.955919248538672 28.17366565337798 28.768707459542647 0 -1 0
2099 1 -1.2 16.171355087664278 29.386403652775275 28.551393782479792 -1 0 0
151 1 -1.2 18.79257511980577 30.00378894403135 25.932215108977818 -1 -1 -1
1729 2 2.4 18.61812084380598 -0.09842582679634042 27.360164952035355 -1 0 0
957 1 -1.2 18.48422899345972 29.11187925789988 28.557599501628154 -1 -1 -1
1230 1 -1.2 20.441793156714983 0.5509146950973531 27.769042548175136 -1 1 -1
445 2 2.4 23.063093957479637 28.953425811513696 25.43055303063562 -1 -1 0
133 2 2.4 22.257365911551013 0.139024617383036 27.533543768813427 0 0 0
1195 1 -1.2 22.492337591398766 28.95091672076878 26.995139129188136 0 0 0
93 1 -1.2 24.844390383234227 29.850744541817328 25.76285038881461 -1 0 -1
1284 1 -1.2 29.473545576865423 29.591631661894482 28.650682971713685 0 0 0
440 1 -1.2 6.370184154192729 0.637985859689312 31.892862160591722 0 0 0
1034 2 2.4 8.739373888931597 3.594133207922938 31.660416219844073 1 1 0
1748 1 -1.2 7.754386756809239 2.8415009925288564 30.32444263579816 0 0 0
730 1 -1.2 11.17302954732756 1.8309850582802714 28.917305897765 -1 0 0
328 2 2.4 11.945119601592996 0.18270918682152645 28.529505289188148 0 1 -1
404 1 -1.2 13.007473486936483 0.2920099958535776 29.766418279150177 0 1 -1
1704 1 -1.2 17.64714229666812 0.5595044863175447 30.328845700944914 0 1 0
92 1 -1.2 19.698852396471707 30.07291956709177 32.21414129548556 -1 -1 -1
726 1 -1.2 22.94294749417705 0.253124961586527 29.092758040702364 -1 1 -1
46 1 -1.2 24.79089985084043 0.28447474550696444 31.31752626839807 0 0 -1
1713 1 -1.2 0.0375344563995649 1.407217895962887 31.54749604526848 1 1 -1
822 1 -1.2 27.948564811309353 0.7721564454177369 29.75669522011189 0 1 -1
781 2 2.4 28.60762202141801 1.653812650067679 31.210046084125967 0 0 -1
1802 2 2.4 1.5172523874303612 2.0042842130440133 31.03833844163418 0 0 0
464 1 -1.2 1.4604217977865779 3.419395649779092 31.98910550590222 0 0 0
797 1 -1.2 5.6881569277600414 5.479003598872088 30.871018113974312 -1 1 -1
1517 1 -1.2 10.355540864190502 4.236188490396973 28.28927925746781 -1 0 0
2124 1 -1.2 10.0024911548867 3.9143694668808213 30.7933985040539 0 1 0
1287 2 2.4 10.805140583806732 3.269900590156745 29.512419728924826 1 1 -1
2023 1 -1.2 12.266156139610775 3.552194592874774 30.613774256470183 0 1 1
1132 2 2.4 12.042900352911943 4.760728836083909 31.76449267094654 1 1 1
692 1 -1.2 13.608714251857046 4.577525792613764 32.44845225636983 0 0 0
324 1 -1.2 18.148893348947333 5.202652907620052 29.688645232310584 0 1 0
1288 2 2.4 17.62381335221462 5.832427631334287 30.990815382555457 0 1 0
1889 1 -1.2 16.20756194628938 5.362340057173976 31.766843998974508 0 1 0
629 1 -1.2 18.933841320663387 5.314692626274768 31.92670588517331 -1 0 -1
739 1 -1.2 20.533485589178593 4.576960529056578 30.752249927677507 0 1 -1
132 1 -1.2 22.24421165192079 4.6606309616675325 29.464800041596604 0 0 -1
1504 2 2.4 21.948083115235132 5.526905261070536 30.957430460434363 0 0 0
1125 1 -1.2 23.049153049682428 5.0619279816050735 32.043008923197746 0 1 -1
1123 1 -1.2 25.459106259921775 2.721244018910878 31.246710815977043 0 0 -1
1810 1 -1.2 1.7036441218791374 3.094426136792675 29.588148263239635 0 0 0
2159 1 -1.2 28.061453528115422 3.458341364168164 30.577386865586224 0 1 0
244 2 2.4 28.188487239236487 5.029445094713673 30.63925258482082 -1 1 -1
1054 1 -1.2 29.62762190586314 6.090111622622165 30.65593524977383 0 1 0
1772 1 -1.2 1.3183898356912396 7.671016742506456 29.610332174634472 1 0 0
1743 2 2.4 0.3945062736792397 7.052412160421195 30.88775401520703 0 1 0
680 1 -1.2 1.6867912685184743 6.1482517666886025 31.283773578528375 0 0 0
1779 2 2.4 5.911288953845398 7.049556485328201 30.365615614883428 0 0 0
1628 1 -1.2 7.17274763658921 8.049243077186969 30.859690564471506 0 -1 0
1666 1 -1.2 9.97997415065686 7.382216287946041 30.326241319710537 0 1 0
1202 2 2.4 8.728491315873589 8.486443426433917 30.89790216920752 0 1 0
1466 2 2.4 11.686406555726988 7.959772423562303 30.853726123315163 0 1 0
847 1 -1.2 12.101912225291608 6.240448692209552 31.02678954832133 1 1 0
856 2 2.4 15.240919085373356 7.0927832850554235 27.243375518175558 0 0 0
1992 1 -1.2 17.736139727861392 7.426220526506582 30.920637002544048 1 0 0
289 2 2.4 17.413022133975975 8.658904841087727 30.0753965735814 0 0 -1
1379 1 -1.2 15.968990865224956 8.840767797261822 29.918782745183275 -1 -1 0
753 1 -1.2 18.04555505267909 9.126577465046426 28.727444243152295 0 1 -1
2040 1 -1.2 21.14061417982742 6.959488284082564 31.124685780275655 -1 1 0
1328 1 -1.2 26.800526798549292 5.547079913321819 31.666111248559854 -1 0 0
1673 1 -1.2 2.863242248074667 9.890925484126681 30.294968142348804 1 1 0
1682 2 2.4 3.5300294607528917 8.972941152464744 31.490495935046713 0 1 0
1157 1 -1.2 4.539541215394611 8.023554035929365 30.55325817724382 0 0 -1
558 1 -1.2 9.081392015153234 9.98784879438419 30.228181225964 0 0 0
1177 2 2.4 9.798886724741017 11.659241436349346 30.03780831352902 0 1 0
936 1 -1.2 11.31361486215163 11.464559549186172 31.095285629071164 1 0 0
1565 1 -1.2 13.224303614725777 8.409284416033943 29.90456304673076 0 1 -1
362 2 2.4 14.458533566382496 9.650402497182638 29.835814957432202 -1 1 -1
497 1 -1.2 20.341366992031666 10.167176695987463 29.989178466699347 0 0 0
192 1 -1.2 23.90277387229248 11.227680170625193 30.58157795301146 0 1 -1
1588 2 2.4 23.772049725355178 10.23210157017108 31.85824096771475 -1 0 0
964 2 2.4 26.86012454485923 9.663915327247137 29.307632109257554 0 0 0
1232 1 -1.2 27.552843346133677 9.12532091894475 30.734453077213768 0 1 0
1160 1 -1.2 1.2287143556673268 12.719799979273139 32.3887348297487 0 0 0
1435 1 -1.2 2.7596640215363997 12.627258849563816 30.238130423256436 1 0 0
1138 1 -1.2 8.703481921631125 12.232805838764484 30.93553482885918 0 0 -1
390 1 -1.2 14.647517978337431 10.682253297948773 28.537183319615696 0 2 -1
1431 2 2.4 24.97643321344787 11.793650364838133 29.25718699044362 0 0 0
377 1 -1.2 26.44591096656877 11.305639511897125 28.910538043085594 0 1 -1
848 1 -1.2 25.26481202300205 13.546944275307068 29.463560903273248 0 1 -1
1154 2 2.4 27.890167005941574 13.067987093425444 32.08727530761769 -1 0 -1
1557 1 -1.2 2.535889445642309 14.906871326502303 32.00062505746116 1 0 0
1117 2 2.4 2.62679731623891 13.413021169034906 31.690281701394365 0 0 0
1280 1 -1.2 6.31854922295476 13.874666116846699 29.267123603334724 1 0 -1
1595 1 -1.2 5.691549343410688 16.336278273384764 29.60945432446632 0 0 0
1741 2 2.4 6.557655980992308 15.227537929498293 30.282715377429025 0 -1 0
204 1 -1.2 6.098027168594616 14.909474557596456 31.82967157321724 0 0 -1
1367 1 -1.2 8.30584503942108 15.641942460512237 30.863117279410893 1 -1 0
181 2 2.4 8.955111235828449 16.771412152690605 29.923949085649127 1 0 -1
1909 2 2.4 14.35980344311385 16.3775824446539 29.57761779470793 0 0 0
742 1 -1.2 13.914186903960156 14.983443334460752 30.289160890052663 0 0 -1
842 2 2.4 13.930282979528169 14.409251938409845 31.98033722883086 0 0 -1
540 1 -1.2 19.42234542565362 13.970532914565691 30.51119586412507 0 0 -1
199 1 -1.2 21.476822806150608 16.208400253287802 32.154541427996556 0 0 -1
772 2 2.4 20.741285192500463 14.775041319653491 31.916715233752342 0 1 0
1643 1 -1.2 23.3831204049156 15.24501207491032 30.183244182433327 0 0 0
373 2 2.4 24.377783401972174 14.806550511477324 29.100339378649917 -1 0 -1
420 1 -1.2 28.368624270349223 13.713900481321499 30.784556582633847 0 1 -1
1137 1 -1.2 0.11064269949256718 14.42551308789154 29.456300017297746 1 0 0
258 1 -1.2 28.468707011094377 17.40236270487786 30.901138391324466 0 0 -1
1496 1 -1.2 1.0883103431288452 17.024342457634834 30.8751313470938 1 -1 0
97 2 2.4 2.3902603216755964 16.48545898443517 32.08213472808572 1 0 -1
534 1 -1.2 3.9402386451205422 17.320141014311055 31.840222044399265 0 0 -1
974 2 2.4 4.407131614491133 18.805824015515228 31.363754815515716 0 0 0
17 1 -1.2 6.078636102018355 18.686884267750997 30.957045667170476 0 -1 0
172 2 2.4 6.130040698272382 17.945092001831615 29.49108120986705 1 0 -1
1390 1 -1.2 9.85505438887191 17.386861750537527 31.31879898003801 0 0 0
2056 2 2.4 10.153545284222947 19.033418553648115 31.005952634203958 0 0 0
211 1 -1.2 10.909230823544442 18.64887105900885 29.687359528436534 1 -1 -1
2011 1 -1.2 14.912819141281078 17.843254848521724 30.189274696962958 0 0 0
1945 2 2.4 15.085278869533171 17.178742430086142 32.00941448698755 0 0 0
1652 1 -1.2 18.15176491093658 18.36091113445667 30.14676493332674 1 1 0
832 2 2.4 17.154103399457075 18.983792455618513 31.536835256604338 0 0 0
1116 1 -1.2 16.874703513285734 17.558353964617638 32.09598393923907 1 0 0
1891 1 -1.2 20.43758245979396 17.149443752231566 29.80522140379018 0 0 0
1419 2 2.4 21.49752647586143 18.323219518726287 29.926280008624023 0 0 -1
1586 2 2.4 22.748005571742635 16.55233244127573 31.201262730308226 0 0 0
1075 1 -1.2 22.14588929409796 18.140934053336117 31.246782448659403 0 -1 -1
48 1 -1.2 27.714836671867925 18.8507052805164 28.4231860799262 0 -1 -1
861 1 -1.2 0.10567313680962082 19.18002979333358 30.95458573974463 1 0 -1
1946 2 2.4 29.829126823184072 17.921129131103925 31.711496518599578 0 0 0
1902 1 -1.2 29.583543888877454 17.54840686273558 33.25323254533271 -1 0 -1
356 1 -1.2 1.5436421986818931 21.438380523452683 31.216287887222112 1 0 0
1609 2 2.4 2.7989875847190158 21.011696596448207 30.295288470897738 1 0 0
1661 1 -1.2 3.085631793384066 19.307431283902314 30.44572729924488 1 0 -1
1906 1 -1.2 9.131056842204854 20.365833209851868 30.850986545775395 0 0 0
1510 1 -1.2 10.775115606512884 19.93357192946643 32.38035389351177 1 0 0
1424 1 -1.2 13.110054867017974 20.334231257620285 31.681729925478752 0 -1 0
345 1 -1.2 15.79031404645263 19.704551179282653 31.57140871042227 0 0 -1
1237 2 2.4 14.636395970385495 20.909476244735604 31.846779795088715 0 -1 -1
1797 1 -1.2 18.281091898865274 20.129258125164267 32.046063256616016 0 -1 0
269 1 -1.2 20.973613672526895 20.058951319832488 30.295689658750817 0 0 -1
1359 2 2.4 21.158972866819166 21.582026438266517 30.09885794674186 0 -1 0
685 2 2.4 26.416408856474114 19.861826222054606 28.989541483702816 0 0 -1
716 1 -1.2 26.58893384070951 19.763014470348487 30.504968830733212 0 1 -1
1634 2 2.4 28.717891769565203 22.64523970219806 29.823811362278995 -1 0 0
250 1 -1.2 29.335134924803004 21.284562501584922 30.019028486572026 0 0 -1
1568 1 -1.2 29.856281459715735 23.8720278688617 29.540575090764424 -1 0 0
854 2 2.4 -0.024716673352532876 20.72765981962804 31.43619572579111 1 0 0
311 1 -1.2 3.829727811643605 22.179687875591817 30.297908264485848 0 0 -1
351 2 2.4 3.6829832720381543 23.794987911914145 30.27782104141508 1 1 -1
1402 1 -1.2 3.7947590891168472 24.711855757767427 31.725293195529805 1 0 0
994 1 -1.2 10.335867801586796 22.218603897879795 29.391509546238993 0 0 0
422 2 2.4 11.268546934814095 23.476766522681935 30.358767556741896 1 0 -1
358 1 -1.2 12.097769158997988 24.101793144833934 31.578180870676988 1 0 -1
1674 1 -1.2 15.017183156253822 21.883880291184127 30.45166164479018 -1 0 0
1170 1 -1.2 16.65857611710918 25.129110240218377 30.9133500483393 1 0 -1
813 1 -1.2 18.28425624125314 23.720618795835346 30.09982514247834 0 0 0
1549 2 2.4 17.91977995012745 23.98500152492024 31.760934753732943 0 -1 0
570 1 -1.2 20.46229670855111 22.252926583484033 31.499074254477833 1 -1 -1
1786 1 -1.2 22.368800152626637 22.513155306929526 29.96441791123231 0 -1 0
2004 1 -1.2 27.394789982582438 22.4379356039064 30.94333846396278 0 0 1
397 2 2.4 0.7282477295051266 25.053793831952195 29.85743493789321 1 0 -1
1950 1 -1.2 0.4662268708933204 26.267576783320656 30.903609784197524 0 0 0
1862 2 2.4 0.13863104439278431 27.72753406558348 31.412687540260293 1 -1 0
766 1 -1.2 2.0147269599634225 23.92510008553601 29.964789256575045 0 0 0
958 1 -1.2 6.333841683216816 25.818840971932882 31.692595702550783 0 -1 0
1631 1 -1.2 8.332707558185675 26.588702071670998 30.5898628817401 0 0 0
317 1 -1.2 9.817233187315294 24.318392283098003 30.98010552718332 1 0 0
1744 2 2.4 9.905147527080777 25.960912511188543 30.37870812039066 0 -1 0
689 1 -1.2 11.025211191659208 26.821777615224267 31.466169192319228 1 0 -1
2049 1 -1.2 17.94439571650456 27.590165589543687 30.929717769124164 -1 0 0
339 2 2.4 19.191848714344953 28.04084560233014 29.767027979739776 0 0 -1
1275 2 2.4 16.90180807549673 26.551344917259225 31.859889508387507 0 0 0
923 1 -1.2 23.279093110309546 25.37251553582008 30.199401681494084 0 0 -1
900 1 -1.2 24.471194675941202 26.95669915275709 32.45231415170965 0 -1 -1
1574 2 2.4 24.499941703562886 25.837283211487186 31.22887088505257 0 0 0
1579 1 -1.2 25.867593079539994 26.72757214723718 30.370914803843462 0 0 0
1267 1 -1.2 28.874333676169393 27.73352532831002 31.769966327663468 0 0 0
1693 2 2.4 0.7627964762708833 29.284656370357744 28.755555108248874 0 -1 0
427 1 -1.2 0.7923953905417647 28.509360647877017 30.27080242082448 1 0 -1
1767 2 2.4 6.147579468756589 30.20637233937265 30.658135568104576 -1 -1 0
1204 2 2.4 7.0449269657509666 27.301862742796867 31.23533700944702 1 0 0
1871 1 -1.2 5.72566086934574 28.338351684525136 30.972996193196956 1 -1 1
85 2 2.4 13.612912637248204 29.94490728763568 31.13708409191164 0 0 -1
526 1 -1.2 14.35563468108341 28.567983586061295 30.418120783352265 0 -1 -1
1991 1 -1.2 20.46098294966004 28.089697309824533 30.92678013727258 0 0 0
412 2 2.4 21.49095980774295 29.313165365056097 32.002758318022416 0 0 -1
110 2 2.4 23.765700782433367 30.03644228883451 30.22142792644721 0 -1 -1
442 1 -1.2 22.550620677570848 30.22475213794115 31.44306012487335 -1 -1 -1
95 1 -1.2 27.17266301207574 28.84330979779006 29.358867162765435 -1 -1 -1
36 1 -1.2 24.689650116835875 28.801197822698686 29.607869073993836 -1 -1 -1
26 2 2.4 26.082896876048586 28.29122672213029 30.25362996692118 0 0 -1
1605 1 -1.2 6.774736157998367 0.547053280677041 34.32444167581768 0 1 0
796 2 2.4 6.788460375269261 1.6075806160253905 33.227839710246705 0 1 -1
1770 1 -1.2 8.129782236132192 2.5101202162718845 32.842546593340806 0 -1 0
1667 1 -1.2 15.610459841016695 1.403211954707577 34.39512175615702 0 1 -1
997 2 2.4 18.569243889630766 0.6526894323479819 31.570968294497302 0 0 -1
10 1 -1.2 18.17626714724027 2.5934202056935223 34.70526882696177 0 0 -1
661 2 2.4 16.554534581052124 2.5876899083142866 34.38768789850946 0 1 -1
1543 1 -1.2 19.140314594292803 2.2536513018617006 32.23343926954708 0 0 0
1972 2 2.4 19.634995927342334 2.411757170108201 34.477487958525025 0 1 0
1539 2 2.4 24.747064057882113 1.508649034549253 32.09714932637331 -1 0 0
2041 2 2.4 26.495339345647693 0.9406209103124926 34.127751003608196 0 1 0
426 1 -1.2 24.915835190427167 0.7570237837745669 33.69134532120962 0 1 -1
683 1 -1.2 27.76687388723251 1.4305862636162523 32.82934129699089 0 0 -1
819 2 2.4 2.242000662624209 4.706701462386711 31.944105093604954 0 0 0
1833 1 -1.2 3.743459326290167 4.4032325718224845 31.571709472503997 1 1 0
744 1 -1.2 5.468387378358493 2.5870334629174563 32.919861125841244 0 0 -1
1047 2 2.4 5.3557037096027935 4.231911663061205 32.18572824284247 0 0 0
1098 1 -1.2 8.234880199805419 4.946575205157664 32.48873099771559 0 1 0
513 1 -1.2 11.107065643976256 5.024762790240634 33.06761155197635 0 1 -1
977 1 -1.2 15.597743234504833 3.6512551383243284 33.64280185756602 0 0 0
831 2 2.4 15.074557514804608 4.967028143659722 32.72315521550712 0 1 -1
1330 1 -1.2 15.248736234077754 6.005186590359243 34.04305523093177 0 0 -1
987 2 2.4 19.771938384893776 3.9479772953027785 32.107681241375076 0 0 0
1235 1 -1.2 20.51428219016043 3.5500199950345452 33.64898085580649 -1 1 0
1344 1 -1.2 23.31807167699916 2.2548028493933687 32.78559705675576 -1 0 0
603 2 2.4 23.90142191931192 3.794656572024196 32.64086658698813 0 1 -1
58 1 -1.2 25.09653104139128 4.237304284704874 33.757298617893795 0 0 0
625 2 2.4 1.15892377801824 5.162857049590233 34.69799066744948 1 0 0
1078 1 -1.2 0.03384814755791734 8.119336853064054 32.12147595964786 1 0 -1
1200 1 -1.2 1.7536531433933515 4.985613801763175 33.38096989030346 0 0 -1
1225 2 2.4 7.375171736000179 5.4031478170530525 33.79941414636167 -1 1 0
1469 1 -1.2 5.770205617612276 4.8907028116827975 33.57926321589347 1 1 0
191 1 -1.2 10.266134485303445 6.986958240458559 34.351224451887624 0 0 -1
2139 2 2.4 8.895564310565485 7.926319619306032 34.14534553883245 0 1 0
114 1 -1.2 8.764632211826225 8.40901172133413 32.65918993195499 0 -1 0
1795 1 -1.2 11.651765166445156 8.96402651647174 32.012713968964746 0 0 0
2074 1 -1.2 12.892238967783873 7.268219817860581 33.74667294463196 0 1 0
1552 2 2.4 11.542781154942967 6.130115258569097 34.11151395076175 0 1 0
40 2 2.4 21.706161727755617 8.145517663428338 32.31403730206393 0 -1 -1
1260 1 -1.2 22.083332453853423 7.2891354661143275 33.58204813154078 0 0 -1
140 1 -1.2 26.032927826452916 6.902878357994226 34.08264899294832 0 0 -1
1057 2 2.4 26.667062837775536 5.523587639596656 33.32495588851273 -1 1 0
1879 1 -1.2 27.830093248300415 5.134665044519202 34.44323912030582 -1 0 0
1512 1 -1.2 0.5825035787588893 6.650279272835624 34.34621604848432 1 0 -1
495 2 2.4 1.2834904945150323 7.86788152320054 33.5171496248294 1 0 -1
1062 1 -1.2 1.2549379479096248 9.316858767073798 34.44199603943461 1 0 0
82 1 -1.2 4.291845006294021 10.270555624976923 32.345957055682234 0 0 -1
1872 1 -1.2 2.7522426801683157 7.8529762599798 32.43194517673247 0 0 0
1843 1 -1.2 10.389605224210426 11.00993360753908 33.590040684226565 0 1 0
333 1 -1.2 13.08644318811226 10.440844210047995 33.470374818734264 0 1 -1
2043 2 2.4 11.702022812639665 10.564374952389043 32.43303833383441 0 1 0
1985 1 -1.2 13.977832762714442 10.315117978812275 31.13222511874461 1 0 0
1750 1 -1.2 17.999135658739437 9.736812325013405 31.320642106954033 -1 0 0
2148 1 -1.2 19.95606978642079 8.472042381913473 32.4261182965954 1 1 0
100 2 2.4 19.545382606874657 10.02908357637217 31.525131166265222 -1 0 -1
120 1 -1.2 25.208570847390998 8.569121735879794 0.07172931320888402 0 -1 0
430 1 -1.2 23.07378143789999 8.799788044785338 31.652526622121208 0 0 -1
1660 2 2.4 26.89232390537751 8.248663181992173 34.79579385250628 -1 0 0
463 1 -1.2 25.43890679649364 9.530903224246014 32.135682785030234 -1 0 0
1297 2 2.4 27.102233337738287 9.801191457378627 32.39341571289876 -1 -1 0
681 1 -1.2 27.772474056944475 9.291608351653275 33.73872387308126 0 0 0
1551 2 2.4 1.339993272601657 10.779105720674572 34.85773699057831 0 0 0
624 1 -1.2 0.2835511035978258 11.735947234058601 34.12779008043704 1 0 -1
1018 1 -1.2 2.790566077859408 11.069298139370762 34.500240052557224 1 0 0
1264 2 2.4 0.21130651276263604 13.345107539533506 33.49493655127043 0 1 0
1011 2 2.4 4.0170253334317865 11.591304201949361 33.48394741403857 0 0 0
1259 1 -1.2 3.75225756370433 13.045974852006779 32.791713567245445 1 0 0
336 1 -1.2 7.797806180727022 11.976973040060397 33.42097184916098 1 0 0
1091 1 -1.2 5.1705755466838585 11.522698614852965 34.55854520410686 -1 1 0
1936 2 2.4 6.652555113848331 12.36779893945255 34.58283770989357 1 0 0
12 1 -1.2 6.423990920896388 13.829093405785711 34.34417674506707 0 0 -1
1706 2 2.4 9.39649975705836 12.07139633913103 32.7844702068528 1 0 0
622 1 -1.2 9.853770474391006 13.775262799724253 32.9462920102659 0 0 -1
206 2 2.4 14.47372489647314 11.201282361630824 32.553657090652266 1 0 -1
1377 1 -1.2 15.97064761984569 11.05732487656384 33.27989714015364 -1 0 0
1901 1 -1.2 13.960756480925221 12.599523583862897 32.14344745050975 0 0 0
44 1 -1.2 20.18148751685658 11.49770241079845 32.07212631758532 -1 0 -1
1081 2 2.4 21.61415425157994 11.987557001635587 32.666666063594846 -1 -1 0
1702 1 -1.2 26.576649260868088 12.925703079469523 0.1514664433944699 -1 1 1
383 1 -1.2 22.773651297830657 10.885207671081696 32.90732225212644 -1 1 -2
18 1 -1.2 27.4390036138634 11.475008439796149 32.14802492851707 0 0 0
666 1 -1.2 26.86778046792898 14.072534473569753 32.990402325315706 0 0 -1
2143 1 -1.2 29.150214851971274 13.641719279521615 33.10559223142517 0 1 0
37 2 2.4 1.6873927619280176 16.316459917106638 34.83700843556204 0 -1 -1
215 1 -1.2 0.7114019293403169 14.435896423018935 34.753494196813996 0 0 -1
2031 2 2.4 6.567322605726771 15.296158931118123 33.397455528443096 0 0 0
137 1 -1.2 5.836611532146376 16.3954814870107 34.08225475216211 1 0 0
1573 2 2.4 9.331019097851721 15.069183511775206 34.053722756850256 1 0 0
799 1 -1.2 8.026534237542108 16.03357717550388 33.397170400642246 -1 1 -1
1050 1 -1.2 12.51115940840731 14.600818931206993 32.72682657358057 0 0 -1
1815 2 2.4 12.020044716666975 14.701465705469094 34.31966934528463 0 0 0
787 1 -1.2 10.70997222190066 15.771932087849814 34.34703370335002 1 0 -1
393 1 -1.2 15.022195752816694 15.568418597551005 32.39273288751245 0 1 -1
1578 1 -1.2 18.164131061218736 14.606527641954765 0.05060484396357401 1 0 1
1023 2 2.4 19.286543454688964 15.655375913573257 34.75012194729012 0 0 -1
1380 1 -1.2 19.841789408264734 14.777042224314819 33.466166299583655 -1 0 0
881 1 -1.2 21.714791045253687 13.427363074612327 31.782954024129648 0 0 -1
1965 1 -1.2 22.633627376978698 14.96300437246558 34.65567635800209 0 0 1
1069 2 2.4 23.966825063858575 15.776964676262116 33.88103786558995 0 0 0
749 1 -1.2 23.97788001176119 16.053633530000234 32.27544807475023 0 0 -1
1197 1 -1.2 25.489814284622554 15.435404684505631 34.60255216837592 0 0 -1
1405 2 2.4 26.744174493838173 14.314229010346919 34.4775583070273 -1 0 0
809 1 -1.2 2.2850332698691678 17.037239944352923 33.55479978590456 0 0 0
514 1 -1.2 4.6341543695320855 18.725765716502387 35.01909194195429 1 0 0
1070 2 2.4 13.109835558559665 19.33229014733591 0.6352850510081413 1 0 0
530 2 2.4 14.245645833476626 16.867574539121147 34.94489064079555 0 0 -1
1436 1 -1.2 14.31993894367481 18.14855177532768 33.277343367054925 0 0 0
2081 1 -1.2 18.44358722967744 17.189408767726203 34.2880459939823 0 0 0
779 1 -1.2 23.5884100010904 16.973495720001562 34.90794346850715 0 0 -1
1449 1 -1.2 2.0405318368078054 20.092224180357686 34.605053468752224 0 0 0
1447 1 -1.2 30.131870486662603 21.4067596841854 32.76360004739355 0 0 0
755 1 -1.2 4.472276966697626 19.896595782467404 32.53370950735683 0 0 -1
239 1 -1.2 4.106240117125944 21.409691110194185 34.37153880797231 0 0 -1
230 2 2.4 4.948225352384753 20.0788117932538 34.06585232354357 0 0 -1
1016 1 -1.2 6.5466935100595505 20.006083022293875 34.28326250473463 0 -1 0
1382 2 2.4 12.103129620086378 20.74057135745251 32.84349674443748 0 0 0
634 1 -1.2 12.905997523889548 19.389433891680376 33.810491051914084 1 0 -1
1698 1 -1.2 14.90153019371522 21.018484174788547 33.59882459531322 0 0 -1
1122 1 -1.2 18.46966082005903 22.765040688092196 32.413325049570645 0 0 0
1394 2 2.4 21.250652071287664 20.569906058143598 0.01177983522608818 0 0 1
411 2 2.4 19.33640758991928 21.41965529530582 32.28838820609534 0 0 -1
1845 1 -1.2 20.2907372033666 20.71179754850949 33.46987891937082 0 0 0
711 2 2.4 23.4989689762095 18.369155185131238 0.7441103932289164 0 0 0
346 1 -1.2 22.339345247917716 19.395831703989987 -0.05279876531441423 0 1 0
1560 1 -1.2 24.4909534985177 19.501235932516593 0.41489299761255616 0 0 1
1439 1 -1.2 27.51907586373102 20.898580408424976 33.27298383766845 -1 -1 0
1993 2 2.4 28.384601681548737 20.626444950653887 34.75141813055362 0 0 0
1892 1 -1.2 1.6549064143785341 22.45581813473884 34.84011656395232 0 -1 0
212 1 -1.2 0.42116124959640644 23.913601886429028 33.759058807827756 2 0 -1
547 1 -1.2 7.625864608705307 22.25306042627574 30.96410098315673 0 -1 0
2112 1 -1.2 7.552795561177752 22.59598856849597 34.11682764049297 -1 0 0
1020 1 -1.2 5.734365930106518 23.463156443785813 32.90400155473087 1 -1 0
2149 2 2.4 7.112619323553231 22.726660903783156 32.38245035531417 0 0 0
1890 1 -1.2 11.937414485636296 22.40704142511587 32.777973105347805 0 0 0
125 1 -1.2 11.434151416326493 24.678731945813137 34.205599725717015 1 0 -1
2078 2 2.4 12.44631274897196 23.94420832820323 33.26186430737447 1 0 0
1654 1 -1.2 13.988620227809795 24.278257230392214 33.36043282931749 0 0 -1
1482 1 -1.2 22.266061498393515 22.223855155055716 34.73291270367992 0 0 0
504 1 -1.2 24.388860130817374 24.649353219526272 34.30030893349714 0 -1 -1
719 1 -1.2 25.479070798192563 24.922250623936097 31.916642932833803 0 -1 -1
1252 2 2.4 27.296799206572075 22.0809250397276 32.43355357945495 0 0 -1
1585 2 2.4 25.900668873358665 24.28273376260621 33.4820769496674 -1 0 0
221 1 -1.2 25.855301213461246 22.61205910329882 33.28052136143766 -1 0 -1
43 1 -1.2 28.44857208167006 23.541226976738358 32.788832177708805 0 0 -1
1817 1 -1.2 29.13968526939543 22.21164664286335 -0.03713913551568535 -1 0 1
220 2 2.4 29.575353078673967 22.808362176234727 33.804211765839646 -1 0 -1
1500 1 -1.2 0.5325397008267654 27.908924958637183 32.9638367210394 1 -1 0
1621 2 2.4 5.151808970282933 24.856359420835197 32.369301178350504 0 0 0
1194 1 -1.2 4.967244084752492 25.8334417563461 33.74068308296988 1 0 -1
633 1 -1.2 7.2365675913188126 26.07187083726432 -0.06645115691506923 1 -1 0
35 1 -1.2 11.181738494389645 28.25191929811534 33.943708960892266 0 -1 -1
826 1 -1.2 13.514520374403611 27.06825670956138 32.57734902897394 1 1 -1
2029 2 2.4 11.923887453218148 27.590790172279466 32.70376090237252 0 0 0
198 1 -1.2 14.131620137559 26.11583050862038 35.04035648748385 0 0 -1
782 2 2.4 14.408552983188423 25.87876360798963 33.4201564247854 0 0 -1
919 1 -1.2 15.859075547911953 26.571803093510155 33.155394664773105 0 0 -1
1975 1 -1.2 18.071702677538603 25.32312653129078 32.98645132860709 0 0 0
366 1 -1.2 27.212339810530846 24.976757328939385 33.879708311646205 -1 0 -1
652 2 2.4 27.415491088296612 26.530137592893507 34.556363330547434 0 -1 -1
1644 1 -1.2 26.93517971580177 27.79877592281387 33.62149618939338 0 0 0
227 1 -1.2 1.7717652592950794 30.03190118560659 34.327206386809344 1 -1 -1
1251 2 2.4 0.5219790987962436 29.08762501692437 33.99463637129441 0 0 0
1086 1 -1.2 7.658305663140757 27.996333385667747 32.82908156600328 0 0 -1
2077 2 2.4 7.6394897209019215 27.54353360604908 34.32265821034183 1 0 0
2071 1 -1.2 12.650100705423645 29.133081336737437 32.21471386333439 0 0 0
562 1 -1.2 16.23818678321747 29.038504696875812 34.16785190326258 0 -1 0
1937 1 -1.2 14.809645673656682 0.1796009534901615 32.12572536068429 0 0 0
1898 2 2.4 15.899910764607283 0.19403529416629853 33.37283954765471 0 0 0
307 1 -1.2 17.387290565411245 0.07804500231006783 32.73757036523953 0 1 -1
1870 1 -1.2 21.696592523861867 28.72623228118688 33.50422458867161 0 -1 0
705 1 -1.2 26.70837127943802 28.789035398360593 31.70478709871234 0 0 0
678 1 -1.2 27.093510735242642 29.967323778646062 34.22834378102015 0 0 -1
783 2 2.4 28.191936449354095 28.865794953837792 32.54892947531049 0 0 -1
1725 1 -1.2 29.404053921860744 29.74860967607297 33.283186287517495 1 0 -1

Velocities

2009 6.363190656230115 20.474055350060745 -11.734739678453305
1828 -10.017081254064568 -9.895996408201189 6.369070537115031
1677 28.796625665898347 2.921297065874717 5.1117538039249215
1002 -15.168917756022868 3.726399693280156 0.6872043359779066
229 1.7232520546816819 5.739579553052811 -3.734065720612327
275 2.625460946780905 -9.33873025384509 1.2696497791483559
380 -0.8379718354884852 30.68068740071016 -5.006321469031939
1140 13.927078269985886 6.936884970916254 -3.1191760721022757
468 15.929346777092713 26.75490192249307 -8.682081344888841
1657 9.551182974106158 0.3062763145348962 -6.536936639783978
528 -2.514933859487608 0.9607369794226416 -23.580292841874
129 -8.637851967427398 -18.761510198029256 0.5089627131513379
134 -11.33242045418725 11.353377186659975 4.283303282886777
485 13.860720302090964 2.8611255613319546 4.654590078873001
1281 -13.512715826136224 2.501243142971277 -18.436056698868907
857 -16.627830316627783 2.4682509366676757 -1.8230488123958297
963 -11.957234518288336 -4.429167858417712 9.362626684660533
996 7.858718133103336 -6.301507154493031 2.9354191223802575
425 15.796601530163525 5.895828701414948 10.872095519899595
80 3.089762087782663 -4.258027818762341 -20.97716293053197
2028 29.739234057424788 8.332982282958437 -20.238511000401903
2109 2.9096060423690044 -9.153091550423468 21.544037734049937
1606 3.9765867156622363 -15.287906821367038 -2.642597896740586
1317 5.724565926854686 5.508377352067819 11.148076791032414
1561 5.222133028634656 -3.1530450935256233 10.736133754050094
1134 -23.592462567742185 8.377005815517897 11.476908063874555
471 -10.709627277726081 -10.790227331481292 -16.805354123926953
2025 -3.487234417157921 -9.084561487402572 -2.608014884820413
931 -20.3569493959948 -11.08193754946727 -3.8913599428101
1671 13.115633772437572 3.2118207281249416 -9.60376958799655
1438 10.535034580809263 7.655262953277732 -22.313648000362495
1593 2.4146330797633184 -14.30107545198213 1.7335489638488615
394 10.480381242494392 13.205579394005866 -10.487837450861893
1711 -2.669970336121484 2.5615444198352533 15.680962620110735
553 7.094241477284428 1.2295790548741785 -0.5865616262740544
487 -24.601084116550158 -7.479260197362425 3.378981833240842
470 -2.2342949038467563 -12.946196372780276 3.3237746922802667
145 -6.413871459707347 2.11549432412955 -2.1556757898081313
161 -7.101673432004847 3.1004968949859415 2.7336792830089016
180 -2.348345679500104 24.794358647699816 2.1939710924750337
1984 8.52076889659139 4.246052743052133 1.4005830036682068
2093 3.996219654369353 10.589922069914588 24.1745498415188
1558 -20.479982872983133 -8.653959600958682 6.310800561438605
384 13.898985274618495 -3.138277255375728 17.538982565815402
280 -19.36133054230713 3.323081361180889 -1.967415188949741
1384 18.551238347151042 12.724289019224612 -1.6279428874312571
66 1.7046421984882052 -5.434417190853622 -2.848194747077611
225 -9.38249211682049 16.480245263847667 -19.42754451602319
702 10.205227394857829 4.9963564288215725 -6.787008700819092
432 1.15216416492865 7.22964836184489 -11.346907224722594
615 -5.649238095480133 -5.111607422067162 1.5904489351220983
1456 -13.580270746408514 -15.500840163768697 3.2942463639498394
444 13.588774055278341 -1.542519874387273 -2.867841510136249
98 4.691373497986512 3.56603313665344 1.3965682162637845
1896 -13.121423665345363 6.017460048539362 -17.609350374169324
516 5.830756205241425 5.865183360938495 -6.700321055351273
879 3.2753587177868426 12.124517493790368 11.496341184741887
1015 -10.002003350723996 -0.5139325188131952 2.646631364180135
1944 -5.750789467485309 1.2518508467693608 -2.4037920521055174
991 -22.824642091782767 3.1585961327589533 -10.507482261035115
284 -19.956766662582254 -5.382273782169372 -13.618463072933999
1010 -5.518117134164316 -7.617037373968437 -3.9676071727885263
839 5.139029659396724 16.410979500183153 -17.30022363537867
515 7.687625853499725 4.89571216980426 12.904634122349432
1129 13.065724211824948 8.169925117650603 -7.762028060256987
1577 29.05358547046544 -8.078057333302594 -5.408204326748564
598 -6.868181887140019 -4.374326620352325 4.013042141224801
243 -0.7677258640517994 -3.064112392512298 1.517588326199248
286 -1.6245064305625667 11.080577307495235 -29.238526712460562
1169 5.043208744962097 -4.938415368460959 5.545825802023212
2101 -2.505111473513218 -13.76973470758257 -2.984950392540815
1234 -12.925457708307501 -2.856361265727218 -7.986118890555972
618 -17.832971696153137 -1.2393508073638206 -8.766329653611546
1087 -24.242720790870212 32.691651397941975 4.379810829300379
574 -24.427708468960926 -25.657890866256476 -1.935220319572867
302 -11.228470615003088 3.500091035073433 -13.197736216296345
21 -21.26500889630398 24.031030585410114 -9.704750155316495
1924 -6.140696907463972 -22.74866575809995 -9.404251118255393
701 4.679381473930058 -11.0660025126837 1.5841923129780036
1094 14.956502880904168 -13.253396361552115 -15.907166797143764
1295 7.592691864264709 -31.319694354030673 -11.408147218282817
152 -4.178185188562672 3.9719968726640738 7.256696894503994
877 -2.4067355649799222 -7.274597417890955 9.389833261608324
2100 -5.713789422607555 6.858087988062508 1.1644528768077382
1055 -0.1706744363190794 7.711702269791668 -4.781592055960159
2038 -3.0781943138398224 17.55207051779633 1.6568847311354025
1928 -4.2988419318039215 -24.03028848425269 12.907651720032339
1696 -2.703784459119924 0.5991564777054934 -9.629283150806213
542 -12.945994756093574 -8.723951553465682 -14.052948063575975
1457 -5.95492797456847 -8.542536752911417 21.43381066605941
587 -23.83641865225611 -5.458377490946977 1.311415731523221
982 16.99083478875967 5.502180230503683 -21.73973051116574
1484 19.751981630739824 -12.03166417604611 -12.168128034352653
2007 -17.347909927596067 4.51023889185519 0.8373009055392844
1219 -0.8363744630260477 -3.6434979213406673 7.184250096744906
1006 30.252647020103296 17.08713164050306 23.306178150738127
1754 15.879476971589009 1.9048106518948862 15.060088752063567
1118 -0.4113358798878203 -10.932167911933274 4.257152977399305
453 -7.176999864191754 -8.350544207446209 15.112940886682347
396 -2.335131472623794 1.0266619082602397 -20.948367094354033
874 3.4173761231884114 8.207713284887266 -10.677666919474111
1740 -11.711477265729403 2.729033514987053 -3.853451630763143
673 12.015807885157582 -0.7360758234046618 -12.824571750121297
1607 -13.34574982002609 9.02860553970236 -3.1159821165604815
1590 -7.886092707480347 -4.7516186870127335 7.536856316567598
197 -0.4240857775342912 17.036849959369842 -34.875397062388714
1760 -19.211333828259743 -8.614277948366674 -19.33100061273965
301 13.25014105781949 5.2770660355105425 -6.020705328581697
200 -1.0733277870256064 -3.3172493749946335 -0.6862148043407901
248 -24.248954531683207 14.696134979480027 11.085283746700604
868 1.051402200459178 -14.85149171763186 3.213409397291437
1024 -9.77258399901269 10.584891474341244 -2.1782929831324402
106 -7.260342674018038 21.222889505028142 -25.32991179343419
353 25.526667740982067 -1.9758157591244097 -4.412021471974445
1885 4.416442301688307 -2.9403730463315614 -13.858315409116024
2104 -7.511968408300234 0.08584161771407918 -2.039487834477465
1427 0.8812337998956052 12.292800074336672 -13.219908874995847
1306 10.440621347402182 8.481308147609784 -3.2758628717956406
1391 9.428267112516442 2.0892400094000223 -3.411827259232498
1151 -9.3091987758148 -0.4408366940515666 5.027528966113792
703 24.76310546777493 10.824464419334896 -24.908076041248844
2090 4.370926898087331 9.217074560784061 1.6070309637641813
1846 -8.61066210569394 8.976384162096485 -8.931939914803115
1189 9.091472473331153 -5.5583478669762645 7.363853538140512
2001 25.49938547910103 33.0735815891115 18.68760092762928
1583 21.972034716968228 -6.200124700729231 -3.159576751345158
1085 -5.322121417357965 0.23536797129614642 6.908684211106145
342 10.342816685729408 -4.702851076779605 18.423771787106187
338 6.355899487695768 0.0724009408099034 -2.8729461790371356
1250 2.765907309627843 -18.837981619753347 -8.064986580034647
1855 0.9177105916872089 16.529758933034145 2.210601942260803
682 -7.825960559706397 -1.8450100673318819 -26.2292908774267
2030 -7.854847329910644 -1.0231986285287302 -6.8387617587630265
1653 -24.02086336165155 2.323443299888406 3.3760589411183166
939 -11.252540526423495 -12.455125360244985 3.525367754008755
745 17.707306353642792 9.02760273155991 14.246959605574968
372 15.718061936292665 -18.005674823493987 -5.006351978893837
2014 5.761353992632012 -9.793408467624758 -5.537204537189929
1274 -5.437261129520043 -15.749643036848756 1.4672609148367657
1883 1.9988138977329182 -10.013409509748872 1.0157689520603366
83 16.07754851607047 -13.507551841006237 27.81650529553709
38 -15.801759639146344 -6.753800710724954 4.335814668471549
1228 9.098610501421739 6.966329730883835 20.432984169277923
2151 -15.024734185620476 2.816833429151947 0.420167648152927
2136 5.055335295472841 -11.408568957117087 -12.092892523639904
265 4.889920731889504 1.8807200752553965 -5.709191161239475
1710 -8.667341092149735 -5.5985925518865525 6.485671892235899
391 -13.668511274120135 9.398863479572421 0.07140592664071475
1048 -1.504896650684893 0.8628209396228085 -17.84701865301462
1361 -16.879197065817827 11.762671252981898 19.8927190766822
1387 -24.525523878268235 -4.473727602626508 -13.978932165814328
1801 2.263145135202166 -7.90962188294798 -22.743653665869925
8 5.604970018054805 5.042732582721573 9.208061778384545
1632 2.818662210253033 7.049384098844469 6.885555368423334
1851 -13.932036625282583 -7.834753233685378 -8.980816518617896
708 -5.005045509091607 5.927699605967514 -6.904161291936912
149 -9.602024709038433 -4.4294740193021305 -18.71741716575231
326 -10.718898810952242 -0.004075329723381848 3.671947064941856
63 -12.008126450087069 0.27534365647521436 -3.9312127628294733
2142 -9.872052855795944 -14.422819268551914 -17.39039642589349
1703 2.356403759165401 4.24698306428385 -0.19666214250945427
1145 -3.8530456932251296 -10.774539895974899 1.475479089538046
117 8.23008605530639 13.048137870336632 -3.750252941000032
365 -2.324913358842916 -10.71578856514499 22.506996951397475
722 0.07088434627372397 -8.767657871401385 19.3431751196878
1231 -28.055354907283373 -16.696238144724056 -18.32693276199828
1884 -8.972282412438547 -8.364856579401355 -4.319844746346569
1072 10.000878223439395 -2.889571571580258 11.338891887341639
2018 6.772202552324072 -18.95263868122156 4.659964133124642
1988 -26.568241446362997 8.470911830976084 -5.338535280873099
684 -13.222756287565261 -33.13719358870088 -19.556006546145376
1914 -41.88786786310221 5.729201055096885 0.5511616151671276
1592 -0.792125776557304 2.742666243876847 -14.762219080064169
104 17.35002107515643 -0.7957417911278313 -14.93518215632821
262 -6.357291260099335 12.53375098451141 -13.621587453124281
1372 7.005813130142968 3.9037670435573504 -18.908014926987555
1354 -6.807158699981985 -7.013503654264893 13.923070492025003
568 10.390821975756838 10.058890647125223 -4.864173002690211
1187 -8.641998794105415 27.20160909141381 3.8282234437692386
50 7.442144007105651 -6.8186859737421495 -8.529070119078659
972 -7.024359746435369 2.352449245463143 -8.758807712986002
2085 20.44865740430271 4.446087901253454 -17.330129538278776
2127 -10.04220476612529 -2.5747894733653425 -6.662584909554832
1488 11.647933209077303 5.531631329815104 -22.056661833671736
2125 -7.566353282808447 6.2977451732605605 -5.240657838610305
956 1.2272832394059905 2.6213725900019447 -17.671352142911108
741 -17.87647668005963 7.894361723347537 -17.88718454869525
410 5.110589505606453 -9.082549982016948 18.598643947365158
1668 13.419411600143114 -7.036196100243902 7.247533741439785
437 5.805778764778505 -1.2888601153631278 -3.2899704442735693
9 -22.946115552854348 14.623290756494825 2.0952683802679855
1263 -13.401630407477597 10.473385076620813 -2.3954094387205576
1864 13.086244752660058 -13.402366382253945 -7.929548409391455
898 -9.090961682866935 23.721169046313417 -14.829492563200489
1464 -4.342311599762226 -15.267802201505958 0.21783071218543298
1912 -6.063604994090882 -0.981769391120055 5.622542496730398
1921 -3.723577096093732 9.489174800547724 8.941101354828731
1386 -8.413675532509426 2.581739108925251 -1.5072800421093113
2145 4.06331393294585 22.050530880511413 -6.448846021741768
658 -15.728554549448635 11.154985926109605 2.5972115726904152
660 -14.083315553612556 -21.861918465672268 8.331708444647681
1534 -0.3403284168811846 -5.183928735224527 10.940128099896098
1043 11.42062854795593 -6.49904588490991 -1.6308832002926743
1837 -24.997837910792168 -6.019717927732287 16.440798134564705
1782 -12.18473247135139 11.718732216502035 -0.7672231108657782
2002 11.342638410640753 7.657903579869764 7.191913756905513
806 0.6924092310832477 5.837936673529881 -5.183200558207912
1304 -24.276956862341123 -10.864018934821969 -8.300025592343111
1647 -1.0978069287879575 -4.641583422462963 -1.8487287664616627
803 -6.095564841255116 -9.903475946712794 -16.566769827161064
60 -1.9393686820225378 -6.451843040297828 -3.66789147818787
240 -8.088319737698525 7.275736836000855 13.531457896945925
1453 -2.775483456547285 9.459060271188308 8.193564973803936
768 16.53923989604628 -10.09866548730968 4.217433874161015
1248 13.915197311344551 8.453111705215768 -20.64047173754346
1537 7.055748610901831 7.577981390304465 8.77409572829246
549 -0.4438028142924384 4.055830936106849 -2.0108963890535922
1156 12.757114185901806 -2.5614440944170154 -8.14952572355876
2012 8.90529540215353 -0.4993647716012022 -13.600512694542847
795 1.7963939255876964 -1.9916141710623614 -2.2363931415602756
2063 -18.44239906436941 -6.808771621233237 6.986176515712457
34 -2.1963082914975196 -27.15425615763027 -14.3462053750476
1867 -2.8905439463306477 2.4348059448423016 11.558982022325162
2075 5.843353008531144 -15.77563000013596 -0.44102911722784094
364 -4.2167903390104255 2.031741617595079 -6.903871047013904
642 -8.559656835003272 1.5124462292788818 -6.715292891573645
1545 -0.9596249555507588 -3.792138317932431 -3.4962746192429757
292 -7.66648879875571 -5.081258531299377 -0.8069271853832436
948 -7.941430512437622 18.306084336352765 16.648180375716503
1900 -9.116655980593672 -8.428618814358735 -2.5239496013920575
1506 8.818373098882967 11.039098209876283 27.205938627843164
1120 3.537565572481128 7.935280169053395 -0.1869151538282589
260 8.209773487101643 -3.2178143322226815 6.712963054581371
1636 -11.409587988375819 -10.02226877377242 14.970516524587682
1270 -12.1456620315334 -4.30457660153032 11.290184903638842
706 13.50044036453852 -3.902012375806097 1.9485411577553189
552 -8.536857663829403 -7.875967250762433 -1.1474402318048798
409 7.267701990165399 -6.30950744639828 0.8346732144595582
493 -0.881591910426293 -13.454836992239843 -16.768489675817772
1475 -15.724068647113134 3.9427983501228794 5.109430481473652
163 8.550194469501996 13.837777836297576 22.96091796792566
867 4.009573783258458 3.752804295029171 -11.967941736898524
155 -14.126344561492834 2.921349477715333 -3.352201723378918
1990 -4.798426699140982 26.683571184792587 9.096714386806262
1620 -6.160821889593277 21.21569298534137 0.6623710367864463
891 11.738387770465982 -8.020063567337575 -2.934615019325906
596 -0.7280958873115784 25.953779907790278 12.287633155883292
989 -1.2433482744868245 -16.558633720015727 0.8595322188082714
1948 8.737203329155218 1.347817579562254 -2.214674503078274
2111 10.892206458790064 -9.322884238544747 -0.5262067785703385
1218 25.383428359168015 -2.350463089076213 -14.77705720815134
1165 -7.814380842521558 4.1941170776473635 -11.361708238257613
752 -2.6940031886680784 -1.0541858126923342 -2.6912909918433714
1752 16.57424232372231 -14.084242131030615 29.131449042359424
254 4.521909715205759 19.399904276763632 2.6375380233744954
981 0.11898509014128149 7.046132375087332 1.843074389811301
1182 19.015751201705726 -1.1558124142378756 0.08221129768896034
315 2.046418496519966 0.33962675622778693 -0.2122892629620522
800 13.669735549155968 0.581519606968413 -21.294724685183635
1220 12.576801187976548 4.277199687050365 -11.588519785544085
1826 4.756130558327647 10.371914233113461 -2.095651490851392
750 -3.1576417731163686 6.193496724826014 10.001527957405132
73 9.133836315201622 -12.683207043049949 -2.3185888958607586
1497 -14.322027483929793 20.056141342575856 17.488978679196837
2055 10.087411569886967 1.9441641270609018 -0.6899354520905899
1415 1.6583121295853611 -10.911670252231543 13.69970727835847
1799 -5.556015692199466 -22.1847207893605 -12.484526417828985
1516 15.850080994214409 3.5508174344918273 -12.35279548689674
1728 5.276486237078671 4.8500124111972935 7.221321907490895
228 -7.6791000592167125 -15.215500944639311 1.6017083137354768
1700 15.019561164165351 -4.570726597740185 -8.316546271594024
731 17.616469136576086 -1.9252951235244289 -4.651022141782541
421 2.7472464725104673 0.8806622603604835 9.01554495126846
1186 2.5388863051697306 4.471772664956078 8.927622546770916
1446 -18.347155102084844 -13.29988241509712 13.738524565392886
1201 -2.2714983582792474 0.042351381936041294 -15.070221964330669
1726 8.637427145082693 -1.079751438216244 2.4160760063068847
1329 1.4053457956110884 -19.765507907077023 11.044763637788938
1171 -5.461247160010459 -7.405215060768751 1.3728301280981918
789 -0.7998890638207932 -0.6189098742105116 -0.7370402167896686
2105 -6.022888719422632 -20.972509663607614 -10.689424775101996
794 5.801392035284792 9.845955864821734 7.651216388484501
238 0.08992199276750933 -10.601618238447577 -7.008208234432135
96 -5.6381411032445765 -11.05129517134702 -15.478516257958
1894 3.395327106270735 -2.2883646788141707 1.1219590287772663
1444 4.994995066422819 10.799392900447112 6.0339827631021095
1272 9.961157803387687 8.827423240532987 15.512382805491944
1429 1.743886942767311 23.381837031441343 -7.047717105119064
1452 9.863584716693282 -0.39527058704041995 -6.444056602351389
405 3.9686422867231332 -20.383271711372117 -5.2041821961883725
20 -8.677471406921292 19.62961758788576 5.127141744441186
1408 -1.1999527872845246 12.220552459093751 -5.033081371493108
257 -13.643079419721138 12.617655623443419 14.125367862147579
600 -20.278699365963956 12.38151847060197 9.437763563058809
208 12.667273183319196 -3.3874372608109855 10.707870803545863
917 5.6609437169792995 0.345197647971903 11.476138664503836
1518 -12.687543598914372 12.898102480636403 -14.422169985299238
76 -15.95116173069269 2.531213776531482 8.055269204601782
1683 12.790413984751249 -25.22480351504135 -1.2030155081974472
223 -1.538720407055398 6.190631136556425 17.2946331628613
910 -8.504275614147334 -24.51100825123141 7.277020087622677
1158 -1.887600376105888 -3.014047733441052 19.2117045449316
392 -3.2024203229468227 3.019434559721916 -18.776995053163127
2076 -17.965828026763155 -9.87026262525469 1.338693093527615
316 -5.176546709972399 13.774132499579688 13.220772019319984
1471 8.269906542140774 2.707971890238063 3.5700705157264796
1878 21.05625827893595 -15.706990309867274 -24.340324937412827
512 -27.545259169855722 2.4970483681830453 9.061788742842118
818 -18.608466400623225 0.44374341866261957 2.3636531941292174
886 7.031411117975162 0.5805879518909789 -3.5069298223633036
1685 7.836473244751781 -23.5716502696754 6.816665982515015
354 4.681614005291272 10.395368510332126 1.0436896733254004
903 13.478236557773812 3.646681572232851 -11.472979980752418
299 -17.697534322927222 23.283353330996775 -27.34618387798033
567 0.18815386655923402 -5.465922500427167 5.112940890469097
1111 1.1408055390704899 -3.430473444681567 -2.8476420666421953
1860 0.05591491276706391 18.321141660780466 -32.78620157158729
1105 4.409264811400013 23.425936270756978 -4.859544441584552
1553 2.521012732697035 -26.083869224924786 8.256730840731782
1381 3.6319406117698834 12.268884522092304 -11.289072764979728
899 15.898693293429298 -17.875258930021506 -19.276939935276204
1420 7.496198132537279 0.552777364170332 6.923691534171809
309 15.383570011328366 4.065306000639985 -3.9579571195544254
1626 1.121662245598294 18.98084949147604 -14.45813543482155
157 11.510474469502563 -3.388237538163847 -5.996161743926278
343 -3.127779784055024 4.3123255405434024 -10.601769893126601
1569 16.342481074004326 6.9689741594759065 -11.946058572886376
2140 -22.767783964298406 13.99434491960047 -7.882743533219202
812 8.98424021811555 6.214236973016793 -9.734033048883065
1166 -3.6021326311733195 -4.3023656022968355 11.934512937611078
2094 9.033956552307469 -34.39092151378525 6.498135900349448
1114 -6.0877869962792825 3.847791140209415 -9.879951770158948
1758 4.167220397301699 16.274657810697143 7.802606477305714
1336 -20.618860896398346 13.650478949300773 -4.673195336220218
2062 -9.234272513790701 -7.683138535620206 12.916546680403822
1611 6.593417005957897 12.695348953554593 2.655860162390939
1920 -21.7681713983819 16.359834485836213 13.524887650639723
1598 -9.151186273412076 -7.31536012557551 0.7054737957082322
1460 -8.76252193182061 -2.2416935601099093 -5.973595715498698
594 9.800980056093993 9.22854148269064 -13.184562873076702
1430 -3.253420275035303 -1.577099079286263 -6.233406151384362
414 16.03302692212774 20.33230172166019 -0.8065824962436722
1422 2.782780038015733 19.752502497443405 1.8522470441170291
407 -0.2381091597989239 -1.354969185528405 16.53657187844953
586 -7.021998944944624 14.397516492644833 4.474844303120843
2113 15.638148949145966 11.90328169322618 -4.650621304368302
295 -14.345404127800093 9.288330819235066 -37.70810496142572
245 15.194643005387576 13.44989561141439 1.7699068781046816
1222 -17.625531487389335 -23.815808304080385 -4.446261853924658
16 0.7788074379751752 -1.6075408524140407 -1.2160423747191043
2092 -23.569573260864175 3.444575899423218 14.99735652979932
141 -13.721515038797014 6.6365578904227736 -30.356440566465785
746 -4.164192934333415 10.9634825009857 -0.3385161938307653
1570 13.325463413440323 -5.927052753665788 19.0016299539534
1806 -7.702635216926036 20.112957680382063 11.243175083497015
1566 5.776104160775088 7.751201573588713 -4.225454828960905
667 2.643852723948208 8.611948912352581 -17.33589451384272
1803 20.000678173956203 2.9263954442776687 4.272522029496043
1115 9.132179676080863 -9.027546888480074 8.61452871230691
77 22.920061171637972 27.201188673309 -9.572842971622523
1214 -4.560582568489013 -2.834904933594169 -5.528157984905472
670 -4.326735703609352 -8.368432194009356 -8.904610743925419
1374 -9.199190039072823 -19.002300997816 14.055610237049496
866 -14.231259200754078 -0.5749825639349968 5.154249480937442
1065 -10.7119481393463 12.006445339794684 -21.689029255173853
533 -0.34324112815810076 21.506371230189764 -25.80726001540501
327 -8.775961445480458 -6.851342679489475 9.035105256016028
1963 26.546879249076394 -5.3157302014683 2.1932981123783897
644 -4.702051526898044 -15.204298725368485 -9.001123203062416
399 -1.3937526480963722 -14.168272369831644 -4.566374757188194
2033 -8.884143606862974 -0.5002995299956743 11.777888392478468
985 1.6255298992884781 3.052867619371739 -4.353073714672149
271 16.00286744847706 -9.548097905606458 -0.39847477191766273
1940 -7.017515378613676 4.629656919162626 -5.442432522518256
290 9.040315411705278 -11.850925788007267 -0.28826041688292586
1337 -11.796551836718848 -15.498389422256052 17.866789834561175
45 17.636395836951422 13.369636776033113 -17.491752726743506
1804 -11.318711556464498 -1.0550177980507562 11.441786521274329
503 -7.509594858506493 -7.368068959659303 20.011513440194047
2116 17.117099112335037 -3.0781521504015976 -5.390639315165454
184 -0.6259073738206916 -4.505300007970182 -12.716412910677143
1681 17.976663874321282 -12.20502561727057 -3.8469656494927293
89 -4.442268635356833 4.582813050188839 11.26853622604813
1133 -5.168141587835013 -14.054677947965947 9.660904005304559
2087 5.9968525082516155 9.353179327474804 -3.6837816267661707
1753 4.398217236189839 -11.966091499334148 18.15892160142941
845 5.305111115170632 33.456714960982524 2.4353577117609015
785 12.50525390822401 -0.8967156885062891 -21.354632225931272
52 4.117380283299063 19.736819802505302 -8.287736837925403
1318 -9.86891072126506 9.81744987859396 2.9306975750736757
1383 -2.1528973944335745 -13.1567647382887 3.8844081561367347
195 -5.275763117116039 -1.33654921186881 3.6283572658494747
150 -23.52092540646487 1.0222007334944834 -9.719625004523019
1185 -2.1994840818759838 7.859482790547701 -11.361781527368175
1243 8.088409590035871 -2.1854981226097205 -10.970978986035647
869 -17.08334908234438 -18.053190377529983 -24.23661543767086
423 11.730934525348248 -10.000195045705702 -5.348386219474107
1373 2.8150722315245447 -2.1788204152936435 1.0905664811173492
632 1.16888272213271 -14.97518172188675 14.473205580492419
2123 -3.943769951827863 12.94607922242041 -9.129651125857345
561 -9.808879887144228 5.89628928018145 -15.545433608271026
147 1.6064597105986316 -3.0245201050868484 -14.16023520879581
912 24.472197435438865 -7.988398101052506 11.902231738363373
136 -15.963981722605418 14.58197338154603 -1.617673952230411
255 5.432527326732376 -9.242967613538816 2.2326767202158058
1061 1.4789674776948245 -6.067445846323503 -2.676491695520227
630 26.136566339065894 2.9668802621974364 -6.898444325796127
807 26.232773431654362 -8.326332619877173 1.0043486773233896
1649 -2.095203052715987 3.722635601567374 6.798019041414546
1056 3.7490372717412526 -12.308058469410794 15.900311216814565
1269 13.15822560766301 20.41998349669502 -28.67043608980895
1183 -7.43782614018206 -34.948676192882665 13.799825404250974
1825 3.9691311028187646 -1.4550209459339756 3.1799599618762646
1555 -25.636168964236138 12.784958139302981 -8.368934533926515
791 11.159064707492155 2.27510268779659 -3.4063673506887917
1981 7.017233296270819 7.054580315595023 -6.127490675752689
1040 3.233054990353432 -6.7586980560436745 10.63577387254682
1612 -4.079380108624657 6.267303569652874 14.848870598149555
1757 -11.020164838966632 -5.2201904834716695 7.440309807183637
908 3.2553838790323497 6.924518341971415 6.743750554648858
1730 10.828071301726053 -1.3755070302771806 -10.840104512161322
27 -6.857264131375777 6.3399398837226935 16.06294204369336
1104 -13.842537975990405 -7.728844115309869 -12.259451857280522
1790 12.176779256256898 10.737579371040965 -0.7821429311146407
1362 -11.843995641692636 -11.842720725646412 3.5344131049296243
56 19.20212303178718 -9.478278373519913 -2.35608750536807
1432 -0.6550033387599308 -2.5208995888775174 -23.43884988523793
1229 7.114517067039402 -5.403240337377179 -1.814554723200045
950 0.12597106685990295 -8.52346479567203 -18.444309045094602
341 -0.19811891894974287 -1.462188079753566 1.60697040609256
112 10.924147926018826 7.343424371326876 -0.9901920602387
954 3.3018066416471497 0.03698994194236332 -0.9178112929295511
1511 -1.67777929927078 0.8512534342653344 -1.518959008241015
1732 -15.015397381454184 0.7858163325903162 7.978202647819795
1009 10.311720980044997 10.144274750626987 -4.488552253580259
1925 4.956773216173549 9.753362959831135 9.304020876085398
297 2.158086942821296 2.9856667566382877 -21.747055422355388
1714 5.159042329002125 -4.495366298448609 -6.116128576721413
1608 15.65410966066842 -5.252670809072216 11.954300131694206
751 10.618317039794356 35.25777094869893 -16.410834430761668
522 13.252671964445915 -20.247258924225868 -15.545855064189643
815 -5.541566926409101 -22.62803159792069 -8.997043730284645
1254 -12.97671522033022 22.767938088700877 -1.6268786286936983
1095 0.41467636644951167 -4.710580803806171 -2.713472065760547
1244 10.242986487596346 4.660753882505256 10.052626746067377
210 -7.817431153685475 -13.79771561013891 -23.21310016356452
2005 4.169760781703986 -9.826752148198674 -16.375604451231222
1144 7.867675782015163 8.845155322445182 -19.74820320595476
849 9.699778660354129 3.597222173774133 18.09925673230649
1967 -26.280572700274206 -12.75135741687377 18.623828546075227
1755 15.036039917954987 4.115962450809156 14.606721273791624
1172 -9.254014648736527 -4.227270440002459 21.77926209186823
1762 -1.2283966247598652 5.6247020647330395 0.23567720606995193
759 4.6376738835496605 -4.873577941833947 -3.9748634551989785
1333 3.645269410576965 -29.76856972649973 -11.614363664402575
876 -27.496393309539762 20.43993766377605 4.96347913824142
1715 -15.053107644723463 13.925671152958675 -15.275913037819151
578 -0.08686957552172118 -5.657008731645906 5.988002136675693
2046 1.3729961782533027 7.832939029645051 0.595998949241174
231 4.089896744240734 1.3397036384219174 -3.039255757474665
500 12.309673484301822 -12.19853208178044 17.785732535220543
907 8.353032182342915 13.281563117829249 8.65030180283247
138 11.740745905699793 -17.843514072281298 37.53585376316659
282 -3.3552424203803692 -26.610952571846237 -1.2038298793837399
1502 4.884095282288405 11.691469444731233 12.814549282173337
588 18.7614524237482 -11.295665045857273 0.9995628813125267
1039 8.87716211848725 -24.161416314269175 -2.14591831386805
1897 0.27047357097296393 -1.0400377940922307 -15.756677853898305
2070 13.885420570292535 -2.689998636387067 2.6800784174624708
852 17.737419085590123 20.012185560869707 16.52882745589219
927 10.706073658746464 -12.434218900956209 -6.943011170357065
1289 5.649497197322967 -17.50865458875904 -7.793857855167938
1388 23.00541484073943 -2.189089365890285 -9.090238803291307
952 1.8642668517957814 6.972448505287517 4.492753220605496
1339 -10.655365058822692 24.972388821503827 -4.293564912249293
517 -5.431725924376407 8.21026914050369 -13.587646375300057
1433 -25.461447271597255 7.602617394957348 -2.145498303783093
348 -1.6190911838685447 -12.794837021334605 21.469467834570096
1853 1.8042986590302408 -2.445698775504872 22.02771537924565
187 -2.0637847559093885 5.418223065204981 -5.231301325133307
122 11.274421240322253 0.22959060156705338 -9.949444188887636
1092 6.350242545901681 -18.800377133115617 -14.46325149289582
174 -8.614087451827327 -11.401025581216947 -5.501323690223051
1033 3.9465278367000582 -2.860397260394626 3.5643630584235284
2147 10.132951067722876 -3.0439877595298332 7.372993032718385
1257 27.68108068341866 24.379409942378008 11.095304908562248
1360 -9.949931416331156 -0.6093252624119144 -10.310218416580334
737 -2.0416074473551693 33.928260667654754 -0.18539828633069744
724 -4.74072488639845 -7.423506604933394 -0.15638310287879756
72 -9.73408997270876 12.582631672377184 -10.24162841245316
194 -4.3910646668249145 4.122463075262669 -6.652400608304726
1724 -15.094673183344575 -22.03346006527551 -27.564455432318002
226 -11.357604959152596 -15.475507775201963 -6.802567764861667
2102 5.0629372623133895 -7.216428927455613 6.268475097550834
539 4.78039112019185 -10.728836758762375 9.304526077749724
651 -7.1439695069939315 -0.3308908430747308 -1.9946068387407736
413 31.199513101304937 11.132896358439677 -9.81772062998443
1233 -9.577856215626262 20.363961512029345 11.325494470160734
1646 10.664872656755206 -6.471156139235582 -2.2055392762579142
1224 -10.228701434717088 -35.58788597502565 2.1187609335414384
216 1.8798165285569906 -1.4023274447492255 -7.930982920107529
967 14.242971824111995 3.794586735986675 -7.239817473315742
677 4.027916736809993 -1.4443829067783658 -28.307664601916667
1957 -9.555851427082587 10.619955815687259 -2.4947798055801997
233 -7.260061568035827 8.761061297404112 -8.762443458566825
1625 3.4049362932217107 16.449841696643222 7.648219820928326
559 6.488231091418894 -16.211008516946865 -11.713290987759663
1919 31.636006121595436 7.363232957862212 -12.353666725625118
186 14.032968441396404 2.353423464846962 8.360144505197713
838 -7.757000464698417 0.6776202257499132 -8.117163369759936
1787 17.319858987887518 3.5436503328102305 17.80809188907173
2160 2.353992126791054 -2.0339736947450557 2.780642788577096
1490 14.284137328437394 2.3542571017851155 11.71525110450564
1256 4.131804555290021 -6.74513469692357 -2.6153207104106886
1084 30.289610827831858 3.939179494239488 10.21709683020244
2047 -15.011614635967144 -16.927570238006425 -7.9221401555040165
1305 -8.399863635114782 5.7085356509967315 -17.664235189892793
188 -18.677274429744077 4.358818138678188 -14.201278138067217
507 13.871701260378805 -0.789258940712841 11.871807271849596
638 -8.815907304261078 13.667558274872562 1.3152095862502935
1162 17.043392277289225 2.0713454058731506 -8.04138335265
91 3.392738418820943 -17.65438950384894 12.460783176813644
2131 -9.344280665569933 -19.162819303343557 7.961935651353198
1563 -7.8512181058716575 8.187383976601021 -3.1273177960838643
1292 15.280796474471819 -7.990909811976119 -8.050357198276624
382 21.139007466612206 -12.683431331113177 -18.325293954925062
153 -2.774852117900781 -14.212583360871582 13.107871762007912
663 0.9275004169743157 16.551492218575888 -0.2690386177684031
720 4.44274344603661 -11.906767458162237 -32.12764503802654
1089 9.967937334717769 9.621781029856063 14.661688511050755
1524 0.639891463873771 16.130291732660037 24.865785707990526
449 14.702355084389977 15.521210453090626 -4.619522072860015
1526 -1.9332717846025869 -4.464853125217617 -1.7341524981873404
41 -3.6853014369014554 -4.41860219405331 6.061464193252172
417 12.124796673317459 5.337685167362606 22.237879324466558
1690 4.765204564618352 16.91409528862602 15.074208622385061
1899 -1.1261036606895538 0.8953491547023282 -1.8202259648446566
524 -14.52007654324713 13.867843632689093 20.799233341852737
2061 -10.997438481190327 -19.239534190120857 4.561097918819197
139 6.100846496672161 11.84618937953172 -16.947351243156774
144 11.211315086117576 2.750198050314846 2.798676647536998
599 2.0232184806368934 -24.576379650300417 14.153854510494389
481 -7.167428531224875 1.8427594915891983 -6.732319956964434
1863 -12.231986721281663 6.069408929739589 -3.37790441266921
1705 -9.889195438513887 14.295893165624316 -6.225289753254199
1262 13.481760763220906 -0.7486733058007891 -10.977974343430642
190 -12.083066905683106 15.513031232721731 -5.783083874802847
834 2.190226703320611 5.440195054134144 -11.100466778590656
1521 0.9667101450057001 1.7823585819974759 -2.8772549640214855
1 -0.9570573430013655 -11.69785480061804 0.2610750066768059
1437 -9.25994661658064 -10.747425659387938 -7.780646630214468
1519 -20.71411226180771 -8.478443574642887 -5.018723761717513
148 -3.031665743357782 1.1277504049539502 8.036034619575455
121 2.550327617290206 25.88650388103004 8.471805315400346
691 -8.280823021522382 5.309429559502086 -19.392907357096693
1014 -8.640520939953936 25.858721636240205 10.585545538269196
30 12.480577280408761 9.231902194932784 7.747139850783424
1773 -20.017662285587306 9.116441572461916 6.135770526167091
1100 -20.875975900924637 12.029065712778355 15.40012290371929
817 -5.7157396046992455 -1.2310585878407332 12.906338870412679
930 -1.3479128756265863 6.522059895242245 2.9315496538525765
1996 0.35028053634394973 6.075621886272631 -3.994621409897873
418 22.756304105454447 25.94913571274575 13.932522055837762
2021 -9.618728728550291 -1.0771272659226312 1.9761342782105273
979 -1.7492185474071973 18.655048933154525 13.960647072956098
769 5.341791778331328 15.06535336110969 -1.0110434248975408
1363 -6.287279898394564 -9.216577430500786 -3.2761071893901472
1351 -18.443362816347886 2.4732521977475295 -2.8469767297098634
792 0.9254415561616459 1.7183269754341752 -6.271479320862949
1624 -3.3107127464036097 -5.939530455500804 -0.3545437410621436
945 -6.0677489369089646 10.839226508959118 7.078157770794237
395 -3.1677901335461764 -9.881888869991949 6.895452390062153
247 -8.224443285557612 0.2920210158310957 8.185276274347856
352 -10.96449972093281 -4.850691071236706 -20.403215743818624
1331 -10.00402424607559 -1.963793047741545 16.918412921657357
1368 8.922176369575276 0.6999959619062301 21.535145036488807
261 6.929251183773581 -15.734028078217943 -9.640517041045603
592 -3.21194119783597 -6.017114800130635 10.86928139812488
1042 -6.953002680175154 -12.864574000948844 26.927549097680565
1241 18.523211019525498 3.0846478146774747 -1.4816593810421823
828 2.271014680831822 3.1926097114498964 5.814681325539524
1830 -11.165659298016768 1.8882230137739298 -17.580301314273868
675 5.117622669100897 3.2678133003831613 9.604743024518227
1127 -34.25865051791964 12.986226241444077 -24.338079743625023
1575 -15.569083442063796 -3.7672077624235354 9.095151675092625
90 -1.0613506625975206 13.820785464883404 -13.433897264233307
28 -12.394964049113076 3.4570656455073787 -8.623454712212009
1952 14.249531389429254 -0.17591792791714805 4.712317754294083
434 -2.5643736102211308 14.363946808613537 7.1924237980091155
462 5.885686926838402 -8.84198233694184 -4.460556832255012
564 -1.7568385111058857 -7.401648884477602 -0.2246191633082349
319 -1.608412594055433 -14.37843716303388 4.793433749341059
639 -11.810131342531745 -3.827649015592424 -8.929705770751491
551 -8.58166970262655 -0.36069563252278725 17.09189962990989
305 -29.877402668060135 16.825677612345114 5.342397721848148
761 12.489446226763926 9.928589840642777 -2.6874968879516254
1343 3.6867254855082967 -27.146293448991614 10.87527956485462
1279 14.589234292475545 -1.6273667025776888 -14.645616840056068
728 17.217981224564525 1.7997808262848904 30.107681020566627
278 -1.234638443810181 1.1194561938695775 6.428379280232075
1978 -19.669944229828936 1.8378768492432498 -4.699088592153541
884 4.845980060653483 1.151803943181319 10.39787325962912
1514 -3.907539395292311 -7.94227307796954 6.402249565800167
949 -1.5637456694988672 -2.4436983168614392 0.9200671104292304
1076 -31.362373184231902 12.514137333314967 17.152675540020464
67 16.24878718271858 -0.5125607146311459 -14.716936516232714
1794 -7.351431855882158 5.829416256200469 -11.772370219717942
457 1.1630068898272667 5.126478867710803 20.91226280180492
1964 1.6585983954293126 -22.983810628436625 -9.005629163466862
1781 -17.269357152033848 -27.906447791595202 -1.3818316559214208
1442 -2.671750322346417 -2.4893980277535315 -7.625490112546141
1053 -14.087400319050975 7.011431919063744 -10.12377906614939
1261 -10.017822529480837 11.214561107367425 -4.448891879129439
729 0.6087542935560998 21.17242463114022 14.062939448096264
887 -13.731124122305363 22.012017776685468 -8.984568843959371
865 11.168257494508913 4.857384715496725 -16.089853764286453
1051 -8.277735212500803 16.89679292628974 1.7122974532748876
649 -1.86767910806537 19.79674347814565 -4.599921103168668
2079 -21.58322400947934 11.032184838129545 -4.006240052035514
466 -0.6370828135446237 -4.372990219022576 -15.982088434237832
479 -12.906619750155572 4.940468048601469 5.459464058284677
986 2.7379631083173286 -4.756936881968137 10.528814017593895
259 -11.964242396837852 -2.744167687291058 18.51772573297618
1844 10.858058976981404 1.6815959863119543 -8.841490815637206
1861 -8.970453456160515 -3.3538037977324686 13.717440265198222
1523 11.476564764931798 -22.606463357740935 5.991360906295316
1686 18.823713532769712 -2.435642781474304 -11.227377087669689
1326 -23.815383821426636 -6.8774103924778975 2.588256980167905
1342 15.653516760090938 14.497180595864553 -17.60432074766687
253 7.030764223014319 -6.3237534581954575 6.036772758880535
1107 6.008995848158802 -7.768348913706848 0.8647548805865899
2121 9.775286324665597 13.968711853145845 6.5235004382976465
308 2.4292759990687283 -0.5909963867978618 -29.387486873858784
123 -4.3344793233631815 -3.060141180079521 -11.533477407963462
1638 11.203955529434984 -16.526568864647146 -10.230246030629175
1027 8.391512936920146 -6.208006282775362 -1.0647661787705698
1877 -12.12998992220893 -1.011687670950487 -1.8470953933557692
690 -2.578882457047073 5.56067397305804 9.30002358002201
1995 -8.971809953522007 18.29007280005405 5.34910917592872
1749 14.697536575814418 0.1240979377738548 14.263418985873335
693 6.2272748915648535 4.170072350894024 -10.950336408194369
1997 10.576943870696473 0.2378080213377555 1.7786151478563688
577 -10.352719170503157 -13.075997335716385 3.4108189967078744
450 -9.152260529786433 -12.228983483246973 4.756009295476282
1346 11.955401640654681 3.610526949654909 4.016603743297242
321 -19.893624400463242 29.42028811051764 -4.6003862941669444
2036 -9.375302423644026 -14.589831327680088 6.540388269912708
415 -16.861840657004997 10.323682422008494 9.334368865468106
2091 8.518379519826754 -9.340872246659625 -2.4490045543550316
116 23.836800279092593 -23.39083164626054 12.193477340336864
1327 -17.457462896899106 0.7664321236459238 -21.41776987508928
1461 -19.2067638374638 0.26228343291301137 -11.053258462202669
1658 -0.9761844055749059 1.3170700212634137 2.1286276219775004
2155 18.540255309813233 7.1393173954515 22.576972703407474
915 10.001141965467552 15.126561948054716 -10.552582749601546
1589 -6.9907253230069175 11.49094406205248 10.520576978184462
1852 5.927250495391299 -10.570784490089812 -6.193215009565496
88 -4.195525814870042 -8.367285071671102 -2.4925067808210666
1271 -42.511114948932246 -7.1576724683831445 6.611800311329468
403 20.21612941776125 3.708890992431546 -3.9719880344360776
1150 -0.6403649083802785 -5.876174405645841 7.963928083461282
1131 4.105312445414547 -4.196402166663073 -13.994588009174283
895 11.575215225915096 -12.025066196686412 -2.2452573861029466
439 10.811916380460746 14.090011898629058 -13.220688566941464
605 -1.5209803694494668 -3.022753991296761 4.410985792169294
1370 -6.350863872125383 4.332661336068073 3.8246299537751405
859 8.582781330328146 -3.660965602478188 -8.151563129989162
1161 -13.611395661108904 -0.9483537639998998 -14.614655056153287
69 14.045859011262515 4.388244317315128 13.235959735590274
1074 0.15629750622102564 -11.658151609453393 9.8659173669613
734 6.208164889815653 2.026218924193989 1.5361169584586003
725 14.035836298583392 3.967075400230737 -10.334555002301526
267 11.037261565056491 -2.172404642343317 0.23436197557027935
1445 1.730496787712722 16.765911601531723 6.9890480403329045
1426 14.20226920137321 12.7594894401115 -11.739025572488579
1663 3.59896421107991 8.302090591467525 6.308316400076541
1478 -0.5018773002050158 4.748969820564547 -2.5982170222027277
1258 -9.178442864860214 0.6474190429413298 2.136729180818327
518 -9.871681028886382 -8.154846639291057 10.13261570640952
379 6.240064707692967 15.0817745717702 10.816963649953014
170 -10.362247314276809 -5.603104804117296 -6.092972976555476
476 1.3766041299320948 -7.361874745102493 2.426746270345129
1987 -2.8253261074837455 -4.818923838560821 -4.521856972015531
1178 -10.62143489045652 -1.5389673788077203 -6.0167472712307575
502 26.19508554530838 9.493227653527798 -12.761766471833539
419 -14.86847661182689 -2.5675495298564965 -3.6529488572743687
2008 -1.8578219574453967 -2.522183567015098 -3.607596342064685
2119 14.564473769456617 -3.1231531158725714 3.1062711264880076
1407 -8.504880622061561 17.171209915896405 7.2032345220873415
320 0.7775703249588648 -3.0169139600086243 4.690870771008115
1596 -6.320756534287439 4.250244096369318 4.819068062900772
219 -4.242334683837482 -6.6392536911888556 4.569279959442821
1193 16.394965045714393 -3.359962285982791 6.221571003538812
1210 -7.11185547669727 21.059763242284706 20.87582610328738
773 3.841915854462633 -23.637444034393862 -3.684363433363933
880 -27.909918857574947 3.395540972104109 12.088954509946515
2086 -8.08830265603811 -10.453548730079016 -9.427425154912154
22 -8.128033455606483 -4.290431432351768 -0.29589358698468404
2084 -7.939623661217337 11.804221215343349 11.119771000696364
448 8.656888496397228 -2.02357208358157 -7.833929218191796
655 10.104850681703835 24.12265518509121 -2.023823117989341
1774 -7.79624280223526 -8.895683440826108 20.780513415521703
1455 -9.454482882314252 -5.0658630334688555 6.062657630437687
201 6.009349496720092 0.6769869269278549 -20.83561600483077
1567 26.56619273017237 -0.06620165865310952 -23.794000525006066
1203 0.8306814610399214 17.74052261405069 -8.100444588963988
1196 -3.8100646188651246 -24.058385204742137 14.085613288835896
443 -17.094092522982297 15.069549814832326 -1.1224193097436013
947 -16.122453974131 17.091543300261336 7.378442648883256
1345 -0.30027564877744173 4.773787775219641 -9.9135717614416
381 14.38660324683911 -7.372221954764061 13.471989406525397
1236 15.290289359997617 -3.1846462381754588 -15.529691015549188
635 -13.169327406995851 -3.5210164364388756 -19.895467792972298
4 -12.221857439680527 0.5859126394923954 -2.93736321388331
143 22.57549735661712 12.53216756483623 -3.095428109950964
2048 -11.689993982648685 -5.797983634002437 14.16465036013213
1792 9.973955966899895 11.98318768338183 2.6048133540270455
1893 17.81075354048677 -0.8450922614072625 21.517915237108834
1823 2.186696488762065 -14.34592001861093 15.590896311188299
1097 10.726295766578986 13.692048704375118 21.75478904653263
767 -2.2926013689892684 8.958413859816273 -16.959898965896134
1887 0.8633340990611976 10.806043011929045 1.9215069333712644
205 -15.235233112125961 3.892571824113356 -6.573547795033526
173 11.08301615084843 12.226341994959098 -0.6690166126632054
780 6.757511249273388 7.6372067417872715 -7.0801921258831095
334 2.9367832666849143 16.556080693340935 -12.098266208999007
1501 -14.903538406587344 -5.780114681440771 14.888428547193447
135 7.729275803521488 -6.721977590284844 6.617993968638751
584 -7.582627914981073 7.208174078367848 20.485625387816626
760 -2.0932136725105965 16.99917852160836 16.476379996842674
723 -5.082807952673969 6.646244276953741 10.65905137756126
1727 -25.123546324417443 -3.956887152783378 12.635471086772132
1821 3.5849340352332355 -2.6332474146922533 7.283450900566375
1276 -5.512501402158244 -6.44452160881763 -8.86581185824474
2114 -25.882417998924506 8.439469643586834 -12.051840475084596
1780 2.0306003861108533 18.22232709512898 1.2053386330042923
984 -4.6361316540225515 7.657490569067762 6.241728347591841
2117 3.677078650229107 3.6107096195970345 14.402873087333026
1316 16.802582356963732 4.190590944653236 10.721360745863418
398 9.741408219093168 -7.586466199234409 -0.9837183888733865
933 -3.6827394252417265 -12.435084017399767 11.283369402401213
1635 -7.40520359183801 9.354707208412153 6.508571685033627
1751 -10.583787366510814 11.180365032017068 3.511880908193199
556 -6.100763391104423 -1.2848253018370464 14.15012305633587
1941 12.520908375177221 -14.442973622845487 12.638416489768149
1717 8.068365066971886 -0.07177452272628439 -0.21780817409341613
1532 -13.591554661895728 11.58404313454273 12.093027584495411
709 10.53495135119279 1.7144735078179896 -4.820745400484582
488 1.846890117485228 12.22668088144576 -5.38138833203644
2138 -3.4762665952267278 5.062649932152484 8.538308851158217
946 15.351945779917632 5.453602623777426 7.4765541898949985
490 -27.64392199874195 -15.567045591774136 17.065986047686465
355 -28.27283771126286 -7.446819313817985 -9.001445370019743
1841 -22.094261046514628 -3.8061211491899964 8.699207684838822
591 12.609170561860982 8.262958092290297 -6.657721885735618
763 13.035819584288644 0.8206990060426189 6.711834938113524
579 18.801138148591416 1.973137974377489 -8.244973667509845
1933 -3.5995827764331785 -8.883475451362198 -18.1400034579752
550 -13.223876730165602 -12.522345146157429 -15.457959858676233
2022 -7.7574909903244045 9.912350506861337 -14.046634908128093
1807 9.318823292674658 14.576928181012832 12.1100720553699
892 7.531865561839874 9.480280289589453 1.7619864261264992
167 9.322558747666877 -2.5553817817111897 11.390684157828844
33 -27.923174113152243 -29.597212338456583 7.605437304214151
527 5.065188502281155 -18.392710906466146 -13.28689558625501
376 -13.850953522270862 -7.114136609780365 -6.265937207430645
1164 2.9401290595240095 5.707858405584056 -5.977866981950253
1462 17.389860389218562 -18.409763907253957 -20.302788042960007
1226 11.287977558157168 -2.823475655081182 -21.092474640297766
277 5.425849339111251 -13.801375378910635 3.0316339369094347
2144 1.1969048889247096 -5.809828354678794 23.159318005038763
1451 13.4836002528538 -8.365199389894062 -8.41635277001031
699 -12.134828467333017 -16.491487043217653 3.858247355816096
1003 -12.488818868059104 -15.955681135998423 1.273785718210023
2015 1.6793282637118314 10.567641098213148 -9.918085333117245
1167 -8.677080600892316 10.11095674259695 -2.0327395662870416
851 18.843848272565044 -22.398391956690453 14.313755677561895
1572 12.861468639762274 4.2620129171073025 -11.89593185854638
619 7.651827413769187 -2.8326749025198286 -15.60677935566691
408 -13.455733250929866 14.789506120703637 1.5882461199617282
1393 -10.895492788944992 -10.671018817428932 5.391417553548065
71 -20.330566221267663 8.30406554572627 1.320809622707131
1699 -9.902688846842596 -14.04030061332691 -10.759537963613123
2044 -2.3885184935752553 11.758385728384086 -11.389772389103074
1793 0.22267750927889632 -1.7630340689321329 -9.42510870039973
19 9.423332215541894 -7.227652153481692 -13.009454295509823
911 -25.89301972996609 16.861797142850918 7.4406462119268895
1285 0.4250097103361236 9.257397586786212 -11.62089654036271
1412 9.88395950412444 22.63762357346995 -21.482594830088345
1538 -4.024062812602482 -2.422273997838611 9.148819133929516
1301 -12.06532116655303 25.79306672539459 -6.8484020524423865
2146 5.919557671849971 -13.997601838811557 -16.50274463964086
816 -17.455372963968706 -6.832075936761374 -23.69473561985815
159 -4.314744199032891 -5.066927095652815 -13.360977827664104
943 11.495424451171065 -8.029927059419846 8.793639980615366
222 -19.716349967491787 -11.12589123481189 7.840882806775018
154 8.986811221909113 -39.40551479271185 15.407468690784906
218 8.094003876065134 -20.776918771927665 -7.328794741472013
2016 -30.27176452290351 -18.44647958798643 -8.096698722708739
499 -26.13315335085696 -12.468696034686026 -20.22133390106982
1775 -2.759335737523889 -10.047515033861995 -4.148349147098143
1293 17.910217412640144 -8.16810825849061 17.633317697007787
1489 4.81910183457977 13.39774079063658 -7.272438800143803
942 8.978201924153467 0.3046881422574709 0.4294421568152842
2158 17.78671348010611 -10.396551504869128 6.6298179203685
263 3.408861551323994 35.09100899053375 7.4129987705707086
1124 15.384263316996213 7.372274708883339 0.20343784422214506
340 6.209485525404528 -18.029420586511957 0.6305045273201854
1209 16.465934862268742 20.99708564867032 -3.9849894792215443
461 15.066827258959211 28.658601082461498 -3.9167457626096684
1481 -16.57725153601943 19.26749655045375 32.425490739909996
1829 0.9045382758909153 16.162872610543587 1.4511952554898842
51 -3.0558973042173543 1.0992948287404392 3.587463531882297
829 -4.139927632503987 -2.3004058095941025 -27.046166977120404
548 9.631989599899121 -5.2607386119029 22.926346217354357
1533 10.535944404451113 -20.881800848855235 -21.524618326783465
565 6.333558242920384 4.540064257756699 -7.315869795312243
306 -20.301383758809727 -10.687848812819615 -15.101256799283359
350 -4.471266962682991 2.1263624309219735 3.780001218496119
535 4.71427310798436 15.22312623053372 1.616094565232411
65 4.963742300743842 15.518868758081702 13.940708703536304
966 -11.825618493820874 -0.046247067605247986 11.015986613500829
2066 -16.34934468542227 0.316320425189757 -2.24486815382378
1876 -1.8894910295791796 -4.445493049789754 -12.124672902069644
107 -19.227022548630547 16.17353962578413 14.086468806738106
1664 7.255582420333241 -14.922627049428867 21.512100496340842
1691 15.741270600396634 -9.770966252222518 13.476961366362241
1093 2.6152738200495254 1.2938001515206685 3.093670470748293
1413 19.11779583237201 3.5026511378501386 -13.470380692416766
687 18.245184711862013 4.141639083081857 0.766010548615061
103 2.9730680264728675 -2.4100943669667636 3.625182306501538
1645 14.040546345162747 5.959507755688292 -3.968565343575452
1548 -6.299386758047316 8.61446340677261 -0.27489402709845445
109 6.201807749451088 3.963724963368566 -2.443482880539255
272 0.0972436503851223 -0.32819556199562644 -0.676720946284261
1731 5.136900913427684 17.201010153627546 3.101771800926126
283 10.944745903738687 5.031223523768584 -7.881289159094577
388 12.200818622238083 8.308310416410833 -10.945408838053764
489 9.947504231663938 -1.1800481280117026 1.6004262350916831
1678 -24.26772515791443 -4.909740837774624 -3.993265809993833
733 -8.619019859838343 -9.791844648509514 -6.467077049266068
978 -3.2099281488525366 23.25217847437532 -12.326296208556712
1119 -1.2076171143878032 2.8776850062171038 -6.856738121738378
386 15.950736767571456 -5.089882574279944 -7.412615520350736
1223 -10.637121333176413 4.584754569812321 -0.48022963615048664
498 -2.9706771344613925 -13.733681934066274 -12.965067007766264
1684 12.707219755754101 -9.211777033358379 15.456900044034478
1980 0.6072501374055158 7.2033902603474145 -10.74360089696499
1932 4.119514982635003 13.715975907879088 -1.3899644900522479
2141 -8.133515912004277 -6.440703010948466 -35.953454141918826
436 14.86009940472884 -8.211376156334921 -4.214386921222723
1031 -0.16627710931794315 1.8437254209710245 -7.078695680459219
929 -15.795469866777383 -12.689256683647683 -8.669270772645874
1783 -14.074590332038559 -16.898104010007003 -6.167144999078412
435 -3.5208898898013774 -8.297241242750472 4.723058965572783
433 -15.215711927383706 0.9716084448708232 20.348057810186486
1483 15.557911924387842 -4.748058313845757 -14.709803195670828
162 -5.358694366663298 -10.320693390896976 -19.04295119241886
1035 2.6885856004594006 -8.863588395012753 11.666623519794108
1037 20.787870483942424 -23.21046586579896 1.597085881979859
883 -15.969500053887439 5.849620329086955 0.7333226942767526
298 -5.957790153885768 -9.350402764239298 25.49513559019553
310 6.1872699911724 -0.9159414491063956 11.607049776283457
1756 -3.8765671176929604 -15.435306061954503 -8.933628569010793
169 3.5351306925844512 7.765241968644066 -24.819354442852628
166 0.7290595245511744 22.84601173342115 -21.256852457213366
2118 9.96218850701013 11.943181114452656 3.7452156539285726
608 20.737589082733994 -0.4049935865214886 15.587640891389563
2072 -14.531996839223266 0.04067597713170685 -35.29066047591881
1486 -13.562248445166341 1.5108455479010725 5.646552722705808
2083 0.3777353897391635 -2.0114147016966717 -2.7244714330048736
1312 30.415012621413215 8.646745476732908 3.1506334294061276
331 27.096522438905478 -0.5473939478102732 -2.8810220982256185
904 15.022674760704293 2.836764875445491 -0.18891189367760278
1689 18.439383970397696 4.265979173349005 6.76852404915956
1240 -10.089185730376247 2.686046015108688 -0.9039734103246555
607 9.964990677520804 -5.23657175602249 4.4101148240926085
1536 31.091556091509123 21.420561911923254 16.198551573435516
1417 28.891134857340198 -18.1355719391414 -2.5386547860770547
1927 19.284453166725996 0.5978530118536051 -2.9553865443640266
555 -20.873925588695453 -1.1620971615735962 -1.66041600184008
1675 -23.973244152980353 -5.539824168985014 4.522375219506055
111 2.0911347380678205 10.804679404146103 4.404694553568202
918 -13.616192828766884 5.1999255923868 -14.57277814868309
1332 -12.149017136369237 -15.617617383267854 -3.5518186967698555
585 11.582373119483583 7.178252392306372 7.031465438557573
700 -6.75008074904636 3.1358726514106463 3.765822862760392
368 -3.657749893134226 -1.1131740708049862 14.851904561345943
771 19.164566061734096 7.218577994400789 -8.097290226249278
1352 -3.8879932619730457 16.229326032623582 12.156503641066001
1414 11.696978582984944 9.02609905647583 -3.5072582611467618
2089 6.14512022757131 -8.763237735770378 2.322210511280294
801 6.04616354745364 20.642574201728806 20.89836398725243
2110 -28.186978914232025 -12.789656455435525 18.600241027907018
2095 -1.2555471620416923 -1.4478628317038669 -11.914175531094363
2065 5.138327762690009 3.547308003301946 -6.093518510758964
363 -17.178228529710573 -0.4153139552589767 7.480827554799161
1530 -8.460832337986885 1.6088042505032663 0.5111298295535158
1159 -28.570881238642816 -7.32380281226991 0.6428588776094563
569 1.9290806267722096 1.079677527823126 -8.200634519095368
1820 -11.354805705337592 -7.734698960946823 2.9613539366345605
1307 -19.590428840695544 8.357835750510633 10.154912442804918
1977 -4.846272944955328 -33.69141480874637 -2.249567024331045
84 7.635194905891706 0.9291406854105425 30.334461283994333
909 11.733213946320548 7.134567885187705 11.868961704061647
631 5.5845818690272795 5.933330909167955 22.78534288411151
3 -9.22809225661726 2.6608251909801552 3.5654148691105534
1875 1.303278947233148 3.028953716223045 10.212288913209358
264 -6.497263692207198 -1.6614145169943053 -12.86884234814488
532 -14.478522660435484 0.7019574413959694 -1.57525473443917
1499 -12.070632146273415 -6.112400661882061 -22.125246192498214
686 -5.3913137890114955 8.71816215234787 9.366537207229316
788 23.878375884578563 13.17202964705595 3.7036674198219828
1320 1.679157239319638 24.23374652250358 -12.163377733438805
1041 0.0447883150230681 -4.727351084672454 0.7781137206838871
940 -11.401358778035894 13.056329184183669 -9.20729396443164
1347 -30.018264181951512 -2.7379775244786413 2.249518200779819
330 -0.46521701207235444 6.766421814485427 -7.501838880480097
1290 -16.43828872924146 -14.114167974178827 11.476861374218368
469 2.515401371405092 -21.97387631957776 18.009809911696305
511 -11.68386263642829 -4.638722684720936 -16.0629796901511
606 -5.561562347279454 -8.973713312384698 9.491438940675357
1423 2.529259786077961 3.707591381016573 15.863780568685602
2130 3.1135572596058014 -1.186512825544496 12.154089463939826
850 -6.376315425825502 -4.918070798811085 -4.791615874580751
1550 -5.63690893932543 3.024203142238252 -9.39536658462663
1314 -7.118162802934723 -9.768144844356971 -1.4000151600217396
1508 -11.678195746428822 -6.808622817672042 3.755244947238914
864 -21.65952990091052 -27.49672841913569 16.867340266497553
1364 2.8171925959764526 -9.924212212586593 -0.32838035718834263
740 3.3349097151658174 12.09225473915654 7.718164850819338
1868 -0.7916716584434988 -3.0596703347035663 -4.072416138926886
1669 1.3854048733958215 -0.01965943013770027 10.54034602796654
1603 11.048998886489901 10.397584168668931 -11.598769185263311
467 17.731303488417318 -35.080166920640686 -1.4956051117176101
941 -6.66421880637499 13.33727543006615 14.290524194254727
1000 9.524018942100412 17.883366568496296 13.285622178207193
1974 0.18806784677021252 -3.740239303641545 19.640893623548205
1640 6.830164980658858 24.006150779885548 12.152361603803067
447 1.1532480297418528 17.802591578524567 3.2378718702792506
2017 -1.9076396010860663 -9.767022044534572 -9.03890679074414
2108 1.0447845828973559 -34.70242368591344 6.361888751791793
6 -0.4961252927085999 -2.7044083893993016 -5.91485877416524
224 -11.218974311772598 0.6483801086429138 -37.17194831531838
1353 -8.182509225170538 -5.362116293300952 21.73949774176779
482 -0.9564469241843416 13.828084472689225 6.991553830712092
130 7.825390387128041 2.598732131746481 24.641200352264498
2103 1.7683766472553628 -4.981104669497444 7.000225076812143
1325 -27.688087132254854 -12.793734916427836 -11.579001074529895
1582 -2.8817491512444637 1.3080829133369136 5.818413832243522
1600 0.6514617631067742 -2.1876264480660335 -13.500637218498648
2098 10.972340176363506 10.092647125955272 4.908550589049328
1071 2.362343622547249 -15.852795105662912 -6.2943330888167885
1474 3.2819407018264286 3.4918144520539345 -9.86703297708672
717 10.367572964671691 0.8803554112932971 9.756177665613551
1099 -2.5239355655377156 10.450587616630841 14.69721883578512
961 14.721600517000443 0.23163494633324772 -7.006641389973838
1554 21.192909191956456 -4.914326526467299 25.13746198485695
1106 -2.723246182340194 0.2868724932226487 8.39139129924008
236 5.514340599987358 -21.572213156787164 1.034319544057505
86 -11.259134852182347 0.17461996261194113 11.00749414573685
1847 16.40474562569951 4.288694168865308 6.100349800171948
808 -11.240779636938734 3.7865968072279936 -4.838362850456073
1836 -10.667584651893684 -1.7151852128857132 9.097140523386905
1498 -29.38214117993698 -26.220707674637758 -4.773654392682052
1515 6.8618435249760585 -16.5812582058944 -3.971302675136583
281 20.29968187758264 3.1575149365724715 -7.042403690900571
1341 21.28639481234666 -19.16416848736801 8.322846606751492
1441 -4.445254389494542 9.328021321949379 13.195665385503364
1983 2.8985164118251716 16.01591748446981 -24.627919505832228
944 -13.306395625044395 16.174363348863018 -4.352688288699167
1835 3.8112262683379283 13.985981215014025 -18.966589757459335
196 -6.471842597181867 -15.448133705467749 -1.9888374479961095
62 12.29623970032698 -15.467769487396042 -1.8500920653851234
288 -13.203055389034924 11.444351404779141 23.22680040859553
1716 -8.864620349800935 -3.77236750358902 0.8703201362102843
770 2.2337977041086425 8.616501091241384 -10.377612601982753
473 7.806193299349127 9.741681672256139 7.916648225894982
938 -6.496545493445867 8.149634579573156 -1.5222905940676599
2059 -4.118702037342809 9.034460771907789 -0.842041982357685
429 9.368226890350615 -16.549896703461556 -5.876075333241224
648 -1.244182407313588 6.855565430704227 12.375264437002391
1128 14.105376013472467 9.985178590870664 4.5175554631860475
5 0.4946554761297468 6.425132260450467 -6.355327410902631
520 8.337848177948015 7.519672246296655 9.41918138385517
460 -0.09725664262121651 -7.244153080634098 2.34437044636222
1113 -15.901391877343636 10.066514761198489 5.191940029771642
1951 -2.1211320515654304 -4.205555421963276 -20.80245552012958
935 7.5148273268520445 -26.27691105834116 18.852429406079178
1052 3.6962033090473265 3.096694190453207 9.202349667177144
483 -10.530492897733732 1.9828553008625251 -10.041034968744468
1882 1.7260784586851778 -4.048814863629729 -1.2811491114145463
614 -2.0872347775858944 -4.9813951872455435 5.27128344202168
571 25.024338028046305 24.489665527197282 -15.804637090618861
1277 -3.4205621256293295 13.178082883230221 -5.562496010757785
1477 4.531432794493679 8.872148320615072 8.680856355020156
756 -0.6342002898179825 4.477962866002355 -3.430714871056622
458 -15.78132315125942 -9.552377898074344 -4.976097944414416
1721 -4.02845583321821 -12.289201380604394 -17.006361692836233
1334 11.054754470439386 -5.871434597388496 -0.21954115497356122
1188 -14.946491566325488 -15.05228407032416 2.9651572364189938
1601 1.6605647782610888 23.311236323496832 14.851127233648084
1733 22.64327426514159 10.02496926377612 -3.279833820490784
1529 1.3111341124065932 8.903734575799339 -10.632317271168494
2006 7.205314862071201 -10.398680124052936 8.45809230389483
1931 18.266593628372796 -10.006635822334683 21.125554500688057
969 -13.294924142479177 -1.5404697617268386 2.831318516735718
1324 -1.4232945098067888 -1.6866415045184318 8.2618859405327
1470 9.207325694208686 -21.86585090688065 14.59779489507111
710 7.9937339885495415 -3.903739970551533 5.422181157025203
814 -7.790297937905965 -2.102085870512068 -4.937414438264705
1840 3.199294138310106 10.353729836755923 -2.6959392489566816
1217 -4.495985549766186 4.905775498523727 20.638902467009498
896 -1.6370577454688326 -12.688542143849117 38.309666225691494
1629 -18.44693224148837 17.895505526436814 -7.645213221736657
472 15.575512652330238 -4.114968293392962 10.168134314296287
1064 -22.010723828087112 -9.499321006658757 9.5315086884395
628 -13.82874417948224 2.264250356945631 13.469525945011528
1895 -0.47546377953222013 -7.56704366406486 4.707566507634813
2013 -14.078130497900116 12.349410334359392 10.597440885785117
758 -0.7962518009862944 -3.588941647941321 6.3169484578085555
888 11.47272803947385 1.3195855048541199 -6.301257770361651
1670 -5.078889045452295 -13.526227733924388 6.044482668231646
1761 3.400245006033212 35.061697906650956 4.403922441505112
1467 6.211338115597583 -11.831078461607724 -8.248625464420627
1126 11.470412976108747 -32.58757991156421 -4.350601583013022
252 11.645638376789073 11.26632544958274 -11.203576150616746
580 8.136757800069752 2.6770365232223226 17.271736363148698
24 3.555217077205098 4.140385871252782 -19.517789093830135
1242 -18.42906580258671 7.3772600754827025 15.688201764768156
590 1.3521011160407443 -7.8876862891747175 -14.829735610487427
378 -6.703770017002922 2.4992602489867903 29.47365937738978
1278 5.346110260616809 -2.385267253123555 -15.214113639548248
1642 -28.742766800991586 -7.437742442966099 25.02926863017142
1994 3.195896191779957 5.514405150435724 -8.270577532580214
337 7.4492908190145615 -1.5225051922578337 0.17976206652357282
1148 20.92001867294714 -20.396852621121464 12.121712953190974
1375 2.9774342983400532 30.343623768817935 12.75841897586671
999 5.5886374979646956 8.067629277909175 -9.215882496918514
1662 12.124147615648786 -3.4917352344679333 -12.166619625360562
1130 -9.467402570353478 3.279187400707648 -5.8189114655604985
1101 -3.878924064156565 18.85674203010563 6.446823007002359
654 -6.323420312010855 8.934077505348933 -6.2113224964964004
998 -13.792006526211756 -5.055223877436568 15.90619054630577
357 -12.060451849186066 -9.67929887316814 5.2413172763548825
704 8.921292906024302 9.91637174359038 -0.2949785422566717
1067 -1.658946692963292 -5.717426324489779 -0.4558861470301753
400 3.52828546646902 -0.0745074319703802 19.140262598452694
1216 9.568217551459467 -2.3813035430125593 4.135901161220097
1764 -1.529553421112473 -9.106859282595163 23.794780655581057
906 13.987889145572238 14.14697632768755 -0.7462578160523181
1695 8.43121255482115 -11.204199208571632 9.79216500719122
1389 -9.714016437124458 6.874909841553483 -8.619969617109415
1366 18.72232623850822 0.1353782312883668 -5.182221524154975
118 -9.314123803278475 13.807310260862323 -12.752536406726138
2010 30.8818901174666 13.259968280900368 3.9496947154974285
64 2.957334192428324 -2.5559545670720962 1.2499865444433966
1090 9.906668233939584 4.610989450107311 1.3041786308744507
544 2.1075864601220964 -8.938891185332794 1.2706277980321001
402 27.212434342495808 -14.794049332408287 -2.9454415448579887
158 -4.5058191656878535 11.87490129824938 -0.9972080172595156
1954 21.258576299644005 -4.110661228008214 22.64869203997822
960 12.80988181235489 6.690748539830976 -0.7964200687199849
486 -4.358769983134712 -5.885008230106615 -22.21243319950845
156 16.05798306745348 -6.809600463059512 13.156684357520552
1029 -24.725258160100324 1.439292538013979 3.579749606700648
1416 -13.871117702112535 -2.911113219783856 -9.484132764092355
1340 -1.5808121398404862 -3.100599426667323 -10.529354912799166
841 -12.476426773004658 5.808585188633454 -2.0072612954964053
1542 8.85354414422077 24.759484265468167 12.68433431052864
1701 14.127013460071955 -5.998778292862781 9.86971150409045
784 -7.002828122371254 0.18254566932209446 3.981770829557929
1796 1.368209463115723 8.076063870311149 5.538745455382127
698 -2.1882091960203462 5.164630958903314 -15.752599225810233
491 -16.456275764012776 -2.3494785187070804 3.879606936688284
102 -17.919573030751973 10.95290989500753 -16.73014747343877
2020 16.328056997512913 12.373827325748133 1.9285368496500117
477 -14.834592999915621 -4.023270394048999 -5.005846454183715
1221 -14.691567680669207 13.47079323723785 19.65222731412238
1881 7.882671169996167 -16.921354625849265 0.3470659482712645
531 -6.8929852177236315 13.321995437941451 -23.108063641103264
300 4.235968797845115 -7.323917916176699 -9.725638973721777
1480 -4.3303485517842475 7.3457004202178044 -9.572383998371276
647 -10.929126226725149 5.289978353996246 8.95055807730299
1299 -9.07263500719956 -17.467222286991735 -10.390172112524336
1163 -2.9472576308563823 0.6986189276010584 -7.728759679099338
1109 -11.291104080371289 33.45603813318193 5.64119330393989
988 -5.247042553021391 -9.312098525843199 9.302898445021409
234 18.301291778302996 3.6057881889519625 -9.92535998839577
2082 8.20361630042643 16.709249982777703 12.059739627089707
890 -5.384639451052671 2.9420950384307694 -3.367143478898934
53 -7.063172273323675 5.280531303946218 -2.027168408261911
1619 6.396749643594507 8.670131949972149 -7.8836604458062185
901 -6.120316205873589 1.7197411923091401 -1.7002453340316448
2039 14.689685224182329 -13.621872074983687 -19.213379690566384
1179 0.17078378697065127 -4.566633785637913 -3.774667986523082
1001 13.457824184379579 12.182943764775201 1.3690426754180425
1025 2.947506475418821 -10.938038303211568 5.18702965272462
1365 -1.3316353782752257 13.676679409624104 -14.724629642718421
914 0.7886116084407375 -10.959688840509319 -6.994438927608017
762 15.298308032125691 -6.366860522700347 -17.868423160578537
119 -2.7132122815769626 10.636106485155137 2.730831948446825
566 8.283042525230082 -27.343244564007456 9.057279518983751
1019 -8.666855179733778 -7.102884614862046 -1.4641770027246386
176 -16.079172425983646 13.868936528947005 11.774327627603325
1791 3.268605520332306 -10.433656358394236 -0.12158205611101774
836 -22.13661104678034 -6.99824956058109 -3.864618020845392
1556 8.984087058592722 -11.773843838259486 19.023757510109107
1349 -12.556911828374545 -17.82245831038263 4.314338623139979
1030 -3.599950606890368 -14.422958210227987 2.1150610745465004
1007 25.433909092099917 10.395547179610627 8.342271107041745
2045 8.577325845295762 3.2738418320402243 -3.4205786571372223
671 9.33476473639525 -10.377079352813167 -9.098130206696966
597 -18.39762241817769 -18.351279312348698 7.981162447797167
1026 9.598463641552787 1.3402210239490628 -0.7606584080706105
203 13.957181598294051 10.128853844791626 -0.09788431432193868
1175 21.53374233630048 -9.788918664350179 -0.5306190065199201
1142 6.252525113698895 9.64855490531097 -9.71296105078533
451 13.793264881538958 -2.8162417925329173 11.311686417891423
1310 13.311485984780251 -7.090019374356391 -1.6319013555230029
1066 -5.7856986345060495 -4.875477511805967 7.948349632923599
572 -3.548495368758464 14.63127190116151 19.83363381008558
2037 -7.059578174178108 -24.076999080043116 -2.1440559918052275
747 -1.565831739759938 1.1801759028879881 1.5311968037736454
322 -2.736499798982986 -11.665260501406117 -10.316328873781528
858 -0.34270351978834895 -12.042841068274637 -12.563805360242448
268 15.91101030860486 -7.250713181093787 -4.428218679113876
669 -7.180406300084197 -14.96915430574117 14.401753043796173
1004 -3.0190070609722093 -9.49539998179957 1.690732161049009
1564 -4.8860785146209045 -0.45449338795161737 3.7288552959883035
2026 -3.9225982102650647 18.620840035402946 0.9869764063421539
529 -7.045700834323207 -10.197365852779948 9.396323943413753
1207 -7.431483123633393 0.0486697201957643 15.081625740456632
774 6.970109983019047 13.643212629480752 -4.469440028722247
1522 17.734472530541527 17.55502107338897 8.309630137285499
424 -17.481039734548006 1.1506425715445787 13.928897743137737
2069 -10.049969175733837 9.223823856190622 -15.879706622163056
894 -14.480638838590867 -8.754798534110034 12.70692269788404
601 -0.766544166769727 -7.983745690292842 17.58572492281651
777 -20.10176626599037 -20.540573139885414 -6.519461213950189
1966 -7.538963939221892 -8.428287005565277 -12.682531533419588
454 32.4585442683883 12.599087555925498 2.845762386355676
1198 -0.47347769732440675 -17.248231845752127 -8.12452109074521
1913 21.79051640884575 9.155898710451337 -6.055019438658485
1190 -8.52747537257558 -17.63501141648596 -1.3764837978014157
371 -27.552901617629622 -8.314857203785053 -10.837444977955055
621 16.36812024031361 5.272605304084087 4.343341015102271
1398 -4.841324644919705 2.209109144091783 5.9776992575268695
1970 -5.458165922637633 11.350792300491008 3.465452018431598
2058 18.158166614236972 9.633155364807282 12.573476327252322
428 -18.41805867258766 -8.71324122435548 -17.404081945629972
1597 1.1840764015268381 -9.584424638641426 10.89131709225807
70 11.245176094323726 2.480552129754414 4.099303032993974
1493 -17.187573982939767 -27.572123750127115 5.731340132636274
1322 12.035001253689298 4.267339491204946 -3.7059270366164108
1463 -15.48581952629255 28.495456356599608 -0.22682531791392868
1227 -7.935934416405747 1.7171488778543265 3.618945165735267
754 21.26245006044292 -27.311945385310757 18.18127391241391
1302 7.377766456872117 12.788086477581333 -5.829533509363975
1630 23.504497641829158 0.5009403189256184 2.886230804422033
1401 -13.775302461607993 -3.455330184873705 18.06317138266171
127 10.958764089923148 1.9934706268576858 26.069572135791883
688 14.600578747961828 -3.533154688234346 15.200853545601701
2 1.5881596695477858 -12.333125142231786 -3.7852291505946014
1494 -5.547385165691505 -1.843848763744609 -4.062858517674444
1434 25.253453729402267 1.3267033095772294 -21.08126146551372
604 1.8776713485771743 17.444935571302125 19.012072904849507
1798 -2.6923536032657434 4.716627028841806 -17.62190056224889
993 -0.42396730529326615 -4.403707189354147 3.3114971316161705
2064 16.70447366796808 -11.7900265683757 14.49684621576806
916 3.3960855503187735 -5.393624935696246 -16.726929739015144
1063 -1.4603893542359623 -33.28183891102832 5.393444624136382
713 -17.76145437146463 17.153157257213206 11.420122059546701
805 -8.721020769045024 7.864797178671656 0.6141742359734612
318 -1.625697558507335 -10.578232468384732 -14.108909474326127
1789 -12.322222001184217 10.061479104088841 -5.233214484302799
1245 6.059100678036103 7.570723714304814 -12.001713148264248
1722 -9.96118457208718 9.552895153529217 -1.5987078533773138
1734 28.029860698025566 -1.0363563675817817 -3.651364665879439
2097 -1.3538495781994402 13.301188952262066 -0.44596869798463423
325 5.30403910736349 -0.952374270086346 -6.791085462633029
992 -25.67429588982542 7.766842797828917 -13.89418968566716
802 -7.791965601114825 14.866289065980402 2.4479909897073298
2156 -6.480067923377829 4.371750125962259 2.0934498619366106
1525 0.18715766362324407 0.14001240817113964 14.40616394960933
1206 -0.2851853000005999 -6.589681625198262 -15.019943582149946
1313 -10.008771660767543 -21.941179563649587 1.5689411938401836
1012 -4.81456985795012 -8.323627616815909 9.232719915693078
1917 21.730920614608767 10.923239759930528 0.8945112196692795
452 -5.7005973025402135 19.056826509522587 -4.187393175523182
1811 14.93755552676896 12.200727830311356 10.194345840741653
538 -12.280279002096929 -16.58230039821059 19.861290263590764
1694 9.43907058629171 -1.9814671846023888 -22.41278173287405
1191 11.893997427231758 -6.282691646696641 8.40232766001698
1355 1.1070004078490052 15.450605912162555 26.04259859426952
1176 9.831307957708603 -5.926039905298369 13.200290207701741
928 -5.496480822134333 -2.470129404805283 7.684667760520123
1286 11.829865403885908 -9.815639968795844 -2.2091735959635197
937 16.233923211117 -0.9441319586768132 0.23623281135827776
7 11.165386557901032 -6.735406590695579 6.819033230327375
2003 -3.1163585397340094 1.250851960471463 -0.9661684892678807
824 11.472063389437087 4.8336382258957125 1.4458504014284295
1971 -16.466153904376597 -9.219128125532238 -1.893314343620235
1962 -16.05405829845747 0.5941157814545571 -6.982306685009419
646 -11.128321138009227 13.831462894877948 4.133564884999629
721 13.283701562795065 -4.101976719729521 -15.683988283382204
1152 8.753284083640056 17.380498827787264 5.931581101776903
965 -4.34692074124184 -4.447070495995952 0.6431484818935659
1580 -9.78471489932012 -31.658966240209516 -11.788883624575975
1102 6.286436471572491 10.925120552952546 16.883360001037044
1616 -6.705931167344824 8.207737921713262 8.579677973507913
1077 7.030543830687946 -19.754909512894805 -5.760269476903151
576 -2.9187688556951334 30.25064241926758 10.766979694826958
830 -5.307824804663188 -8.462382647964379 -0.07277677122596266
359 6.641024481539694 -10.370892541170482 24.974265790545015
1541 16.840863009908443 31.157921430916304 -0.25277953352107013
1247 -11.787021171960173 11.509270210629616 0.2685919806506604
1907 -0.9696190155090191 -10.67030798927504 -17.473092684616265
617 -5.427248698010317 8.281393178727237 -0.3497010437618871
1273 2.8188355349488274 -7.198562452086897 11.844183006086926
509 -3.334996616616409 5.849194881261533 6.144313643760152
679 -3.153139703064309 4.094239936817327 0.527603362676217
844 3.345916577307047 4.05366975947973 -17.104139775059892
101 3.9740184984739053 -15.680298744502661 -0.1579141150196926
1296 -18.698004531361352 -15.03079093245748 -5.321589666709212
1676 -13.65359119087435 7.7057255090011765 15.935542870121392
1473 17.016468193085355 -10.412714616422354 20.42134661985097
374 7.990314357375976 -11.552267873090837 -0.44887737478936174
142 -29.66529443068531 -0.7126687842879139 -12.027745313399011
1080 0.18446082997855795 9.35427500230365 -5.721084486315412
541 -4.422343249037792 7.623464419183663 -11.286411555079564
871 1.4321410364645273 -5.866403463308438 7.452529479824698
329 -10.72994720407659 -6.210657842014497 1.9572410061474312
846 4.656404944613536 10.18128181411201 -23.106091131379653
1049 6.3778734261925605 13.108687198319634 10.86751670015385
1246 19.869727675055536 -5.849001334015773 0.23573824058267662
640 3.911926860064558 5.427747024437456 -2.633723355206738
1153 13.415897612078034 4.023900627435813 0.4151470093047012
1315 12.777883201263029 -4.880420621900635 12.991743593111357
1528 -4.71614476660419 0.800948912999336 10.17207285004561
672 2.2200342393500176 11.087980602355428 36.111910789949995
1173 12.578861803194725 -1.462807299150403 4.460156591507486
776 -10.894108932164213 -14.244089579915503 -23.398314757069034
270 4.963293804962599 -22.349387340923684 4.878616305094522
1718 -9.779634921871843 5.866654881840842 -5.946107353029869
168 17.48560499033529 0.48167057297112376 -22.45951264052283
1784 -1.6729811788565796 -5.712413525837127 0.4255235056026209
554 -4.233493998143223 -1.5481639490877348 10.829861576493998
1739 -1.0417544440262532 4.688530976512741 5.623955651214683
665 14.960453241777586 8.15219051057781 10.207143135496331
1610 6.259963390908234 4.030056609139605 -3.4739620855010713
2115 8.07633589894656 20.268590921556594 -0.3523180741261155
595 9.409474264806601 -17.62977392633636 -22.759752591083732
1291 -12.564732508900208 2.949668475319419 6.241382199843145
1778 -1.2758762624610158 -0.2629087868809934 -2.1397572307671737
1239 -1.0706686200345372 4.148779450212198 6.54658945984968
1989 22.42968073171739 -0.7528448139520367 6.199364270108957
1005 -8.304058008391708 -7.9803394129620475 -9.070975776926153
39 13.267836452257702 -1.0411061367043688 -17.210125701310016
1459 -3.1381464657674223 -19.95413277436703 -9.372532800002315
953 3.608499735977157 -10.442596531804696 -7.098649445098289
1112 -3.240798027713041 -18.615333472194287 13.740263132532831
1143 -3.5488292676300666 -12.410032083824074 -10.853714146023544
478 -23.722292602197303 -16.441700656658973 -2.313810551639993
1396 -6.145721090459603 16.646171236197645 -12.88946469171427
506 -16.18655249321145 -11.332614524598744 1.6796639606142263
1805 -11.794555599652432 -4.0513705542859935 -20.21884279211369
1371 -9.727919650159707 -14.085062458337278 -7.963220790087647
1410 -13.483604052941295 9.147304865186777 -10.348288297248255
47 0.40089880405221806 -5.691872315132803 -22.349798006034593
164 7.2382411666378275 5.657063887209509 6.435411359670498
1505 12.649025559640464 -15.089737817610251 -2.9817212210972004
1858 -16.310618018725084 2.0493965132553322 -17.713826199401005
1911 -16.779303877891444 8.463730169839087 1.29771826271612
1184 -7.482176866294639 9.480821532431833 14.701458191332152
837 -16.53343813224946 -3.4181819999102667 -21.52363636152643
1777 -4.546030399574977 0.15455370253686984 6.553645437629943
2154 17.758478082120437 5.879565394229273 -1.3884466658075276
2080 -1.9063598421044214 2.0441600105194415 -7.063253192916319
2096 8.995072976371887 -19.28110969351548 -14.676228536253026
1110 3.0171346711771396 -12.793752243514081 18.28462168799599
962 -3.142715499269211 11.050184054308843 -2.3899672368159846
1942 -5.36862270533934 -28.319334569770216 4.108756418993546
1472 18.448732560700716 -7.863672546303589 -0.7162650494542421
1738 31.228911675878813 -11.45151469774099 -2.8909886753149014
293 -9.023715529595693 34.05029774235496 -9.862195820084176
581 10.044332026272407 -6.550388762459095 4.389108773144793
23 8.045036073935552 -7.890063562061617 0.15641657761846153
1213 -4.636797668249974 0.7522393061052949 11.625319297166202
695 6.863199467277456 4.3874855368872225 -0.7982437756952268
496 -8.868420546082094 -3.8343198378220467 6.051358750796921
1587 -6.493124973067262 -5.097375670591626 -12.285672298147489
970 -24.103826306240506 -7.818741156172169 -14.548699509350842
1692 -7.434560068317345 -6.454295601849391 3.0721120669404645
1998 -1.231141868576323 23.947390678798534 2.619190277636455
2019 -11.21781950835147 16.098251805018226 -1.5662806675407936
1544 22.67743206285067 33.50622972330332 -6.5231616005279385
925 5.21013342382187 2.562574311389972 2.0819317644383393
657 10.99535238630959 14.168824662278794 4.226209147151567
637 -0.4604441582430341 -16.560643042470815 -4.334295175590285
1121 -12.202636815776227 -19.50263365694622 -19.017887405680142
361 -7.6464072597314425 3.865131637002748 -13.269362383180018
1788 10.855709065811494 -18.892613404335233 5.2951142651652425
1659 -6.473166207326301 -13.873282252503746 -13.626222091206
620 -34.78976777087607 9.516101528149429 -8.082594624973847
860 18.60920901188406 -1.8975568188594258 10.206434495388644
2073 -18.310472230390186 21.866677957649188 -20.954349501577397
653 13.678413626202056 15.417167925212736 -0.3423654834440413
1822 20.604259692921858 22.65097935019907 8.98386449280189
973 -12.39112226571005 2.3965772013975757 -5.537206130748951
1771 -4.194946326002015 19.47593583336435 -15.130674694760168
1149 5.004361431957091 -5.704143824784154 -23.84387520468298
1745 5.281088875703642 13.807643712252357 -8.52545519703458
1208 13.566291960931377 17.708974016219784 -11.541782252210693
1707 -5.504009769778279 -2.0054119246906383 7.038185668528348
1013 -23.27532880701593 32.86510379406279 1.2648339302992915
715 18.072987778466043 -10.865535262487338 -0.7776175541270228
285 -11.706560750949807 5.630650421717019 11.425856020404868
1765 -3.7896989279583053 -20.81034552470191 4.431470284000508
778 13.208327387512036 21.374293032969437 -8.515830594120677
1265 24.991495940767006 -1.4718685396992457 21.921625425691012
1491 8.719020411148279 -2.0527137003964713 -5.7223181990609016
1926 -4.508889448931035 -26.199354420651513 -1.4130956125052576
1768 6.955427266542625 -9.588644152811987 16.149830069005034
1082 13.762601075002209 7.9319870778461645 -4.865012432569743
1960 6.598356921756549 7.709582786500281 -7.90497576051924
1535 -15.029604181310187 27.43994390679836 -4.320441829270828
1168 0.18785500991583692 -14.089334292584505 -1.8001501490712764
843 -6.738712377925448 -0.0010659255717074718 2.133418219687247
465 -0.12184851706530861 -12.441953993044272 9.533109921709281
1910 -15.74124936008855 4.622357605254233 18.823343010041537
1769 10.603234752138686 8.870970519241997 10.219151033907009
1816 2.181852314081 -0.6732277401774895 -2.7331177440738426
1637 2.655518873044071 13.720919584451076 15.809500207990922
1656 -36.65184741238418 -2.5244572222303927 18.23158559920107
1973 -2.9300863941922763 -2.944881723984141 7.335265031734027
885 10.11945851223687 7.147936060570961 -3.647489811982613
926 3.044196733703815 -7.525214020980582 1.8261326156948525
736 9.422801127514647 -2.404620332391705 -12.663702225654212
1651 21.346826650157517 9.785583581759568 1.085726218499192
1458 -13.18384621644187 -45.73395981925532 -2.1139362378942015
1378 -16.035876760558867 -26.861920873771393 -8.911931123100349
385 2.56595257454985 16.535630602982177 3.914149143004597
1406 10.689069281473833 -4.79535748483939 8.959034021629787
1929 15.28519561878689 9.524357195024901 -4.396370788098058
611 10.47092554655812 -20.405345866442275 5.29602773440798
1623 0.09395152153381792 8.148746191519542 17.696059858519504
1986 -7.519369374194564 -17.386681295997203 23.73808947537842
1934 -8.168291475503953 -3.6789917324091683 -19.738715237960488
124 -2.7468413620016103 8.7360509549024 1.892616686250524
641 8.13453402227973 13.004082752767285 17.46190353808304
1294 -22.3304159875267 2.265226790802378 23.020333014196964
202 -4.811968046623164 -9.045877842703057 17.81936912647059
1369 9.870873696149603 -6.125270246480917 10.268420201087379
1602 0.061216988887431455 -6.65999549549285 -13.398429894384613
1594 -15.19102986252452 -7.281749952537716 -10.026541555199525
508 23.42061235347959 -4.482321995456805 7.579686042764077
612 4.2753784260553935 -2.525044043889581 -4.325104440293783
1648 -2.079683382497467 -5.672431958459022 0.9836593592699705
74 -1.369163305721764 -0.7596749581713671 15.611528393812117
732 5.049076693779625 14.146154808756702 5.756029406338578
1443 -10.875654581469023 -1.0775371668675096 -3.036758390332322
1617 -5.436777735035641 -1.592342306424122 18.68978658323829
367 16.5353865658847 -5.7016412617957455 -18.343223191596074
853 -15.233525315674601 -12.104041695467622 15.394789974761489
360 -3.953015673497373 -8.118580427016642 -19.973778375465415
1854 -7.162457389791165 -7.366630686993997 14.48401892901751
674 -5.71833075035912 -0.28573379528469395 -11.181571371031863
1485 -1.1861007364330953 -5.07028649025762 -7.941466092406679
1747 14.31414474058689 -9.327656077706399 23.070545724594737
2133 12.218478295319073 -12.722050434686087 9.11136806800287
2129 1.5084948050216216 -7.990871134648717 2.6614509414764265
1759 -16.265661413891678 15.002231750602288 -18.963646115278305
1036 6.467732569298583 13.059799672648507 11.62495961033524
1385 -17.237992346340054 32.205008284064554 -10.057281118629145
49 1.5860509110625411 -1.738662347656887 8.612714319493417
714 3.6768083560613314 -4.267014598789876 -2.083472083116021
1736 -8.272045251842618 -7.0475113143995936 0.35861747122748705
976 -1.4847617518357266 4.999243628055902 3.461229013509415
1953 12.007298802647554 6.487553030977367 -20.752751612184053
1869 -9.616688930103738 -9.97050920719208 -2.1922338093634006
664 15.444658308706796 -12.23661752841086 -9.78453616392949
1155 4.504691007912397 -2.683103639152681 10.17467964142859
1680 -3.896053047891473 7.324280923798261 0.3701956482392826
1874 -1.9659729102320231 -12.401529978707735 6.878146187119163
1956 -17.390082505683925 -3.2697974253983886 -11.694600168527879
1356 3.752388017270493 -18.47784557186585 -12.89882193899775
2128 -12.644975303068804 -6.072926915095081 2.604636944803699
1448 -1.2457708762272135 11.648052059036871 -11.638970042681777
416 34.26686514017096 21.885578113322776 18.565132697544826
589 -9.700408545520926 0.8517815527158705 8.03561695760313
1520 3.1346040272657048 10.333037165436687 26.26740326152668
523 5.748110307305806 20.96125999718939 -1.3498682786919243
1404 -2.516008600722771 3.423380489769262 7.881201503068355
1180 -9.77953583853575 -3.423063159656043 0.5274996717479195
1282 -3.7454253657281766 -10.820658400744533 10.16748414682981
401 -7.431722412211032 -17.49315819351314 -1.7240877055326413
735 -6.2718496638125 -11.525987813808026 -16.921908344198027
521 11.919094280849919 3.2925810525042736 3.6939309452798867
878 8.092890845072057 -17.68918243607054 -3.195115444537821
934 3.5960453834367296 4.431978056187199 3.0166745376980963
1335 4.036979265474191 -0.8548943256461007 -7.123433159677055
214 14.113862606075703 -15.92879034319822 15.437914815305671
1507 -20.971679532200664 8.792849884780383 -13.3126732819762
1697 8.136041004131528 18.072204962192817 -4.335066716662418
1958 5.235444016349818 -8.755902351893482 10.410927137055587
1044 4.564661916490493 -14.958898232485874 32.45843619120638
1614 7.823442928038726 14.486124658724098 -1.9189250989455604
1238 -1.404624201412343 1.184151188704306 4.568395370889682
1146 8.356217220849672 3.461468074081666 6.689238980816674
1283 0.09023339699934238 -22.069647514624048 -24.736120158415464
2122 -18.622998538818024 -9.520837767611976 2.1116708420609003
1562 -11.871292446765882 -3.8952679722365184 15.517029644083129
296 -0.5051645409263831 -4.85788775394041 3.6259605310441856
1800 13.456895146863973 0.1846803062548709 30.173552585196145
659 17.818828379193164 -13.058860628217301 22.14343279740919
1622 -9.24439280678492 -9.773718693442964 15.096553104427182
1017 10.101233091872457 -22.22633285694227 1.6590485043015426
160 -7.87317541253171 3.134794310813416 -1.3150259680650684
932 -2.149313859222203 -18.174079961831907 -11.080273726167334
14 -5.213740347448617 15.738715124156858 -3.895870240712265
312 -3.4661875886286913 -7.654136023968846 -16.722339264329865
1428 -12.18706832043384 -4.746972272639913 -13.300470659974073
237 1.8797062333780303 -13.294381971139298 -5.462850679930094
54 11.867456377309756 -13.197240101317602 0.08880760171300087
764 17.653263400801272 30.268046875930153 -0.04064784700410743
1969 20.433242294414832 -3.6920096065524883 -1.9504816491206225
2134 20.511725372007994 -6.8510418899988474 11.95278570369214
1135 -15.154137642202695 -0.5816516293733511 -2.0792234766533637
389 6.08797046940366 -2.5422557354247566 0.876044656157872
15 20.592676860893903 3.761806966835226 8.527044605844672
2106 -10.795550939080842 -14.601056752369773 -9.296417822387362
1999 10.684851087585303 8.647440485270149 -7.4882832956504135
232 2.1187812752139403 14.293795673363233 -6.892370338955896
344 10.648663503452545 3.6246982118623876 -1.3623283514203721
811 -4.644474262799084 -12.010717073277528 -0.8956272391342301
1939 17.68766913886741 3.175796153661598 1.544551095173218
304 -10.534479739396966 -10.512784617845943 5.323737164882171
855 11.741651324810011 -2.6938979050602554 -14.72710927116592
1503 5.038887547241985 11.069485386195955 -4.635260837778548
126 -29.427166122623216 9.042663600172501 -8.190252755407043
193 -2.6510074404604085 7.67048805637386 19.55507344799991
1022 -10.807192450181041 -4.9398154399510865 1.6568112751744228
743 -1.5900820305877141 16.05494209736923 9.943403568888291
185 3.6855393059676165 -7.998716003075721 -0.002092568677937057
519 -6.259354456483529 -10.37754003622951 11.0766377664011
1199 4.05596297847924 -24.244522720854036 3.5929485253799047
560 -5.015607652145105 23.068889456916978 -4.487212954752458
913 9.119544653772941 -12.1746852413598 -6.725519946302509
1409 -7.635961636325704 -5.8571645608100225 5.940135648350666
1888 -15.931268745352728 -1.3036476156684238 -0.18023058834942082
1088 16.112255259340344 -30.48449548334213 -3.9242988352593047
1959 -6.12545798228769 -5.493880941057584 20.827189578263845
2051 8.36621339212199 -17.112946690750405 -5.59798202339037
616 -16.931106883903286 16.626903173846486 16.998035196683603
1073 3.011028618643591 -11.593192530882398 2.069573781165072
1492 1.1337582488958873 5.4932460679284185 -10.894481177720236
235 -13.907344970811396 -5.032706509738922 -19.13230649576009
1905 -18.99258660654072 -0.04665828201467182 -3.9305654923614695
1930 -20.125330425282915 13.425714352636914 5.740774793421124
510 -3.6109334515803497 -13.923295191611547 -18.21313577837336
1215 -4.3342684502779445 17.251589407891096 -4.0813564604282115
975 -11.488910925384163 2.2521912060759615 -5.1394743979430295
441 11.539885469589079 -5.347561394282329 -1.8447951196431582
823 -18.09047652810348 -2.7384356795836053 -1.690807146415168
980 10.14655389208702 -4.822434395482582 4.8808639117185475
1079 21.30059328020913 2.2965510739266124 28.64927949895951
870 -13.346565517569296 2.944280448592406 1.9780287316222844
2057 19.78599919463453 -9.923067578366364 -4.662517085300407
2068 8.433703297375857 5.0549342572570595 -9.879564383650953
251 -0.5687405010286277 9.800561906510712 -24.466348558428773
217 -0.088487093008437 4.475375615953131 -2.39455095509399
1719 -0.33980798797229206 8.90633558027127 -8.836022634384978
955 -0.24983698914347785 8.381334772049195 -1.302212503106342
1655 -2.7321573909302197 -3.6496249765213675 16.027388815682595
387 -1.270774949769281 4.665332556240369 -10.258948855824741
863 -14.163359732163434 5.486374287480925 -4.564033641619973
1139 9.278104174638388 -15.89259363095845 26.2649897185419
1785 -1.0415650758100743 34.603769000637875 16.204871578331872
1308 13.984614839026559 -17.053060845833066 10.255997385322287
1915 -2.858447650030918 5.03366625039776 8.312481871635056
13 -3.760982009324554 -6.031012824564152 -21.189361566138665
32 -15.893358096228765 29.08554936204771 -10.294355059882609
99 12.505605117249628 -0.12379570074553799 -0.8771578822079815
2032 14.61321962727355 3.4937368991499262 17.462984656540012
2126 14.4255703974101 7.143925468916363 -27.68985670176431
1403 24.214379489200688 2.027927488104057 -10.948603170718691
29 5.556839723521154 -14.178605118444215 1.31348691514512
1839 -20.062073727330255 4.845709379006394 -1.9367694807554874
1450 -9.272189098538723 15.701609760497904 -1.3896942177070213
1627 -4.626904539549281 1.5652543997129709 -9.593448008460575
2027 -6.912128207670047 -14.356687452227396 -34.02047785480761
1249 -2.5002317154936016 -1.9295775594080629 6.732051873005997
1938 5.4225010346946725 -17.411988357709575 0.33903128352485223
1650 -13.734563375056211 8.155931603122227 14.495943491575083
1141 -10.457872965142075 7.693816744850575 -3.64077839091342
827 -0.45940470617957513 -11.525022231447764 -12.917420178474778
61 14.05645459623837 15.095198419729778 3.5528273985462477
727 -1.6412030196926526 -6.027119560749853 -13.26239774081277
1908 -3.1808699576664243 8.579469477785214 -2.6522190189015684
623 4.376651156098846 33.46588168708867 18.75105649651527
1818 -2.374665994852123 -8.0902731848182 0.14228021277367942
786 -13.976852631229772 -1.8370663894018542 -12.223284326329189
1923 8.87273127788388 -8.06799274233698 -3.553067362431167
1665 -13.542582395047155 -11.732927347246205 2.052835817529698
1181 0.12693495651842582 -1.0338293619974765 -17.82391753276318
951 0.39321449366765754 -15.896366881268479 5.839747433016876
1819 3.870103017916007 14.43402043146895 -3.0800517507836944
1809 -18.88085600957089 -4.370886527237101 -8.808010732879561
1540 5.433265517083597 -4.6473906342100735 14.836963423869761
1350 9.311541616909835 3.7482381867472725 4.451378272746573
1880 7.331106827745535 -6.922739848663979 -0.49508527001421687
2060 -23.07637959802051 4.268739248398454 -11.664448536447129
1083 10.465602717595504 16.752612177900552 1.2544103936279556
707 9.233249626249739 -2.4850170220307066 -1.6197322698185002
1712 5.053997702588195 -2.5178734649570846 -2.039981061003215
902 -3.636748079008772 2.543913140135438 -1.3670212857674093
1487 0.5003727876061248 -8.241637207876478 2.2540836129556316
1842 -3.996730106192733 8.83724094432895 -2.5307615001575785
1321 -5.585319605659568 0.39637585314341367 -3.562821238309601
1147 -3.6535181055778367 -6.6315054917212315 10.384883170102976
68 10.038370226449278 8.558810663229854 -3.1339951747334736
55 22.33732092258822 11.471660936010982 0.3246570923671701
480 -14.804192757075022 5.973203500800848 4.845287450181666
314 -17.94343766351692 -9.768871671838086 -7.034841851485619
1766 1.192565149192837 -6.737686382345768 -4.878060539833345
1425 -11.579651038631178 4.161007529611138 -0.4380036554574761
1028 -0.622335450419208 8.158151954334933 11.081763014813589
1103 -5.429433675652137 16.99625816385409 3.4117103813211935
1808 -9.860477491668536 -10.942499164211796 -4.446342867629683
242 -6.129631775101385 4.194017183507616 13.877052127316867
1400 25.114804830917326 -15.285281843744539 -12.79293764808524
775 -4.631014913646857 -16.72717596387977 13.887587208442481
1479 -18.308279388266108 6.0371225986949115 8.735493003897954
718 16.553514501484724 5.9803318836678665 -0.16012214475504222
1096 14.726218674785978 -9.545088053758244 -7.806551615636686
1865 -9.124510741831976 -7.220764438997326 -0.8109331135181649
1613 12.115177509904854 14.283749985737016 -12.04241471973793
1060 4.259454924572734 -3.609095772752273 -6.576776228374298
1903 6.4974080898523905 1.2401112365252618 -4.7363211111730354
291 4.772956143143266 -3.1856500987128893 -9.152243470221936
1581 6.43457286191287 2.850979217075877 14.44112693459969
207 -16.872974204549532 -6.225385206183181 3.7365519435275543
1032 22.70997828394146 -32.60252849383702 2.85900537622811
1212 -14.619906493426289 21.20298238476592 15.431537618081377
1904 19.282182742082057 23.864466880518393 13.092820024233209
627 11.117805334661574 -4.372475772847645 -9.74085219631129
1476 9.219661291100273 -29.585245595191846 14.498937168520293
694 4.839648839455644 24.16942503363384 -12.947019963796912
108 -9.65129905827243 0.3327419929700393 16.02079980128924
1886 1.9313387648434222 -0.3712757392254826 4.2581412223599235
643 -7.752457413137635 23.66617646707734 8.638981260291626
537 7.532561765527528 -1.777590910234342 -0.8273462185301258
676 -5.687531349867543 -3.3640911731204817 -19.871837911568928
609 1.0395624183953767 -9.929162032348463 15.792141774295395
1038 5.961067003005384 3.4959196468305844 4.916965743193913
1633 -3.4642671484481773 -9.06616811702213 -16.02467516349729
738 20.523935213807782 -6.644342043385942 5.003770511064793
1205 -1.0166829507957396 -11.487109448392726 -18.27864620861539
347 0.6071049683412549 3.420936089033831 6.515312043452854
375 11.061065111065533 -9.576575999671052 5.202700442167688
893 0.2088251452295648 36.865549580273026 6.577710061524917
2042 -9.262776559720228 -6.911067522598236 12.563135805029066
456 -3.41112712194219 -9.260101717757625 15.20804310193413
1857 -4.963949199305298 4.440567080086723 15.28402345989794
1468 3.975838078479162 3.3116829282190876 16.412035919717532
833 4.148525265980699 -12.2407253695825 35.50190491350621
1866 5.211531449646047 1.1122273973985495 18.36856352684892
1873 4.361378938852169 6.4362946109708865 10.774589557379693
246 -25.18496853299358 -0.16767354041998925 7.062288434091057
1309 -2.6134775989224712 8.166968698550525 -6.668826333416977
1979 -18.507097461603205 14.899131089654935 0.25452713976325564
2157 11.880638948352317 2.050428883526488 5.3647517561723985
593 -14.046465554254963 -13.519813444581436 18.950049839670612
1338 -11.683142850214072 -8.5529187333868 -26.839201477352642
494 1.442546816260843 -0.6027860336965072 12.324317045854905
105 -15.13604967746771 7.277595546296129 -1.984199253032848
94 3.8861323813570556 5.799057584851808 21.541808527043752
1513 -15.321576516026234 -6.81197623336041 -1.7814988167027839
840 -3.167148293206485 -5.455906261193253 -9.179216942930937
1735 -13.80336547839283 25.354532790820894 21.208692230274306
1813 -8.781576903042295 16.85606360574132 1.3906258755063794
971 9.561605132589593 0.8084810540704891 -7.283205518542364
273 6.110774110215847 -10.211127338650087 0.26278971740439916
2054 5.0983791915594825 -13.931741999681652 -6.8037059051460895
81 3.767517296001285 -7.308770705508903 -3.805579229458237
79 -0.5750458670344185 -23.429835497968675 -4.873358086754611
613 20.20514137807808 4.62239564669142 -9.97200591123294
696 21.745960213911243 11.513275881085052 -8.019849145657409
183 8.87234142576146 1.9250532702162024 6.911135948763769
810 10.007155396234399 -1.1233901231617804 2.2238768258393575
995 -17.778093929122026 -15.572043552147598 -3.1461838333223615
175 -10.674047775547644 -16.829019098376648 -7.690907829568242
2132 28.88004502250407 3.126376928444487 9.898281843736388
650 -3.9846211098105044 -0.6616809071004287 -6.752840406420549
575 -10.85726731299874 -1.6993081528165856 11.638855647206087
1546 -4.934924964044982 -5.319196773456225 -17.672887420534057
1850 10.468023240627437 -2.245208583431947 3.244655571437082
835 23.036936345128847 -4.1382942977686685 0.5579170751876494
131 -2.8688349389494445 -13.471643862437716 -22.189056739885494
602 11.382429541904209 14.970612222014019 -8.209286385326429
1976 4.3872417713263765 -4.408960316854817 -0.7493314731433175
1253 -4.210784970135067 37.17529434663489 -16.770992211093066
662 -12.958079720399086 -2.2993017956543116 -5.054900060334369
825 9.260756738461854 -6.489871977895661 25.138118207603185
332 7.326168422952548 21.776614102102755 -19.95570875072242
1421 -11.678932474950876 19.51573451084084 -4.95685028606135
2152 12.815230897515617 -12.840658550568673 8.82871228520666
474 1.6940933151629083 11.013442556762158 15.642873502213961
1641 -13.685360453189773 -8.862027810504513 17.98925527372831
1838 -0.9298481373810454 -7.6326777004834785 3.234643805566085
2088 -10.66750607468446 14.2269086934569 -5.89347821186479
1046 -16.63316297668776 8.052803109570153 12.284089804963054
1737 -3.038778880406798 5.202189296551618 -3.6967768895632376
1968 -1.8770539437304619 15.822948764983797 -5.291208343643259
431 1.7944695934002082 5.674126333884492 -26.96100521033858
1849 -4.7867486328535644 14.865900976156233 3.541909157653726
1949 10.128034740327461 3.326994589774905 -20.805454385166676
1832 3.7112634643642055 11.65876082830762 -13.198925972684222
1856 -6.088377975877368 -1.4174273776009743 35.70986080634808
1300 8.471086452063982 6.770037132222247 1.8723186389213875
303 8.46704239719527 0.853680040766301 11.467523996821058
209 -22.25074161179179 -13.759876696508698 4.00291390294682
57 14.008221013681428 -10.069315828184612 20.274514997245635
459 -7.783510449595475 -19.931818738776894 -3.9842308467806946
2135 -28.641003125423673 4.2107426766324565 -38.05427539247877
179 -1.763897412966337 -8.496345310278047 3.6543768977238007
1599 -17.547771189571254 5.829455501980774 1.7219087238643225
2120 -19.5220674794011 2.240420806491415 -4.734845251371027
1859 14.247532902492742 -11.849891021375367 3.374892831361627
1411 2.4077704443557857 0.691478805795056 1.669170397751025
1571 5.724949190441351 -4.229127003233169 -19.726805796154487
922 -4.774965280392423 -11.420011355922195 10.539377752891799
335 -3.6457379684160545 31.15211348847126 -0.5109620077386133
1268 -19.934986208118364 -1.0955097995987462 -16.359737581380873
804 14.486588108026133 9.602257025443022 -6.568811405049632
1323 -0.8330734489808097 5.592216327902335 13.07670905103496
1547 -10.48760951066391 -0.8639138057458493 19.19455962250718
266 -2.963387722968083 11.94238124455949 22.316094092268912
557 1.8450445041578434 -6.975962904110534 -7.32336179493081
1742 12.830579735704868 14.084577221922492 -17.384374748696445
1834 -21.54501125263398 4.196002576913428 11.493164243014618
1311 4.912763893914151 1.677694867223889 21.93620798403937
1591 6.2990062842048 14.954647830999193 10.085067304030344
213 4.4099774704122146 -17.39430549576244 14.76153472637704
1266 0.10886613557361502 19.069703655365004 -29.713868557556488
1688 7.988344844683391 -29.11496759562126 20.87328062360279
873 14.511142128757708 -17.206917588606654 8.50194391875999
546 15.382927117997527 -15.587794981739906 5.526014000143862
2053 -21.94612350383719 -5.635294467435284 7.692283092606925
1639 -0.3895325515467576 9.4233783671633 -5.282793817613559
256 5.8489486295789215 -6.031530405860518 -5.903245342106561
990 -6.214273009943533 19.10336668396653 -19.741173804262
505 0.713695472727092 2.6643525316304566 9.639111446541632
11 -3.442464734953556 12.250148385327607 3.7265430893866656
668 2.481198100335097 -5.691187241951577 17.825234800763987
349 0.6179904650008221 -9.773951850524139 -7.283189787924623
1709 -6.932183550480736 -10.83334878928682 -13.249889242989058
889 4.253931680547892 -0.6088118172520723 6.1501375134891925
1943 -8.050294379460539 22.429416936273658 -5.318311178161968
1376 -25.994988941247186 10.088312005817368 22.303534302493816
1763 26.35109200934087 -10.357251451997803 14.80588748556585
2067 -8.734484401865164 5.81158012338684 -11.389582169059521
370 -4.233757537827966 -13.998524505858985 27.694006657980566
1358 -0.33084982963416315 -3.1956203603607447 7.402052571077951
875 -0.8076470889279921 -0.9523076988807595 -7.886735466279399
1068 0.7657431884374777 -13.7533470186444 11.428094551815159
146 -4.7240945756469435 -5.222415194467162 7.693281999422938
1255 15.304167022723103 15.920992380922089 29.07206140095135
1922 5.790718478765068 -5.741877183130502 -1.496760800662161
536 -12.317631915239163 -8.96018947290947 0.5462296016341499
1814 -7.644616702286547 12.50474917964213 6.051571167071527
1618 -10.574354417472852 26.130646219931588 -25.727857381663647
1746 3.375970162841479 -11.641515996516928 0.7833187096310062
1720 -22.505192409463902 12.688626714094116 -7.172957133591512
897 -19.806231427186212 16.606720567280714 -0.9589906918880428
1918 -5.287188039810027 0.4298809372599025 -11.185511304479956
87 -9.494718178049213 3.6098442672126856 4.15782512639013
1531 -3.6734279148237863 12.862286207666495 8.050411190683509
2024 -4.107771039071556 -22.735646713059943 -1.3700331477540053
545 14.632850578015816 4.6651973188965155 -16.15841011822475
241 6.920100065668538 -2.2167510268867514 -5.25769739855034
189 9.137817729603023 -25.17660627504349 -2.0727448953348246
492 2.4563274854016846 6.761585818891135 -36.164157476006054
1059 -3.510691574602353 9.7921217581868 11.301739372285203
1615 -2.9969385129751775 -0.4364855982637712 20.210829795250625
959 5.823117821228395 -7.381682517898612 -5.686481985884375
1348 14.08304250984203 5.502337433112365 9.53409936441097
924 13.928850569688539 -4.80456194138116 5.704194471268492
525 -8.317626171065497 12.768486706389728 -14.239699623382037
820 -5.1943239657129086 -4.983145166340595 -20.76403816455348
182 -15.536391155511424 2.737622177714595 6.2140742557952295
294 9.928693480316735 -3.7123162628795945 -11.286968258568821
501 18.750566790353595 11.598817800811588 -18.147569499034976
1395 -14.654477349938546 -8.010218284799276 -0.6867762443818441
1916 12.0879470064121 0.049990383847350446 -27.923964317626716
983 -13.69683616240825 16.917241459110066 -7.133324554375911
1824 3.1661933286405843 -0.3779473134993423 -26.575578701563533
543 -20.714221212012113 -14.073601056308535 -1.3894218733807553
1399 15.659901827541983 -3.5481105783086346 -5.908792751762408
1576 9.088022160331633 3.8055998200641716 -22.59429260360932
920 -13.391374836817027 6.639884735082362 1.323307249481786
1955 22.961230490282286 -4.673889323480357 3.8819121988298124
697 -4.527801120525917 -2.3275664394066156 1.8887500089040024
1440 7.544420518157787 -9.432729506169583 -3.7543960341996234
1961 9.418065334029125 0.3558651305475773 5.998898587419951
1982 5.021693579342383 -2.974204313185985 7.207453233922198
1723 1.1819304617749247 18.025142859044053 -8.73580093746379
475 8.771953512822927 3.3841031090771003 -14.263663644795418
2034 -4.980296594703874 -8.284659398087385 -1.3652345574112057
1559 27.02520095953148 -7.868063321155093 1.83174130306112
626 -25.89401463509851 -11.574815362473789 3.2399399837566105
438 5.316773099733618 -13.93127831893379 11.453483606777414
968 5.877163636073675 4.967012187900602 23.812450104801933
1831 -13.415827653064545 7.257818118722744 -6.752697079519302
645 -14.535689469179166 9.699298210898805 8.63157876733378
1298 -15.743609998014398 0.28401805567634947 13.959137431807918
921 25.985031274998047 -4.129268379367423 6.251682572189759
1527 -0.6155110069679972 7.492063223558326 23.81382375452152
2035 0.9019309070881442 -5.6646423669198995 -11.178269997256637
2050 -6.712796760309641 3.457429420605898 2.670523268887976
1045 1.8397988145907889 -1.598438627556262 0.27448946729061
1812 3.0742797018917822 -3.28662166824802 2.672094963022687
1604 0.27498072133048274 -1.235328800818006 -7.54723278668745
369 6.700875736018258 8.7276003555793 -8.290583439888474
1465 7.776588947915453 6.307868806265421 -7.009586581198198
165 -9.348071850943526 11.947938112188568 -7.85666600395645
862 1.303641841278879 4.275502332506954 -24.160541438351046
748 5.010269069192067 -6.8834181353223105 -15.771811138657625
484 -4.23623285644406 -4.825917426548559 -2.959469626897688
1397 13.351147425138059 7.8670830127160665 13.950785562531758
1454 -8.695456274425952 -19.82712791777303 3.520788882468975
2052 32.536740767920236 4.18573370856216 6.921031596389135
1058 -12.194867962503546 7.8571961462745055 6.950235018660476
323 9.17110749592788 -12.872039170075464 1.7607424242760057
821 -1.3659246627031718 -13.91100614155852 10.564216658544984
178 0.3172866305957411 3.645644746198695 17.52172136485487
1418 5.977993333880874 -0.2195379685555709 9.576726929374715
798 -4.098453698330854 12.470229247003022 -6.761738359196264
872 2.1982305572578933 -1.195898732218872 -6.94706378418259
1848 -2.292031479010807 1.3196155626897255 20.82061682108867
313 -1.3151969417685816 -2.334970054171608 6.350479315510453
765 2.6553751681665605 8.993478871637448 -3.1120330844285577
1303 23.20956490049143 6.803703124763074 4.719801898767095
25 -3.6461462664327446 7.924759786024282 -5.226234702433019
790 6.020853565944849 26.0428260212436 3.3719108338504444
712 22.299574691892932 10.615777912858706 -8.936934029157756
1008 22.60701088886353 -1.8894607216225614 13.236293082992269
406 -8.33784863737331 3.404112556741757 7.460791818506198
1021 -2.1929181076504007 5.211217916893268 4.619618958100122
1679 2.8386287186535264 -12.085577502856447 -10.961143867123708
1935 -1.0575350019066982 -0.03232657974600852 -5.378191452426467
1495 -15.63386497578417 -1.245021775473476 6.714369493597736
2153 -3.5281517135049376 4.0370995337379885 0.9926090113290347
793 2.6511907156656713 3.3876511457131406 -3.1613990252919617
1584 12.091316176467979 -14.212471722092713 3.326370663837202
757 -5.891389626615167 5.662103224385747 14.69234940518646
636 21.936229222270764 12.449330020552102 -21.140084568768035
279 -6.942111463500456 -1.5996863964902417 9.586955216420979
563 -17.801678440993058 16.147662926245946 1.4594422106749048
573 -23.25006055798367 20.164730197865538 -8.478734020391753
1776 -4.986452657441031 24.00800547756962 -20.62260492410551
1174 -14.67023404659476 -16.294880729087527 -14.111108458438558
78 -13.081350412760129 -15.442159905900473 -2.5138060258287878
1136 -5.0815342235637955 4.322958032622252 6.491161269614934
455 -0.0654625466261619 -20.497647784782203 -16.106600437259797
2150 -10.328271629293992 0.3618530701605066 -20.798069390279952
1211 -0.17204771539559513 16.69270578258272 8.292403564468469
1108 13.783094167143402 4.561719537477075 5.080274937409726
2107 -17.171831469137828 17.543112446753113 12.955993340065303
656 -24.34175929173244 -19.768210466720802 -19.526271024697287
1827 5.257020940806189 -9.72356669718698 12.228772458697165
113 16.696010625872148 15.174814687825007 -3.7060637006912844
59 -1.6264367933573474 24.693031260123966 9.72378197486343
115 -0.9950096778696134 6.69942537437952 -17.699821147676346
1672 9.377959505519467 4.657074055644154 6.391575216377285
610 9.10961016325845 13.202065936127434 1.987472497472888
1947 -6.912189082998555 2.5761015555813835 -10.597034136394473
274 -49.64823134766936 -9.66890399043572 26.577931828633865
75 -12.659399669777496 -6.626409435861831 19.42622649474825
2137 -7.178082632044112 -3.6828171108344248 13.630391239710375
42 0.7682350871524277 -1.9221523385437216 -3.8554274277218434
905 18.18110424563726 9.186847585032577 13.449763528047354
1319 -7.9119546248954435 5.318188746793675 -10.68667081288936
1192 6.193531034404908 1.9270726572228267 1.161400579238467
582 2.3223797131363106 1.6041162745227402 11.661387001375486
1708 -20.366328500886688 -2.0310475588613763 -3.5239359171353115
177 6.180608219933377 -21.675733275275537 12.818918503903484
1687 -5.169524934819288 24.72323028185675 -17.70459708732182
276 -2.840250433220181 -11.25500189420317 13.395458932896837
1392 -0.8103148710804285 -5.73230857940237 -1.6493970443654515
583 8.04206941657871 3.4566713258142907 7.0685554032458
249 -5.593085766463512 -2.799122523351582 26.45014091449947
882 4.690700231907411 -18.8448304509308 23.098513699972383
128 5.057323348504867 7.9294762056504045 -6.647394269123055
1357 12.229678306185258 0.8494037238140897 0.037232944350710596
1509 -16.058380499616554 -20.15141312746693 0.6745524630319092
31 -15.756764954686446 18.18695131175717 22.235117900388126
2000 -11.401443376094603 6.241085056532637 -17.955871139862044
171 -3.158874312638956 3.296767867122937 -4.71829226657056
287 7.069894369432877 2.6569950925350443 0.7337119328156708
446 -8.628249824361404 -9.14390078501017 -1.4337645354620367
2099 0.7834484196448634 -6.2718992869027455 10.94075302933614
151 25.45934594167752 -12.837891278481646 2.169106695375798
1729 5.393437319780553 -5.928453315084958 -0.3334726716096229
957 -4.449764058443903 9.549829316498691 -12.329045410221394
1230 6.294453949413441 20.73344082221043 -3.823291015796724
445 2.976270241684725 11.741602417100438 6.9483329505868205
133 -6.836584499128093 -5.658838729181254 -14.150457431235571
1195 4.297807698164297 6.599377979142902 -24.676063939319107
93 -5.9724763105373455 25.347192357025364 -17.167930846125646
1284 0.7035883378960275 -2.688478840582195 10.918070289804184
440 10.476732681131539 16.314900971935867 -14.111978170502773
1034 -4.5645456429544735 -8.894811659627686 -2.94866609247829
1748 -11.660496403723709 36.57549533079701 22.980627991017204
730 1.4286986871067053 11.427201531258214 -23.449807560295206
328 -0.4367741525568324 -17.571812806374744 7.302422916046506
404 -18.56309868414912 36.47894687026838 25.19542644260573
1704 9.9087174785611 5.547207500504941 -15.300567154807961
92 8.400016200658126 31.59850098063867 11.455252057967005
726 -22.75966078687977 -12.62924948884075 7.191780310798241
46 29.03148436256309 -5.110896259892149 -5.327612678867829
1713 25.051186020668336 -2.925599217078028 -2.5174074389557064
822 -9.02861762789693 -2.4189763706226755 -11.772932403552808
781 19.629423170349316 13.415436866891175 -2.8648690170077242
1802 -1.8923723317108367 -6.880610196702254 12.65323521518194
464 10.61882791352108 4.988162292231811 0.5858230531136775
797 27.869654575518627 26.50994337387572 2.6891428763800005
1517 7.381608285637796 7.8685164692579255 8.148318951269697
2124 0.1197637140915504 -5.715283688195641 -1.5710717177528013
1287 -5.334759649386892 11.708534846706307 -9.693367682725679
2023 -2.657419868340716 1.979272260492449 15.14539812958475
1132 4.205434553525257 4.949913929474356 7.935607775669044
692 5.083829104758304 -16.713777436376876 9.58858113280576
324 -20.771180846058577 4.617474447681171 -10.462104494538343
1288 -1.5936734147080611 11.61504058405935 2.009130460886498
1889 -9.184627049649842 10.464575652566973 -7.080696724352408
629 5.579178113332971 1.9750080997538808 26.906421967201688
739 26.200782395985854 -4.33980649982197 8.835678883363972
132 -26.691530848298942 6.989575660206486 -6.471985926140484
1504 9.712682694302718 5.965974272492574 -4.4340558348860935
1125 -0.8991301867762239 -8.968122919632759 -3.5051293561095584
1123 -6.035459509417423 -16.42037968861827 -4.585441764409954
1810 9.041105745181197 -23.165315777142954 0.9962756897110321
2159 -13.917503957546678 22.131390095435734 -28.839008832582643
244 -11.741476266702827 1.3595441002647453 0.15709886061488487
1054 4.732434011534321 -18.52497296055426 17.25365042722146
1772 2.8807261661480887 11.522240377103437 -5.267576588428971
1743 6.6859568944313335 -13.977826792640258 -7.946752554070359
680 -1.7123624207815664 3.4686295064060757 -30.227369409157582
1779 11.392224385487333 -23.047180191292952 -6.169887127403647
1628 4.6302218418454935 -29.37296307416891 0.6167256947987798
1666 -4.363202737760024 -13.882459985766904 -7.575909407892368
1202 -1.8779004523889116 14.891546881147963 -3.754169746883423
1466 -5.078797805515042 -3.0118733824028223 -5.955421168680163
847 -11.858994672734795 -4.750872733209155 15.836395231836173
856 2.1955626852713093 -8.429050679022414 1.1514019113206697
1992 2.6523460936461314 4.865211359676842 5.674291569935438
289 10.20782759028594 -17.413173358094742 5.4130027173030655
1379 -4.991033628796403 -15.093884911761442 15.013094350724558
753 -27.498176692623932 -8.79383939167145 1.2527090109130283
2040 -4.601143907578662 10.924673719562515 -27.93578306258909
1328 -25.166578012143322 -3.1152922960376666 8.01832996783105
1673 -14.827413416050973 0.32707936790794806 33.38823456781065
1682 13.133382794523943 -2.2788874234535066 -6.58408745831235
1157 -23.4190261083502 -8.693867569353372 8.127001648982624
558 7.566018091304285 -30.87205197736468 -13.72060386262133
1177 -3.5873528132673984 -16.995679173273196 -7.203633791502342
936 -13.18249805036403 -8.112602563284709 -13.163114193492156
1565 3.344082720243857 -12.946522087380176 3.1660907340583146
362 4.831138205397533 -9.991633280548434 1.788336286094508
497 -8.738896012704336 1.3738818904520222 -5.450167612840431
192 22.683260977665164 -6.559329906210061 0.9197934338636365
1588 -3.8128051288617226 -4.483310761838949 -15.17862697888976
964 8.50480381877992 -6.964725668194953 9.750450555508085
1232 -11.8045921567279 -3.4224916349054677 9.053741548125588
1160 15.287734572306492 -6.7942336296701145 20.491566559123775
1435 6.522683315191706 -6.807480311444198 -10.212191540818548
1138 8.281088965729529 -13.60237425768053 -3.6156912612117313
390 -23.68819738449062 9.465465194568038 21.889933978218497
1431 -10.772675550030806 -13.487212258901438 12.450107379877371
377 18.877177353647358 -25.47800350823055 2.5411689947526583
848 -8.432881098680625 -1.4121932379826845 19.291465346392883
1154 7.122678821784208 -0.0439133573763141 5.819340072264122
1557 16.426355990245604 6.946843296892492 -0.7519835153358143
1117 5.463171778837106 15.973017081362995 -9.934031310501164
1280 16.3544108043969 -11.999043040726104 12.491504760511544
1595 -4.700816859361901 -8.645732949769668 16.472594104505067
1741 23.66641439266828 5.087890612729306 7.21822003235455
204 8.481046374126018 -0.8473063897384123 -19.422108545207
1367 0.22799908219181234 17.985672306095424 -8.043888780738044
181 -3.820440652290786 4.369477152257811 3.3913137560344526
1909 -6.380631701434165 3.5759296733094565 6.919822790058268
742 21.37692083702279 -11.442252044394655 -11.337647681297751
842 -13.89972673687133 -5.7458286421863365 -10.261224539506696
540 -1.91225318862997 -5.148840771939332 -15.634806978231602
199 5.521664499329785 1.2624449990370488 -12.983601279188013
772 5.996957143975913 -17.601659476792943 -0.34285098909695194
1643 -7.303667099685974 -0.45190491580671965 7.6036689383102205
373 -4.026554105557156 -2.192868827903732 -7.020531914105085
420 -2.3175717699886906 -25.111964996810034 -3.4507328266907114
1137 -3.766635657388482 0.6184386422928488 -7.76812678365451
258 -22.00095591358182 16.93656799799059 15.425038746366784
1496 -26.23554436666953 5.4864900612764265 -28.720657909067135
97 -5.01264298968447 2.1703879320791537 -10.858924345810388
534 -3.3305786078859363 19.524454566248526 -6.157988134288561
974 -0.014022472872645755 1.156843505370495 6.034210166973518
17 -29.245276445208315 25.869741579989128 1.8683716346005763
172 -6.036184732251286 -12.69936844997945 1.5068367201084059
1390 -17.29033640076398 -9.374699558481062 -1.2944474624089637
2056 -6.348315283724069 -2.273942764871656 -8.605532903426061
211 4.0340687862103195 10.23277806614902 -8.00694887371814
2011 -17.051152433837398 3.6134947351609807 -12.258704421033462
1945 5.628430368180875 -11.68285775361102 17.745407015032566
1652 10.646300719173308 -7.83322898348761 3.1062144919822257
832 -1.840279158096929 0.6281943438742568 5.221530136528194
1116 -24.835144891058548 7.541923748093149 -7.446559674681943
1891 -6.731957940442279 -1.9552629687523702 -29.48828329653531
1419 -3.569543417213522 3.1271989864240908 2.9454616880481885
1586 3.082736534850713 -7.162440688862046 4.204386823265397
1075 11.079990000580315 -14.158567781798938 -3.857461204445159
48 17.27040155908238 -5.176130021924956 1.2670005157198811
861 -2.9949492820867682 -19.729409204787974 -2.550641705657749
1946 -2.0377804688802166 2.806116601236479 -3.218505362347169
1902 5.803048174853245 0.825071895078857 8.984645782651235
356 1.0080389184017393 -12.00059210734894 -2.5875609951796164
1609 4.236198788868384 -4.929473751492084 -4.738887257931878
1661 -10.380433889491101 -9.188674631578655 -2.749969988977591
1906 3.658839123216924 6.593793484552003 4.808183369649777
1510 -14.082963434258815 -3.829658863759615 1.3677019675973912
1424 -10.030362836125397 18.83762821172411 5.090110476685604
345 2.7845925918035292 2.2120484370470437 12.939742045710943
1237 1.4451575579467062 17.593361834530157 6.588619588687034
1797 2.573574308853061 -6.250708827516737 -1.9063396718636694
269 7.91635514411325 -18.995543244203777 -15.130632314434294
1359 10.822951461447838 -0.7941745024543113 -9.114843726841105
685 11.054485702459164 -9.745335978743007 10.11448518937695
716 -8.48473804585194 -10.27947838537608 16.48545085757309
1634 2.987327978602829 -6.57266188882485 -15.454655585012727
250 6.681142923814102 1.6503477959554547 2.689466133447034
1568 -15.976529023275452 5.641887365753336 -2.3376814362463696
854 1.642217051661913 1.3119013576884493 -15.911057351524097
311 4.920400475384535 11.886284985533674 18.056438915408386
351 14.04709365654966 -6.070032771535673 -3.7270443541715834
1402 6.379921822419195 10.631611037123553 -1.492077258187748
994 9.107161367454397 -10.883500517908764 2.4012508072941667
422 10.742227481376995 -1.3131140402605415 4.055854848859904
358 15.79116076768303 3.7475996351276075 -2.598128003054855
1674 -16.942610498156377 -5.5817105934188085 -7.003977620725467
1170 -8.860786595382349 -10.549273163442383 7.080767807996863
813 -1.1782004298193378 -4.893141520280931 -8.59906378413055
1549 2.3499671277278718 1.5916291012495134 -2.9110170158824387
570 -10.086468333201275 6.974446164204701 1.581495808964579
1786 2.7691913875467766 3.258202699482185 12.721681425290742
2004 -11.568567084342583 3.526565964813573 -20.38848694221728
397 20.67427477804523 4.67695868431222 -6.858454870866832
1950 1.4531282480243877 -16.921930113601817 16.477629910780603
1862 1.426335945883387 9.229051470677414 -26.16470311752598
766 1.6227422608422728 5.5480281232350634 7.538462776459501
958 0.5706893405490838 -4.765238267529257 -4.640326537698903
1631 1.2734124087749497 3.8655017244818644 7.797223987728462
317 3.9963952076568043 18.654698970672996 4.851733433675771
1744 -14.015655611536504 5.139748378746665 2.835822192586086
689 -18.254217821282506 12.00018070985025 3.4879529490365964
2049 2.8017136963528646 -6.968738976367176 9.877466368202795
339 -2.660201313069042 -17.80427071443819 -14.881772064273601
1275 2.1422181381632304 3.2783036914076122 -9.536944669520825
923 1.1362747674662443 -6.088743682874757 -8.65120740885653
900 3.236258753652626 -22.385461411574724 -5.435857330835471
1574 4.2200906775940235 -9.446339138137064 -9.209244641259485
1579 -7.645577819439733 -11.390513229019675 -6.318261054787724
1267 7.465525333237337 -3.607480440426942 8.9886432869743
1693 -3.639864441455106 10.556164553338602 -2.876713787330138
427 -22.939147250787055 -1.6488981087459516 -6.489523435178751
1767 4.443206799987391 10.134393394632983 19.238509427247564
1204 0.5083667261854531 15.851179359071251 23.970648530476808
1871 18.24879598127919 7.1996078313151015 -17.532465924068376
85 -7.899214125541343 -8.866051494525447 2.4805089539254603
526 34.40902497288312 8.74515540820167 -2.998737284856451
1991 0.16592320110906128 -18.035021111881424 4.726963148638486
412 5.275023421053644 -11.647626674577449 -5.275868260800051
110 -0.920156506398224 -10.907299753686834 11.917064440167122
442 -3.722122850642019 -0.8028842724983022 1.4994238836263936
95 25.77336644311459 1.007564789270639 -14.365493257907898
36 7.013838737614755 11.673223183957507 -6.26705396695644
26 -7.625658756931933 -4.936736332135639 1.5897742786050861
1605 23.30279793111035 1.2319871853805648 10.215970839496238
796 3.1836672297629147 -5.746861246488787 -14.01258665600729
1770 -0.2908667293587425 6.375895440544582 13.677564685446345
1667 4.203049006491173 -4.80503057722669 11.234803041439383
997 -1.9842714652169413 4.06846475729871 2.613585986832793
10 -4.255126433605327 5.964711003653071 10.564463410646526
661 8.566891180552146 -0.8342280735002893 2.017957537952554
1543 1.661165751219552 12.136453549196169 17.51599399554549
1972 9.343482041052837 -24.28882485645429 -3.433642563868786
1539 9.941930938543218 -26.553964347218923 -6.1929615791508486
2041 -4.54103979567986 -5.685890886201703 -9.170181557979141
426 1.124432130979695 2.3179466035498413 -0.8910960119633113
683 0.9038723895326753 15.358054969617902 0.48715426357026836
819 1.908095665423381 -8.037159842526187 -7.2468331255997915
1833 -1.9420167159705004 -8.631560200021644 -9.346445415587562
744 -14.084561984389518 1.5337337153644963 -5.905009834044322
1047 1.184299694031653 -8.071198338747793 9.085146315553844
1098 -1.0793249263090197 -3.9887171388834415 -7.929447146222973
513 -4.381759190835899 -18.109344015974834 -12.904759904898222
977 3.9021450444890218 6.757764444026657 -0.01724439698175539
831 -19.768724519040266 -1.486207979853962 17.47928815105885
1330 21.565840141398233 10.778362471097495 -7.651223168495901
987 17.553014930354212 -4.7777121350066425 -17.725732027002188
1235 -16.984008277186184 6.8820457176260925 7.467038674213224
1344 6.422243821843271 -7.080665604753931 -11.807670092278695
603 5.949537180604868 -1.9403437964714938 10.195515189934701
58 12.674745346757833 8.816842487731922 -4.288605947976799
625 -6.116015061872108 14.976946702503875 17.83577157674668
1078 -14.543863334450046 1.643567026222017 -1.5472943855511494
1200 -0.25134221968615866 1.1173897395614214 11.229504909041145
1225 10.4931820470159 17.57323389084857 0.5389832761397815
1469 3.2948254115393394 -3.914404033436092 3.236248711095385
191 -1.3979580940081717 1.7914035881952566 12.040847770116313
2139 1.193366671240295 -3.511396890810765 5.444207812393612
114 0.8854596256369803 29.11758363523742 8.261343378267497
1795 -16.95670062394747 18.245857420307768 0.764739065522272
2074 12.51808100066527 12.214959710903932 -4.40531268065287
1552 5.8742420852498975 6.091073104519156 3.2200135807230463
40 16.19719683320889 -13.523017249480612 2.1434689805993954
1260 8.431415157952875 8.406422414563576 1.4146699799483489
140 7.267991248007342 21.496593754111665 -5.073059838495815
1057 -7.194081156453532 8.500069098366207 -10.374604896780935
1879 -4.315725147432459 5.8212763949320925 -4.685062419845912
1512 -1.4240453297553715 3.065080747397543 12.145961281434726
495 -3.3145711256734773 -1.8591104101406397 -7.999728770772672
1062 7.648084680976852 -0.31221914133211603 -16.519806542111013
82 4.705715449711179 -8.639381865442578 1.5579519679346443
1872 -3.640569189361238 -26.92486830694002 1.1336089652622552
1843 2.1986657623532677 -9.167719133564175 -27.870692283750124
333 -7.211531533961522 26.713394399422075 6.527750858291616
2043 10.937949319052787 -3.5185273337588905 22.381921610866524
1985 5.58197036408014 2.170926507346675 -7.534139605858812
1750 12.96195668719503 -4.680114920482851 2.0039775592914477
2148 -7.327258129548111 -19.484615355861692 22.40940876278535
100 9.15043432181383 -2.091204782977062 -11.279145357607606
120 -7.898704190207348 16.464999091799967 -8.365225196762973
430 6.923795469818441 2.7192561641535646 -6.806102423718768
1660 2.7550302770057327 4.356871862468669 -20.77086695094383
463 -6.621914012198863 7.090216886154807 17.134694820194103
1297 5.888113232465516 -0.30023431048690713 -1.054552358830444
681 -29.403292778235404 0.545287645125874 26.79100281956285
1551 -5.873791560342092 5.212967549869605 -0.07320206967049488
624 -10.971453788204453 -4.626700502210156 31.03385825366123
1018 -19.678381809268355 -5.908824956875941 -5.904004661755787
1264 12.855957725245338 13.475627180586901 -9.651229209711746
1011 4.453472799744684 -0.21751562902240615 -0.4923087411986479
1259 -28.832174928913737 -7.203370582469361 4.380919065011155
336 -20.03171500709634 -4.051992900518994 24.858115335802868
1091 14.66838685550788 3.2325336633060022 -15.372233429062254
1936 1.5406869813369326 -1.6879520677674853 -4.448934885966995
12 23.63277188693182 34.509999866531416 -7.680533191630244
1706 -18.11606147192257 0.24974469717795914 5.076064630939781
622 -18.607818394646586 -1.0009079161674677 -37.817835084376306
206 -4.82919452236254 3.7049463628983603 17.03706025917114
1377 9.958531810560185 -13.244498648336616 10.300082495423363
1901 10.976457392989072 6.311267545978519 11.505098876431298
44 -5.926774211517675 5.204227600917774 9.07796196722027
1081 -8.01411736152779 -0.007516192779032568 -0.9082889637377219
1702 6.67781949065837 2.175337742619777 0.016557952867326965
383 -15.365984805014024 -13.112994804087233 18.586907599224304
18 -0.868297073869269 -20.253491894922995 -18.317052537065702
666 0.25140006117202224 10.394905645035042 6.497758000003446
2143 -1.687847731999044 -8.52548163311281 28.138994173633783
37 2.9497803685846073 -10.139374032891375 -8.157666056566901
215 0.8372362914287836 12.932096408846448 12.831152802182352
2031 8.93245104417893 15.749984898604973 6.565844626605468
137 14.636686265884723 1.7349035940148236 -9.588152292691284
1573 -0.6276415541946515 13.761428926655931 19.55765171924013
799 -13.294431014350891 15.891085990257496 -26.31260169291347
1050 12.449887670197354 4.311906022137386 25.233951205612716
1815 -20.725811630279836 -4.674081599697165 -7.306761471288521
787 -1.361246052398991 1.0682306647404285 -13.946919925703453
393 2.3922662216681614 0.809701766939278 5.688451895250362
1578 10.66085453915924 22.8675913942311 18.334553606799634
1023 1.9854379125278965 0.022590046895635024 4.740426374732509
1380 -10.642675834637902 8.646611772545727 28.892368339957
881 -11.43720108266735 7.1181996400035015 -7.9952170065120525
1965 11.050091514912001 -9.984585384046241 15.808224737308509
1069 8.588972956645925 0.7576592346348188 -3.7232813708754677
749 3.160442183576803 -10.032142486603849 -4.08572694044248
1197 9.569453109549386 -1.0599204175643524 19.662808486885123
1405 -0.8052049081568445 -13.305526433341733 0.4950748317229484
809 -6.412770335144346 0.7778012515197198 6.808594265646743
514 10.668671031299459 -13.957370705891694 -5.811226176978406
1070 -17.426955217408004 -0.8615383590059511 9.72786085577277
530 9.578159794667162 13.2782968346486 1.3270658388816583
1436 5.860107061705133 -3.1955452153891217 28.515470010356285
2081 -32.997566607001936 -8.140443789096667 12.436919763058533
779 7.523395395178515 -14.802289589213492 -0.9485748197475365
1449 9.90809797442841 5.76187461667951 -21.583415316646192
1447 6.7900717946038 -11.935392800771583 4.807788683966192
755 28.91684669384954 -2.404557999124829 -9.841343748289964
239 -4.038439164719414 -14.03277718037717 9.949598253800508
230 13.365631872668953 9.577182506985663 11.625337761364191
1016 16.79797993992749 -5.635516479343342 -9.697758373627524
1382 -4.951577328674058 9.126505710408049 3.39775553179381
634 -11.252734391071183 2.447254476719868 4.273141898945002
1698 17.2606586293906 -2.3341010068499237 16.449344758643274
1122 11.707385361287818 -14.40344634287405 -12.130339132971075
1394 8.241989587664905 -10.025857351813997 0.9017268268682451
411 5.130627475287739 -7.884649820206393 -6.931635088351732
1845 14.518407999503093 -1.430249499961098 1.537258494423006
711 1.7509137807192665 -15.148386165490715 -10.379722467135693
346 11.143489376345 15.738808352655841 -1.57367540079714
1560 10.090752885330632 -7.092415560986349 -17.03813827378563
1439 -0.7348223313838497 6.2588575882559505 8.607127664723746
1993 2.5899596556382316 15.52172758074085 13.032425751559224
1892 -13.921072279947953 -3.7638745572412633 -32.320809182672605
212 -16.54871686853625 -25.536818143813957 -2.8799577644540237
547 18.00559327084003 7.789972896218294 -11.804821482955004
2112 -17.82313174172666 3.3967958547543637 -2.805605361637593
1020 -0.7852029380123765 -3.6239719517425724 17.437283860661257
2149 2.7665440284372833 8.119455153316723 3.199320802433421
1890 9.169026462438952 -2.579642860336424 -0.4074043940455298
125 14.53758019598361 -8.901191188970076 6.4985240329150615
2078 10.296415317273777 4.551708088132722 -6.1245323237251315
1654 4.210943043730719 0.734992906740232 11.903362315133434
1482 -2.257623143055779 2.2151033999965675 -16.91926340062304
504 4.771041235132097 11.851367888512366 1.7204094435715853
719 -9.041787874334474 2.2001691556088674 -6.365318340909159
1252 -7.682862209658607 -0.38748790100837593 0.5443444577741879
1585 -5.721827899809237 -17.13393175538038 -19.6492615646048
221 -9.092991823566473 -2.822092694182852 -8.204500735134
43 6.970663679547344 27.204791290994095 15.658552685674655
1817 7.127091261435741 26.951639154205527 6.370001147826295
220 -3.961524892512094 -7.62515014393863 11.743443658738645
1500 -8.140494952391403 3.2485405310752498 17.747107782035187
1621 1.5221924445461705 -6.712955755212839 -14.527136789925574
1194 13.212217881734745 -13.31739113644415 -13.499123109536614
633 24.064812352333842 0.595136186066329 -7.526672489269473
35 5.159757538140553 -4.228901366003987 -0.26729027058154453
826 0.4680745730902801 -6.679787318639829 -2.032603176006072
2029 -5.6825485109614196 -13.790367898342016 -4.964786775924503
198 5.97580433253873 -4.8285588569029665 -15.2100299710411
782 1.9573178361693648 -2.2962578150805895 -0.32024500181359694
919 18.27473482134239 -4.769157090357282 17.32241010452121
1975 -4.714658573912804 5.197807620742453 -4.8114295994116425
366 8.849706757986654 -2.7785099805108686 -4.431146702080845
652 -21.31612602657581 6.466750600255412 -16.46456074107049
1644 -20.92398038775774 -15.394356714598269 -6.832257743612228
227 3.50449928502881 -17.61125844702912 15.008967271979255
1251 8.027352065091938 -1.6946029580368283 -6.184959352050625
1086 -11.299982829479202 -6.644359906244609 19.36451264718047
2077 3.7102859890614783 -9.126284221277768 -3.3076048982950175
2071 24.016893232590554 -3.2879115655851074 5.117308838027332
562 -1.3906681748309757 -6.520407450875451 -11.69568582447437
1937 -12.67852996133385 17.10502500228938 11.38676889010999
1898 0.3749789204496734 13.985317386371051 2.6858287408298827
307 -5.956996985295761 8.485249585767319 -20.094288883918143
1870 -23.869662952855652 -21.741485627519044 11.271927865178146
705 3.783489559023306 5.102720973996187 -1.105016880420583
678 -12.752560648405613 2.04703057305503 1.76550595865603
783 17.98935471737779 9.892008956671265 6.7464764679437135
1725 10.95470282963276 19.74156566124964 -6.6327655881420124
