LAMMPS data file via write_data, version 2 Aug 2023, timestep = 5000, units = metal

2160 atoms
2 atom types

-0.13095198564362853 30.269865365641856 xlo xhi
-0.13140961780978877 30.375648137808874 ylo yhi
-0.15165527673719126 35.055480726733364 zlo zhi

Masses

1 15.9994
2 28.0855

Atoms # charge

684 1 -1.2 4.407850824953356 1.7192541136620678 0.8039390792646628 0 0 0
1864 2 2.4 4.418137765822676 3.0257472026010968 1.936105805741789 1 0 1
2009 1 -1.2 5.964948533557086 2.8522473428182606 2.4980484004414834 1 1 1
1921 2 2.4 12.180102188978159 1.3502256842452962 1.9924474251080349 1 0 1
425 1 -1.2 11.519602429980758 2.0232095579549743 0.6430650229873941 1 1 0
262 1 -1.2 12.16373997133269 30.275610466779767 2.1209965912031077 0 -1 1
658 1 -1.2 13.736239022372853 1.8074009573009933 1.8326271707198005 0 1 0
275 1 -1.2 22.514664957159177 30.01594088323961 1.2283104291815867 0 -1 0
1140 1 -1.2 24.509872383936447 1.1278113799519132 1.1744342242542816 0 1 1
1657 2 2.4 24.804849990471375 2.4287517819498 0.49428253042742804 -1 1 1
1867 1 -1.2 26.16183648299444 2.892709028153235 1.172617424371047 0 1 1
678 1 -1.2 28.313700526692852 0.8952716328860376 0.38962812389847296 0 1 0
485 1 -1.2 4.006945280647981 4.293117915490991 1.181985555381089 1 0 0
240 1 -1.2 9.774409541002383 3.7241404420956234 1.9530267374961914 0 1 0
963 2 2.4 11.27279975348601 3.60478120863463 1.0077746589447858 0 0 1
2074 1 -1.2 12.598771072280446 4.365585176478206 1.541864149423158 0 1 1
1828 2 2.4 14.041564121372192 3.4699315186689272 1.752105084693839 0 0 1
1677 1 -1.2 15.216580258988056 3.65795220659275 0.6615666431387879 0 1 0
380 1 -1.2 19.257946300170914 2.729034768006329 1.320958373244965 -1 1 0
1972 2 2.4 19.201253332257252 3.8631206781249947 -0.051456086510241195 0 1 1
1317 1 -1.2 23.855613326327575 3.8942475296837404 0.5851832656735388 0 0 1
1561 2 2.4 23.409238913412633 4.769611290769133 1.8963566100161495 0 0 0
1134 1 -1.2 29.06002776224298 2.932994754331185 2.054183268969202 0 0 0
66 1 -1.2 27.68404378848574 5.153790562654783 2.3887081345779433 0 0 0
1384 2 2.4 27.5954293447426 3.7360524184491206 1.5045483317879014 -1 0 1
1879 1 -1.2 28.146931632450322 4.208258567836948 0.03645429504695658 -1 0 1
1671 2 2.4 2.508460449302192 7.87341006909035 0.26023249742100457 0 0 1
1593 1 -1.2 1.2159393461364185 7.039820119547933 0.05089158716706405 0 0 1
134 2 2.4 4.682449553133095 5.932586163858177 1.4383056477863532 1 0 0
129 1 -1.2 3.3369385383012715 6.671355679439698 0.8826784564372756 1 -1 1
1281 1 -1.2 6.033758111171456 5.865043160643119 0.42585772806375316 1 0 1
260 1 -1.2 15.35652240815614 6.813092953545538 0.42034523225472853 0 0 -1
2028 1 -1.2 19.311589446805275 5.313739928939306 0.3233991632858183 0 1 0
161 1 -1.2 18.526875972881587 7.673207466373999 0.35359818049803793 -1 0 0
145 2 2.4 19.692754656267862 6.692407460395507 0.8693334917814594 0 1 0
180 1 -1.2 21.071865575192067 7.3716719646288835 0.20237228242303035 0 0 0
1984 2 2.4 22.592389313259815 7.35912736691099 0.008329308644396162 0 0 1
2093 1 -1.2 23.32934579672611 6.238982448519673 1.0723230635956689 0 1 1
1475 1 -1.2 26.91246987382543 7.756074301225357 2.9143869586330022 -1 0 1
140 1 -1.2 27.333507324007094 6.853927041426854 0.3262909482554399 0 0 0
280 2 2.4 27.70988995444726 6.7914312792667895 1.9961785299935237 0 0 1
1438 1 -1.2 2.264734725352869 8.796294342187666 1.6767535921679084 1 0 1
432 1 -1.2 10.060041473822869 8.865332023268373 1.6768519993489872 0 0 0
615 2 2.4 10.605107807942101 9.805562673862678 0.38517182966517194 0 0 1
702 1 -1.2 12.010139811167335 10.543230730266917 0.6965410525232963 0 0 0
444 1 -1.2 16.17292732203699 9.424270940354848 0.8575825534084903 0 -1 1
470 2 2.4 16.732426407687946 7.948884837134613 0.2795886478019238 0 0 1
618 1 -1.2 20.532915643196613 11.216836975759328 2.0186332472244124 1 0 0
1558 1 -1.2 23.50079372279491 8.635140342199337 0.37781560757373317 0 1 1
98 2 2.4 24.29166849232077 9.754507157343834 1.282933442261943 0 0 0
120 1 -1.2 25.84270434090182 9.602044056450467 0.4990297360751523 0 -1 0
1660 2 2.4 27.210886803519564 10.080967311408722 0.18582038650128938 -1 0 1
516 1 -1.2 28.20325429476863 9.372763875522239 1.276345037099205 -1 0 0
879 2 2.4 1.3628688290143223 11.985136594620661 2.1507186586507356 0 0 0
1015 1 -1.2 1.9550715569183643 11.602662590160273 0.6925047065943521 -1 1 1
284 1 -1.2 7.011324288432955 12.245781470545404 1.9585341230925037 1 0 0
1010 2 2.4 6.186187120508383 13.488606648084518 1.4871426471407396 -1 0 1
515 1 -1.2 9.46485172966549 10.923636507499436 0.28040745759663727 0 -1 -1
1129 2 2.4 12.830830336985336 11.864235612790344 1.304320147972887 0 0 1
1577 1 -1.2 12.399263867881272 13.378858884120993 0.538979951282419 0 0 1
1220 1 -1.2 11.859988347997586 11.674506656946937 2.74080008973543 1 0 0
598 1 -1.2 14.346442711695005 11.50519403977563 1.6799521284277417 0 0 1
1456 2 2.4 15.580334016731761 11.005579720780888 0.5590733327850264 0 0 1
286 1 -1.2 16.82038871993467 12.016175206520716 0.4509501388475845 0 0 0
243 2 2.4 18.16341647794967 12.869680631116784 0.3660182136682331 0 0 0
1169 1 -1.2 18.104281886763463 13.709615193276418 1.6806737724490706 0 0 1
1234 1 -1.2 19.471075525741217 12.085557400582443 -0.09849606291705015 0 0 0
2101 2 2.4 20.911848171502413 12.037935328609965 0.77839872044339 -1 0 1
1928 1 -1.2 21.305713786463297 13.56543980433524 1.33758477450112 0 0 1
1896 1 -1.2 24.29095146357326 11.303952309579481 1.397795204338322 -1 0 1
574 1 -1.2 25.721023582574688 13.671384068371774 1.287088670287753 1 0 1
1405 2 2.4 26.625804449166587 13.401673830463045 -0.012650695528136384 -1 0 1
1457 1 -1.2 27.984665061844925 14.088443641336283 0.5531315374008257 -1 1 1
701 1 -1.2 2.1266381838655732 16.11073254991933 0.9159692020324414 0 0 0
1186 1 -1.2 3.57021896857149 15.819243646051957 2.736327236366879 1 1 0
991 1 -1.2 4.6635378446330975 13.314057724832441 2.2703567649759284 1 0 0
152 1 -1.2 6.90605735706846 14.995458893798853 1.5967443756090083 0 0 0
877 2 2.4 8.321353633658736 15.581582118620842 2.3056191474765586 0 -1 0
1055 1 -1.2 9.100213263288792 15.68505780376972 0.9163453523276764 0 0 0
2038 1 -1.2 13.753039276453983 16.132713012132776 0.3903524109408496 0 0 1
1696 2 2.4 21.48976958005458 15.066979318272319 0.7735287803878906 0 1 1
1590 1 -1.2 20.22131519314399 15.655504130137029 0.12623728801098255 0 0 0
1760 1 -1.2 22.16439036151268 15.888965394592207 2.0068100538104425 0 0 1
1965 1 -1.2 22.97154152832666 15.174665549170214 34.86919826870349 0 0 1
223 1 -1.2 24.752917073216263 15.730276339087625 2.5117780577474513 -1 0 0
542 2 2.4 28.342919158894247 15.322423121434737 1.6742701580175177 0 0 0
982 1 -1.2 30.11433409237376 15.65233307916709 2.235748631786186 0 0 1
587 1 -1.2 27.36508476860019 16.554715086159376 2.0423761934943085 -1 0 0
1219 1 -1.2 2.0608259709344003 18.12946349479817 2.4675853808453225 1 0 1
1160 1 -1.2 0.9796363251490868 17.847140242398375 34.87336947406332 0 0 0
1094 2 2.4 2.9939571600674393 17.019580932559066 1.6493999723114436 -1 0 0
1295 1 -1.2 4.05592495022004 17.899992551692012 0.5620658558551472 0 1 0
1444 2 2.4 2.729227668142261 19.544822393058613 2.983080173025958 1 0 1
1006 1 -1.2 6.557167657212649 17.750807254670647 1.5136803341312013 0 0 1
1754 2 2.4 5.570362994507741 18.04893948886323 0.001701781704166636 0 0 1
2100 1 -1.2 8.258924713653004 16.788683050981533 3.1651243552255495 0 0 1
1118 2 2.4 7.505300443915856 18.20835875946494 2.7015234573480935 1 0 0
396 1 -1.2 13.597600551328647 18.9208306543288 -0.04452421659278366 0 0 0
530 2 2.4 14.577793595756852 17.612444052006776 0.20253127739640758 0 0 0
874 1 -1.2 15.286370304412872 17.63378554994877 1.687502176627808 0 -1 1
1683 2 2.4 25.803337835384635 16.874964841862173 1.772719173334696 -1 0 1
200 1 -1.2 25.531947423138085 18.232899252670766 2.373354282327829 0 0 0
1024 2 2.4 2.039704927595603 20.77556132137909 0.3818906940400446 0 0 1
1449 1 -1.2 0.4985619482149073 20.356434064971012 0.23066896282557045 0 0 1
106 1 -1.2 3.2221719001543816 20.321701318853222 1.5355860181089738 1 0 0
1885 2 2.4 6.2363290168450405 21.180837593190514 0.15633550119696005 0 0 1
353 1 -1.2 6.350712770731219 21.769146034380277 1.6345600676739938 0 0 0
1391 1 -1.2 10.943706992565918 19.3036664277903 1.561958678185072 0 0 1
1070 2 2.4 12.471921563269817 19.675589714567867 0.751127474666648 1 0 0
703 1 -1.2 13.18540436530908 20.7637977043582 1.4062951933578538 1 0 0
673 2 2.4 16.17196974919681 19.08453483254782 2.12275764038549 0 0 0
2090 2 2.4 14.063331004363986 21.489130879514807 2.5465073892541796 0 0 1
1698 1 -1.2 15.447363995729466 20.741656275139455 2.653718370059723 0 0 0
1607 1 -1.2 17.471074517877735 19.65193755982391 1.344716967625534 0 0 1
1274 2 2.4 18.613920256668283 20.97223300979294 1.7084943934506764 1 1 0
1846 1 -1.2 20.056905887120294 21.10122607632101 0.9325873713480636 0 -1 1
1560 1 -1.2 24.13300207642158 20.278603314364915 0.747934477346938 0 0 1
2001 1 -1.2 25.450780659514674 21.24174982793057 2.764879280245611 0 0 1
1189 2 2.4 25.424248235946497 19.846837262676118 1.699303334039549 0 -1 0
1583 1 -1.2 26.661994242385 20.144593634780318 0.6624982920505806 0 0 1
1892 1 -1.2 2.0593537667773734 22.404855993854063 0.49794632728116595 0 -1 1
338 2 2.4 2.2892637025820712 24.143506887926886 0.11342840318273635 1 0 0
2136 1 -1.2 3.855038800356856 24.691430341410655 0.35470775710325264 0 1 0
1250 2 2.4 7.082247380968737 23.364386080471583 1.854416660603899 0 0 0
2112 1 -1.2 7.2907126954946175 23.94421228227174 0.49042815523496713 -1 0 1
2030 2 2.4 10.446914059887625 24.036966621014987 0.21669917995873209 0 0 0
682 1 -1.2 10.848434672283016 24.01510097484554 1.9149847102613478 0 0 1
1151 1 -1.2 14.14957551464048 22.982826058390955 1.8063834641208272 0 0 0
1653 1 -1.2 16.45872019280391 24.51962103101656 2.2417711709168353 1 0 1
372 1 -1.2 17.908307002542735 22.62530396455027 1.7539311639176869 -1 0 0
745 2 2.4 18.059624184046957 24.203177651974016 2.1010352786298427 0 0 0
1883 1 -1.2 18.63025928902999 24.17828864946979 3.6510913549291004 -1 0 1
1482 1 -1.2 21.989941691842784 22.57376682361555 35.009597546249935 0 0 0
83 1 -1.2 24.166801026361373 22.89923402740873 1.1673344126247756 -1 -1 0
38 2 2.4 23.165744663052006 23.55951771533288 0.1815861347233838 0 -1 0
1228 2 2.4 24.18610599462581 22.297247062979633 2.823242264333985 -1 1 1
245 1 -1.2 1.3110143005174941 24.537747683396137 1.460164482106236 1 0 -1
16 2 2.4 0.0850512951344875 25.494962890170413 1.889422660438511 1 -1 0
1114 1 -1.2 0.539354560915396 26.854313168783616 2.3976471509595507 0 0 1
1710 1 -1.2 5.1733538653356455 27.372821747787743 0.5861721505608746 1 1 1
1361 1 -1.2 7.619151190476264 27.61477028461808 2.067118755084336 1 -1 1
1592 1 -1.2 11.698620180875222 27.356575943178168 1.156634411053445 0 0 1
1851 2 2.4 13.321083427282364 27.02645941543217 1.2740814903536242 0 -1 1
708 1 -1.2 13.728156114838974 25.66288486846703 1.912190406061066 0 0 0
2014 1 -1.2 18.61408774654039 25.165226437256365 1.0683786321012432 0 0 1
63 2 2.4 21.498774542499664 25.968975563267662 1.4893422429089545 0 -1 0
2142 1 -1.2 21.65217988874557 27.581391744605174 1.4674298191752635 0 0 1
1703 1 -1.2 20.695444214812095 25.49332318179253 -0.07306763430196353 0 0 0
1145 1 -1.2 22.89795630592371 25.120295788934882 0.9222112148496098 1 0 0
365 1 -1.2 26.97706720398228 26.598064710494423 1.3989525940175356 -1 0 0
295 1 -1.2 29.357865110623692 25.911341715957178 0.687567141875901 -1 -1 0
652 2 2.4 27.900086376218688 25.819320518712985 0.18705680161552715 0 -1 0
1884 1 -1.2 2.145418574547855 29.106167086469696 1.2813943823120886 0 -1 0
746 2 2.4 1.553896087066746 28.194820631563392 2.4680032580160765 1 0 0
2018 2 2.4 4.9361340304382635 0.34674908802175014 0.17021227428834704 0 0 1
633 1 -1.2 6.0071898633233465 29.780803078860874 1.0816598923070346 1 -1 0
1048 2 2.4 6.538285781861272 28.213584689693317 1.01817861772173 0 -1 1
1855 1 -1.2 7.1721974704472835 27.88997036978303 34.50005695665156 1 0 0
8 1 -1.2 13.934415580937669 28.222352583638273 2.1235981483878934 0 -1 0
1354 1 -1.2 17.688250381195424 28.513843809573185 1.6256858292349752 0 -1 0
568 2 2.4 18.53869374262457 28.673223315413036 0.28303573978873453 0 -1 0
50 2 2.4 21.39015665216461 29.04834633863932 0.8407098916760314 0 -1 0
1187 1 -1.2 19.856979576319734 29.54759518336163 0.7365980625360057 0 0 0
2125 2 2.4 24.441429499848095 29.909998107620652 1.2113003676826337 0 0 1
956 1 -1.2 24.189097245940506 29.509362275165408 2.6919409340053937 0 -1 0
722 2 2.4 27.024651265107266 28.099058742016755 2.369164446997713 -1 -1 0
741 1 -1.2 26.382466948479244 29.777478039071177 1.9574980030867675 -2 -1 0
410 2 2.4 27.851021452808656 30.37514134995654 1.873414354550573 0 0 0
1668 1 -1.2 28.689564740796918 28.993468291673032 2.0329706055977548 0 0 0
1782 1 -1.2 0.311610273233764 1.4904168703635619 4.049575590215191 1 1 1
2092 2 2.4 1.2137018957945476 0.28464726394720136 4.223485604470922 0 1 1
437 1 -1.2 2.7490162748266584 0.17715180824334925 3.5116131036434495 0 0 0
1912 2 2.4 3.7164077057349956 1.3297249836521297 4.512625050037253 1 0 1
898 1 -1.2 3.7320291840630677 2.5878435314079926 3.373886914500371 0 1 1
1464 1 -1.2 6.813576559538352 2.6284537644964683 5.027756413161659 0 0 1
1386 1 -1.2 11.580261207917472 2.144028559795887 3.213033469868125 0 1 1
1940 1 -1.2 15.582595180963592 1.2251636221889932 5.2268677621578 0 1 1
1002 1 -1.2 18.61560945387677 1.979517646719135 4.07011646188037 1 1 1
229 2 2.4 20.153906050584165 1.6665016043298575 4.9846690354984124 0 1 0
972 1 -1.2 20.575419881628928 0.18274201591781097 5.3612965436649125 0 0 0
2012 1 -1.2 21.21033574648522 2.3390878838240314 3.8500318503244984 1 0 1
1262 2 2.4 24.11329723602377 1.4862124646028732 5.445409929809504 -1 1 0
528 1 -1.2 28.317153430730116 0.7180492712578014 3.1569829530600995 -1 0 0
471 2 2.4 29.212132870444428 2.148318007954615 3.481513020630223 -1 0 1
1043 1 -1.2 28.827619860537375 2.855955568399579 4.892340446291487 -1 0 1
803 1 -1.2 7.58025409413569 4.827575843382257 3.611180832137993 -1 1 0
1647 2 2.4 7.04523850368368 3.2761172890690333 3.5486423648436625 1 0 1
1304 1 -1.2 8.390695570106276 2.273993374257698 3.345192020781698 0 0 1
1453 2 2.4 9.882073639432665 2.915655487495675 3.5237100524399114 0 0 0
60 1 -1.2 10.429123609963412 3.6942977918746376 4.783121839929612 0 0 0
768 1 -1.2 14.752937565882116 4.2359047582287035 3.1287746661170086 0 1 0
1537 2 2.4 16.03182924839326 4.255665593271978 3.984857351264249 0 0 0
1534 1 -1.2 16.100893093266745 3.723819266306351 5.477354436690623 0 0 1
1156 2 2.4 18.75774774427321 2.9568015269149868 2.8988067485914946 -1 0 0
549 1 -1.2 17.159007472858697 3.68460963657601 2.877773098590193 0 1 0
2109 1 -1.2 19.59942145957803 4.337331778186066 3.4578028455068273 0 1 1
795 2 2.4 21.144451160678443 3.916485659738066 3.8836319522742784 -1 1 0
2075 1 -1.2 23.803819067367424 2.3830112293029564 4.26597701582478 0 0 0
1606 1 -1.2 21.962806867684616 4.794020953624855 2.6181182950468607 -1 1 1
34 1 -1.2 24.664374942400194 5.037873800678275 2.9564328629440424 0 0 0
364 2 2.4 24.847603169138427 3.907797488767836 4.1201519799023725 -1 1 0
869 1 -1.2 26.434219943419045 3.372011580008435 4.058152100115857 -1 0 0
1837 2 2.4 27.4985418303643 3.6071301515731355 5.330189324348306 0 0 1
89 1 -1.2 27.638386483340646 5.161124680013387 5.229597240802082 0 0 0
155 1 -1.2 1.1897316776012694 8.09237922425627 4.195563626980596 0 0 0
857 1 -1.2 5.211625394616535 6.202456706875019 2.8352995576695195 0 2 0
1900 2 2.4 6.78709883080649 6.227588305715709 3.634510515482116 0 0 1
948 1 -1.2 6.447038009216999 6.538479204923628 5.361540712373532 0 0 0
1711 1 -1.2 7.533983323031119 7.800394149811469 3.0414511264512925 0 1 0
1506 1 -1.2 9.964011047751011 7.868689129437424 4.372108307762341 0 0 1
255 2 2.4 9.534027594791475 7.75225455482102 5.933507363614279 0 1 0
630 1 -1.2 10.498335197085531 6.078761678078759 6.153847133090704 1 0 0
1056 1 -1.2 16.1137654107232 5.996916383546071 4.011322481041075 0 0 0
1636 2 2.4 16.673958289613484 7.182737159399815 4.909740526768655 1 1 0
989 1 -1.2 17.938566121770993 7.899820344117806 4.168747128590914 0 0 0
1270 1 -1.2 19.804493122180002 7.271486105694512 2.359281353887043 1 0 1
706 1 -1.2 20.710879642551834 7.194616796164266 4.732953336275268 0 0 0
1948 2 2.4 19.552675252161894 8.070070790805955 3.9521817588894006 0 1 1
642 1 -1.2 24.399133083035927 4.409971897970725 5.651056182929883 -1 1 0
1040 1 -1.2 25.485819285995834 7.687061108484288 5.21080310623222 -1 0 1
931 1 -1.2 29.210949788891337 6.514821413141365 2.552859234452763 0 0 1
981 1 -1.2 29.992170346168642 6.443287750182467 5.006510245094309 -1 0 0
867 2 2.4 30.259979257366012 7.393682527712169 3.768120653885983 -1 -1 0
163 1 -1.2 1.1086006896217862 10.772239528640077 3.1923722469665465 1 1 0
292 2 2.4 2.181790726333204 9.344649721210533 3.1206335553028035 0 1 0
1990 1 -1.2 3.5513959429472606 10.088468862446495 3.6783865851234796 0 0 1
27 2 2.4 4.880067010476689 10.1628299506148 4.753459285018671 0 0 0
1620 1 -1.2 8.839899270177993 10.34671332842542 3.3040825151115665 -1 0 1
1120 2 2.4 9.042581089731705 8.641331563213438 3.071431345123632 0 1 1
1229 1 -1.2 10.827617243816523 8.701851519274935 6.728068780511942 0 0 0
596 1 -1.2 15.597326827965173 8.460066214752636 4.919217415615122 0 0 0
341 1 -1.2 13.477983319206693 9.368975562990494 6.141412588975979 0 1 0
112 2 2.4 15.063302252911798 9.45775975735042 6.085468987638084 1 0 0
2111 1 -1.2 19.934930448241115 9.753942488364702 4.008763064660689 -1 1 1
1516 2 2.4 20.221898243721252 11.282702288619646 3.6021586413524784 0 0 0
384 1 -1.2 24.50372692345108 9.09021373261445 2.796606635584161 0 1 0
493 2 2.4 25.805961722017855 8.658971015143777 3.7378862401377995 0 0 1
228 1 -1.2 26.74000776434775 10.035728452970893 3.877409425298393 -1 0 0
1165 2 2.4 28.059593358423673 9.724471924107323 2.9252916829345006 -1 0 0
1218 1 -1.2 29.300726598512966 8.84254932147239 3.7221150198443396 0 0 0
1752 1 -1.2 0.44016241404929113 13.17634660074247 1.8184731981729334 1 0 1
1944 1 -1.2 2.2095297167870616 13.790510730982898 2.967480423447019 1 0 1
297 1 -1.2 6.247048165081272 10.616853907743204 3.891923039082224 0 0 0
891 2 2.4 7.518968501565999 11.445758541613479 3.397375934395587 0 0 0
1182 1 -1.2 8.031872617422183 12.379720280650055 4.570119144487041 0 0 0
1171 1 -1.2 9.525305676420839 14.3141152015213 5.591102307190402 0 1 0
750 1 -1.2 11.665314530027569 11.187296388859059 5.4145765868582805 0 1 0
1826 2 2.4 12.391468075766202 12.026152403922167 4.426032859076376 0 0 1
1497 1 -1.2 14.207578148328624 11.962089105267232 4.581848062091858 1 0 1
73 2 2.4 15.528293070811479 12.571468384581173 4.95698438302256 0 0 0
522 1 -1.2 15.833348647085629 10.965359086656896 5.821926030108853 1 1 0
1415 1 -1.2 16.685938959926194 12.940376594221329 3.9354847453407293 0 0 0
2055 2 2.4 18.01737363888256 13.535532205669806 3.3299947176000564 0 0 1
1799 1 -1.2 19.001372049461892 12.33182099979818 3.5174896353683396 0 0 0
1728 1 -1.2 21.497460080757524 11.857715331113646 4.354730716709073 0 1 1
302 2 2.4 24.577629822128056 12.701624170792646 2.274385889591718 -1 0 0
21 1 -1.2 25.964029017726098 12.657281681861555 3.4811487541966986 -1 0 1
1924 2 2.4 27.605199391649972 12.709909499533993 3.5995100071296804 0 0 0
731 1 -1.2 28.473336568801138 11.553475410641733 2.968148232225125 -1 0 0
421 2 2.4 0.4660438056940145 14.47240326155018 2.986150600137235 1 0 0
254 2 2.4 3.7793301738535834 14.272348916144601 3.1357029586282574 1 0 0
1446 1 -1.2 4.192016321163039 14.126053203136768 4.74898431538793 0 -1 1
1201 2 2.4 5.313588648399183 15.146517234838441 5.501858434546687 1 0 1
315 2 2.4 8.19501599920207 13.932920510412382 4.568415841810863 0 0 0
1726 1 -1.2 6.849835743259226 14.541684930599011 4.879038667259794 1 1 1
800 1 -1.2 8.707720625756464 14.19770867758624 3.0397245200731127 0 1 0
1388 1 -1.2 11.160198215498934 16.196202990937252 5.402938149684583 0 0 0
1333 2 2.4 11.118584569157347 14.573494492725708 5.626507553372783 0 0 1
789 1 -1.2 11.664412319882148 13.470421889071831 4.278353138020286 0 1 1
794 2 2.4 18.1514934049264 15.822000010556353 5.42656439941976 -1 1 0
2105 1 -1.2 18.529851576651826 14.956284267008531 4.096012772596619 -1 1 0
917 1 -1.2 19.538275374120136 16.677766913874684 5.8192322161637495 0 -1 0
197 1 -1.2 23.320435067198684 13.535632489034937 3.146264035279137 0 -1 0
301 2 2.4 23.252940978799856 15.104179722837433 2.9523073007814222 0 0 0
1518 1 -1.2 22.534112663093715 15.849137170112593 4.437788102220129 0 0 0
1700 1 -1.2 28.233260179024516 14.122665547912705 3.018950903591546 -1 0 1
96 1 -1.2 0.23405672574065448 14.222781738404398 4.444631149422589 0 0 0
1329 1 -1.2 4.785540065663337 16.58573802436387 5.100970306424997 1 0 1
1272 1 -1.2 3.6947260467054353 18.694962394684065 3.9193372463854006 1 1 1
1429 2 2.4 5.1542625157765185 18.25438490813292 4.805134675684812 1 0 0
1452 1 -1.2 6.404090594120981 18.525084300149544 3.845847286814445 0 -1 1
1427 1 -1.2 11.225734857599521 19.03279747871666 4.3106815876793085 0 0 0
600 1 -1.2 17.28992210985128 16.946963933241467 4.759625887688336 0 0 0
1408 2 2.4 17.24068118210004 18.52641120541825 5.010348049370992 0 0 0
910 1 -1.2 27.403233366061436 19.56156510730108 4.704071366451604 -1 0 0
868 2 2.4 0.6571662785721977 20.932141985732773 4.902856632531388 0 0 1
392 1 -1.2 1.5506719841425485 20.303713803377914 3.5463688211232607 0 1 0
248 1 -1.2 30.01988750760414 19.75175239352818 5.460089912149607 -1 0 0
405 1 -1.2 5.301998890171627 19.17517077353001 6.15786403125583 1 0 0
453 1 -1.2 8.6751374872259 19.435836609283463 2.6663645734697505 0 -1 0
1306 1 -1.2 10.8019770295534 21.44412334202755 3.169095518234568 1 0 1
2104 2 2.4 10.295762519619867 19.673493682971063 2.9718865434828294 0 0 1
309 1 -1.2 13.321782597367095 21.956753339410394 3.9768336711272374 0 0 0
1740 1 -1.2 18.695298033090534 19.143068272677603 5.3145215655821305 -1 0 1
257 1 -1.2 16.590178728884965 19.086375343576645 3.647761799755152 0 1 0
1878 1 -1.2 19.056066822429436 20.54619014996037 3.3598639064739664 0 0 1
818 2 2.4 19.60707595224092 20.328978027814916 4.805849167452246 0 0 0
1685 1 -1.2 21.1971021499191 20.478211441302957 4.6613536831412885 0 1 1
886 1 -1.2 19.41670810846961 21.52514116672155 6.054628277641761 0 -1 1
2140 2 2.4 21.743922648707297 22.015226539637908 4.788666070292832 0 1 1
586 1 -1.2 22.75406858588858 22.405775967082118 6.098198222204269 -1 0 0
354 1 -1.2 26.132946649350178 21.680658240949008 5.3144435806880495 0 0 0
903 2 2.4 26.492589761552125 20.33776070683618 5.815355180748456 0 -1 0
299 1 -1.2 0.013078801724771407 22.156716952764537 4.211680720593714 0 -1 0
1111 1 -1.2 6.010974642770112 24.35365603247517 2.6285900555158164 0 0 0
1860 1 -1.2 8.369514845356779 22.64810404554274 2.629398647048559 1 0 1
1105 2 2.4 9.908100075166427 22.782032085570577 3.0911058385737835 0 0 1
1553 1 -1.2 9.681853001907156 23.91333775521573 4.367306215025582 0 0 1
1381 2 2.4 10.857140839150933 24.510026600530637 5.3018936409965685 1 -1 0
899 1 -1.2 12.379849406033287 24.246310833872602 4.792529863424328 0 -1 0
1420 2 2.4 13.666862676228442 23.312425982920786 4.8170026481065475 0 0 1
939 2 2.4 14.849878661425395 24.396575127331133 2.4690866763245305 -1 0 0
559 1 -1.2 14.738262775003419 24.295546631280057 4.0722426715811855 0 -1 1
343 1 -1.2 21.094361822915477 23.549007873588604 4.5999211471137365 0 -1 0
157 2 2.4 20.098048868950272 24.871939614606053 4.151558366133402 0 -1 0
1569 1 -1.2 22.805415417669966 21.709618421159682 3.4536321193676547 0 0 1
812 1 -1.2 25.110966686197276 23.392908202118225 3.567340679033656 -1 -1 0
1166 2 2.4 26.435094422066488 22.983769594774483 4.384850006025337 -1 0 0
1787 1 -1.2 26.53298350552342 24.201471042129267 5.44509936173048 -1 -1 1
2151 2 2.4 29.497867489095682 23.448033263880713 4.214299510915585 0 1 1
342 1 -1.2 28.00319945751328 22.671586712435246 4.036132374440791 1 0 0
2094 1 -1.2 29.851213470432953 24.85835321239904 3.371539098023294 -1 0 1
1806 1 -1.2 2.8600520055353646 27.719080657355672 3.1514331458815827 0 0 1
1758 1 -1.2 4.253721033643876 25.512281521135602 4.350983650212163 1 -1 1
1336 2 2.4 3.6538702098756826 27.112252895132986 4.473646420963272 1 -1 1
567 2 2.4 5.903819025346285 25.12458274472127 4.128710913394918 1 0 0
2062 1 -1.2 6.784114743504195 26.392858250187697 4.095224883441961 0 0 1
1611 2 2.4 7.484158330585429 27.74862316753107 3.6043208217572045 0 0 0
1598 2 2.4 10.519322669550888 27.83140833897135 4.5793332080380384 0 0 1
1460 1 -1.2 10.776795924736895 26.188794097439686 5.047778473930367 0 0 1
1430 2 2.4 18.71979729237917 26.93087345937947 5.305164650024143 0 -1 0
594 1 -1.2 18.29208908213184 27.183419939643738 3.556261540973832 0 0 0
1422 1 -1.2 20.79121171560079 25.826851342597802 3.00937666212388 1 0 0
1626 1 -1.2 19.568149453772705 25.597193535451996 5.546994232735917 0 0 0
2113 2 2.4 24.88115238476172 27.90786907200334 6.3672888266584655 -1 0 1
153 1 -1.2 25.268252123115474 26.34320723938473 6.402038501292611 -1 0 0
1222 1 -1.2 27.098514705059046 27.722119350255497 3.938319431647964 1 -1 0
141 1 -1.2 0.8551284925311812 29.037402276612 3.4223030694912375 1 0 0
449 1 -1.2 4.621798416356319 28.35312848669461 4.9833900350474885 1 -1 0
1526 2 2.4 5.691812551460883 29.389897820324283 5.304831570109983 0 -1 1
1566 1 -1.2 6.953847029828986 29.003184669408093 4.462439383360787 1 0 1
1920 1 -1.2 8.99453303245967 27.502432851931836 3.975194234570647 0 -1 1
1372 2 2.4 12.919605840838855 29.166108615109906 3.0933289840577456 0 -1 1
667 1 -1.2 11.784419603008736 28.233102146050182 3.693926580795083 0 0 0
2145 1 -1.2 13.861286399818745 29.932145176719917 4.41640515152332 0 0 1
985 2 2.4 15.478986288855792 29.989573392985523 4.925303286925608 1 -1 1
1115 1 -1.2 16.364296203537105 29.302226251857366 3.700532552649724 0 -1 1
1803 2 2.4 17.791658745158074 28.713144062909603 3.17153356923301 0 -1 1
414 1 -1.2 19.275192678080646 29.541822386129375 3.176304658833872 1 0 0
407 1 -1.2 19.898821941566737 28.12409257341728 5.589282147320105 0 0 0
1214 2 2.4 20.428638144459274 29.310310850825505 4.452097414995465 0 0 1
670 1 -1.2 21.908767069536005 28.936563138816933 3.51755524167819 0 0 0
1374 1 -1.2 23.927989544852377 27.838644529744215 4.965938771566449 0 -1 0
1065 1 -1.2 23.790479859667258 0.011359050845876701 4.979925346633335 0 0 0
866 2 2.4 23.44617866385152 29.240509646820723 4.070522616108249 0 -1 0
663 2 2.4 27.382843155890782 27.64501213861645 5.500615629666103 0 -1 0
190 1 -1.2 26.233505014216362 28.782739832936475 6.1733320325337235 0 0 0
1089 1 -1.2 28.778574217531844 28.628679770554136 5.205078623376792 -1 -1 1
1524 1 -1.2 1.4489003285139717 1.8433445481584574 8.068776023442421 0 0 1
41 1 -1.2 5.289847934772703 0.3641332931680577 4.8672918448968865 1 0 0
9 1 -1.2 3.0334766838018234 1.7603162520453237 5.836344363926358 0 0 0
644 1 -1.2 8.436973415328138 1.987152966387482 7.187769548141089 1 0 0
399 2 2.4 9.02442105581375 1.247289559368538 8.505366852064741 0 1 0
524 1 -1.2 10.257909929725802 2.0523274460032264 9.077816594278376 0 0 0
290 2 2.4 16.042586389689163 2.380779579565175 6.313145019684187 0 1 0
139 1 -1.2 14.158862233013096 0.022188991949476097 8.118245145471166 1 -1 0
1337 1 -1.2 15.177664588921862 2.3090202848376533 7.733263527108895 0 0 1
817 2 2.4 14.19387967595957 1.4132827089692663 8.999769981165173 0 1 0
660 1 -1.2 17.671258159121624 2.2338635786459786 6.546213962594178 -1 1 0
481 2 2.4 18.921820689445845 1.6235953293690655 7.406811525138044 0 0 0
77 1 -1.2 20.182083833719958 2.3538263121456535 6.427463514995217 0 1 -1
144 1 -1.2 19.067462140426194 0.09696306934150785 7.439755964742153 0 0 0
503 1 -1.2 23.566343800380306 1.504159601950075 7.085378958527511 0 0 0
2116 2 2.4 23.95501209080453 2.69064710701188 8.256837179968851 0 1 1
834 1 -1.2 25.88021866417249 1.3875562278871354 5.776827974361006 0 1 0
184 2 2.4 26.477306567239793 1.6365507415149505 7.20055845309986 0 0 0
979 1 -1.2 25.303429646293964 2.0155349308304866 8.545050661233207 0 1 1
1097 1 -1.2 27.49008638754194 0.43248299179558364 7.508421246021414 -1 1 0
1681 2 2.4 2.760359410578838 2.5532933855303206 7.291225304691299 0 1 1
1133 1 -1.2 2.8815963164616516 4.227855176891041 7.192452405481981 1 1 0
52 2 2.4 7.467774060417937 3.117173110954264 6.581918491093619 1 0 0
785 1 -1.2 6.2039262235546015 2.6959518030835996 7.408736147295894 1 0 0
327 2 2.4 5.144849817479399 3.1270874056735254 8.590236931514756 1 1 0
1318 1 -1.2 8.456944633696818 4.670338245112997 6.6139486452413 0 0 0
195 2 2.4 10.096338737989022 4.505319942195314 6.152416754375486 0 0 0
150 1 -1.2 11.223836861994016 3.7319913557085465 7.4685056579401214 0 0 0
1383 2 2.4 11.375357714088423 3.1199159722824605 8.954302042599918 0 0 0
2063 1 -1.2 21.46553597498794 4.5954997801121165 5.282654371399314 0 0 0
1243 1 -1.2 23.668857020164456 4.406509046099467 8.194568863913467 -1 1 0
2002 1 -1.2 27.063224952132092 3.1516710267347268 6.9209159081481895 0 1 0
1753 2 2.4 3.6450505595551186 5.465738137018461 7.7358470801578605 0 0 1
2087 1 -1.2 4.1150774156474785 6.597837583868252 6.768072352678737 1 0 0
147 2 2.4 5.423466348213134 7.455675988232926 6.170723764771515 0 1 0
912 1 -1.2 6.028540360089334 8.401459032366427 7.493630691180694 1 0 0
1061 1 -1.2 8.104952014130456 8.518998766517385 6.197758394552023 1 0 0
807 2 2.4 15.498341951030314 6.888828159957512 7.363481606076681 -1 1 0
1649 1 -1.2 13.85390951694156 6.4711344889651645 7.574360010863549 0 1 0
1248 1 -1.2 16.787936501082758 6.6526864125042655 6.403483570218412 0 0 0
409 2 2.4 21.30116850323434 6.130981767918748 5.948153459166722 0 1 0
945 1 -1.2 20.56154452578052 5.965920431461397 7.461775257166106 -1 -1 0
423 2 2.4 24.099954133802715 5.3211615413932 6.966469601620796 0 1 0
552 1 -1.2 22.816733453887714 6.418897431928991 6.7009342193642025 0 0 0
1373 1 -1.2 25.530038506744514 6.097816317304816 7.470242391359283 -1 0 1
1981 2 2.4 26.242795608035674 7.570995588947736 6.716387428025275 0 0 1
2123 1 -1.2 27.764717461058783 7.5022476099436215 6.399176644004199 -1 0 1
1757 1 -1.2 29.0018622697025 5.842606963906802 7.7060228255935215 -1 0 0
806 2 2.4 28.64848671483574 6.154923754196366 6.009633034835286 -1 0 0
1545 1 -1.2 2.6401774448196407 10.900501014508917 8.004601516905822 1 1 0
1104 1 -1.2 4.496010276867375 11.106452314092651 5.864666256560039 0 0 0
1730 2 2.4 4.453297245465794 11.461337564280447 7.410611514384078 0 0 1
56 1 -1.2 5.558557801876105 10.870867382620608 8.289333862565206 0 0 0
561 1 -1.2 4.8092633837617385 8.674828048619071 5.240805595452812 1 0 0
1362 1 -1.2 8.048439470381714 10.35621865369166 7.944806617992745 1 0 1
136 2 2.4 7.519397579886053 8.854438310547698 7.6822781365323 1 -1 -1
950 2 2.4 12.079468525145346 9.902452059171935 6.3792413957061544 0 0 0
954 1 -1.2 15.43568594067269 8.541506150437677 7.60054034762436 0 0 0
1555 1 -1.2 20.629669365848567 8.571755782241734 7.400121741953362 0 0 0
1861 2 2.4 21.76822461326142 9.434348135141839 8.122232228486158 0 0 0
210 1 -1.2 22.14184208236704 9.93379834659881 6.5200200472503305 0 0 0
791 1 -1.2 25.922454763980976 8.628332338484029 7.811760798509439 0 1 0
1343 1 -1.2 1.5564045056426445 13.366807857441446 8.135895065224878 0 0 1
908 1 -1.2 4.046471535705521 12.924077981415678 8.038720996593648 1 0 1
308 1 -1.2 7.3330234637607505 12.948964160252128 8.12340122229492 -1 0 0
751 1 -1.2 11.68802102430053 10.569498468469693 7.964907426750523 0 0 0
2046 1 -1.2 15.058930815731113 13.730508505405815 5.986058878218604 0 0 1
466 1 -1.2 16.801853964550435 12.806708260633739 7.722319216735872 0 0 0
1254 1 -1.2 20.597410984311825 11.986014214507538 6.615851056653521 -1 0 0
1095 2 2.4 20.01573874707606 11.634051635582287 8.013001178487295 -1 0 0
1997 1 -1.2 19.885626438610736 13.569909606518637 8.409663375619726 0 0 1
2005 2 2.4 22.01632008165683 11.47133942659783 5.97157339478066 1 0 1
1244 1 -1.2 22.962968919016827 12.71869615325371 6.701656815986116 -1 1 0
1039 1 -1.2 27.286748064112345 13.24105338856463 8.166521530206431 -1 0 0
588 1 -1.2 24.792963893185956 13.474142232714744 8.559851622482954 0 0 0
849 1 -1.2 25.874722855351756 10.891095866878917 8.585016221547834 0 1 0
1967 1 -1.2 28.12326339847216 13.248038071614898 5.141928833948829 -1 0 1
752 1 -1.2 29.756361594829265 13.15794865800267 6.484591648665439 -1 1 1
1762 1 -1.2 5.483331782954474 14.857094250982591 7.0179249865174524 0 0 1
759 2 2.4 6.647002921783492 14.374476357256375 8.03147278209546 1 1 0
1608 1 -1.2 7.95941808821208 15.390905988465994 8.362872797063492 0 0 0
876 1 -1.2 10.921569442746684 16.242753447613477 8.034290270058458 0 -1 0
1715 1 -1.2 12.073153919295686 14.176354248408288 7.067911342370547 0 1 0
500 1 -1.2 13.222387983760651 15.595980859969716 9.045683309052814 0 0 0
578 2 2.4 11.859012255294653 14.843395089083911 8.464085065821141 0 0 0
1877 1 -1.2 15.836231811378816 15.376119483120249 8.49987855907064 -1 0 1
231 2 2.4 16.06137317359636 14.40200019790154 7.103599860854511 0 0 -1
907 1 -1.2 17.324889043136203 14.996750624621878 6.508643923730286 0 0 0
693 1 -1.2 19.2740307468233 17.22434143973269 8.074593004681764 0 0 0
1502 2 2.4 23.668446373260554 13.927503636212835 7.467409755364795 0 0 1
238 1 -1.2 24.255865936169883 15.13619483034859 6.427193351499286 -1 0 0
282 1 -1.2 22.400165792423692 14.51429270386783 8.293727504340787 1 0 0
1755 2 2.4 29.179293718404516 14.24641259840967 5.507036440151066 -1 0 1
2147 1 -1.2 28.630411672365845 15.636731479424604 5.788344177988072 0 0 1
1326 1 -1.2 28.274844159531597 15.735760556586529 8.280397846982078 -1 0 1
927 2 2.4 5.806259896298245 19.026724138810877 7.6401574394293155 1 0 0
852 1 -1.2 6.240947328444763 17.50465402742616 8.022041301550791 1 0 0
123 2 2.4 7.873682570842095 17.065162532110534 8.074634516919767 0 0 0
1339 1 -1.2 8.963243040729283 17.483972867281413 6.920211716451129 0 0 0
952 2 2.4 10.516624264097619 17.045453822106282 6.670611017856204 0 0 0
2155 1 -1.2 11.262165420997782 18.381734119099225 6.720855986265474 1 1 0
512 1 -1.2 16.034178779092404 18.38451266314546 6.164134263331968 0 0 0
1853 1 -1.2 21.838586613066234 16.765784396175466 7.074913091767186 0 -1 1
208 2 2.4 20.360188258110366 17.67715252925803 6.916959072284241 0 0 0
539 1 -1.2 20.816788205921195 19.343535830022336 7.024407312238155 0 0 0
76 2 2.4 23.115024142470677 16.3754337450722 5.95490166648199 -1 -1 -1
187 1 -1.2 24.069788920982646 17.712555001673206 5.847116596616804 0 0 0
174 1 -1.2 26.60388962999022 17.234464897837555 6.425233662081428 0 0 0
122 2 2.4 25.297649803566966 18.014206479725406 6.84352428505758 0 0 0
1033 2 2.4 27.978075295400387 16.656731649818543 6.931046034453954 -1 0 0
1894 1 -1.2 29.128000560650918 17.89725749272 6.842753003643515 0 0 1
1897 2 2.4 28.52289284299411 19.234349260321313 6.0748585137166495 0 0 0
1257 1 -1.2 1.6389162938797543 21.394550838582223 6.341415989531987 0 0 0
1360 2 2.4 1.3346003303667942 21.486387786385833 7.829234805247947 1 -1 1
1658 2 2.4 4.181724444551781 21.421662122901004 8.22548889674915 0 0 1
2070 1 -1.2 4.485881250358006 19.973206088067702 8.385625099845432 1 0 1
1289 1 -1.2 7.186647744775113 19.888033203640827 7.898615783091722 1 0 0
724 2 2.4 8.12965093405086 21.113711511851708 7.428251097573347 0 0 1
72 1 -1.2 9.167404414935556 20.108778692080964 6.335687786173714 1 0 0
194 2 2.4 10.565568737644831 19.682455134209434 5.798164857821699 0 0 0
2076 1 -1.2 11.63996069968069 21.126396292999438 6.095705236282696 0 0 0
316 2 2.4 13.070023737046325 21.30940176027592 6.782913423083231 0 0 0
1724 1 -1.2 13.045445170418166 21.026193789458716 8.318715673483844 1 0 1
20 1 -1.2 13.963424487680452 20.089517136850993 6.13666980506589 -1 0 0
734 2 2.4 15.624909650230626 19.873610941845058 6.596115968621723 0 0 0
138 1 -1.2 15.803329781479174 20.85811512192014 7.939715724940025 0 0 0
226 1 -1.2 16.924989024979606 20.59368071581758 5.94733573067856 0 0 0
2102 2 2.4 17.308395667617336 21.48585824604887 7.51059272486106 0 0 1
725 1 -1.2 18.4834356517288 20.32203572037733 7.996958407156596 0 0 0
267 2 2.4 19.926733953241193 20.60944004066506 7.344106623244815 0 0 0
838 1 -1.2 20.608413093842977 21.937215564034847 8.182429343214649 0 0 1
651 2 2.4 22.0426432309751 22.2499513077863 7.570028994639264 -1 0 0
413 1 -1.2 25.18054811267971 19.617865875914184 6.456967796269391 0 1 0
1158 1 -1.2 27.80426435908456 20.294564430008894 7.250458428117027 -1 0 0
1233 1 -1.2 0.42218924048248646 22.979143581265024 8.034160426539787 0 0 0
1646 2 2.4 -0.1129024851324637 24.164729793713285 7.037889767794207 1 -1 1
737 1 -1.2 5.031574043347527 22.06693423877513 6.723713200090322 0 0 0
1461 1 -1.2 2.7795566678672547 21.835277921918653 8.59586708238697 0 0 0
216 1 -1.2 6.407185423860647 23.95163121976047 5.094621978688562 0 0 0
677 1 -1.2 7.740262894161736 22.173269439536572 6.161690052050568 0 0 0
967 1 -1.2 6.808708326643706 23.884621248664885 7.780203137179186 0 -1 0
1957 2 2.4 6.309008039273676 23.083295499528123 6.443308298831692 0 0 1
1625 1 -1.2 11.009742812441361 23.513323896240724 6.701353023022086 0 0 1
638 2 2.4 11.685173227633934 24.220954162332024 7.957438040156001 1 -1 0
502 1 -1.2 13.240050564566587 23.48628733624746 8.578631858711814 0 -1 0
1471 1 -1.2 13.807891576072343 22.815195042716482 6.374596382456743 0 0 1
1919 1 -1.2 17.53694682604862 23.1199795549211 7.433373672479976 0 -1 1
1407 2 2.4 18.27748314621913 24.28633494619535 8.356074497679092 0 0 1
320 1 -1.2 19.907442198000933 24.365474540635642 7.865835027844704 0 0 0
219 2 2.4 21.350068074709725 25.09537489780449 8.46999138021176 -1 0 0
1445 1 -1.2 22.231233232730766 23.907723363277224 7.9021084415616 -1 0 1
2160 1 -1.2 26.442813721492044 23.923212594596464 8.182906055226399 1 0 1
1256 1 -1.2 29.205927837248773 23.931335762967723 5.754553292087568 0 0 0
1224 1 -1.2 1.2465065968614495 25.00303996747032 6.335782952917422 1 0 0
1084 2 2.4 1.5680850002476927 26.456046579596535 6.847275191569993 0 -1 1
476 1 -1.2 1.431576132563169 27.043940875320228 8.467813829773718 1 -1 0
1305 1 -1.2 2.9423453224142944 26.926396785103197 6.052620826914564 -1 -1 0
233 1 -1.2 5.8072047465753105 26.992446169664653 8.456285128559403 0 0 0
2131 1 -1.2 17.276702624563583 26.888702054891095 5.974187556296747 0 1 0
1563 2 2.4 17.051440984934825 27.052084417701995 7.543047441430525 0 0 1
91 1 -1.2 17.02577081941075 25.407321541003512 8.358931566475448 0 -1 0
1193 1 -1.2 22.02381174840896 26.324501871160027 7.684345377075811 0 0 0
1705 2 2.4 22.485581397510074 27.969859765922422 8.114711791472425 0 0 0
1490 2 2.4 26.418223684412084 25.033378539877557 6.781802453205782 0 0 0
720 1 -1.2 27.621789037511622 26.268841157953318 6.282994794133447 1 0 0
2086 1 -1.2 29.740571294973094 25.152989197560302 8.16314027919895 0 0 0
1521 1 -1.2 0.5342289711398626 30.324054765805393 5.571206765811372 0 0 0
2047 1 -1.2 0.7350640019259332 27.638967857022873 5.947336643134365 1 0 1
188 1 -1.2 5.728415619257633 29.415012914570642 7.069833878950102 1 -1 0
507 2 2.4 6.6914901802672375 28.441782041959787 8.083438786841832 0 0 0
1162 1 -1.2 8.409382084820283 28.045945453535055 7.479055038996879 1 0 0
417 1 -1.2 10.555799703243462 28.960542415682156 5.880977007081245 0 0 0
1690 1 -1.2 9.585866028412664 30.260365125358454 8.24921315006136 1 0 0
1899 2 2.4 9.97334364735008 28.99776248682443 7.4155920897893886 1 -1 1
635 1 -1.2 10.849928105646853 28.05034853505808 8.343424044452794 0 0 0
271 1 -1.2 15.708992768281124 29.215452047180836 6.3984642067252935 1 0 0
4 2 2.4 14.695115419044143 28.980600164071085 7.594898696495797 0 -1 0
1567 1 -1.2 13.459294258214202 28.141676831983816 7.547378133762027 0 0 1
2061 1 -1.2 15.790999672551353 27.8845116655466 8.271368502843252 0 -1 0
1292 1 -1.2 18.622166488422476 27.43775992704046 7.522274738802221 0 0 0
1863 2 2.4 19.34278359964725 28.988019361037946 7.880615532420199 0 -1 1
599 1 -1.2 21.113060458650548 28.98207037063579 8.053126002298692 0 -1 0
382 1 -1.2 23.87717014574032 28.549369106677936 7.613513072292231 -1 0 0
1 2 2.4 30.18809225617078 28.86177829185078 6.050981015459443 0 -1 0
767 1 -1.2 29.863104411239895 29.314605908901637 7.677266730129891 -1 1 0
1887 2 2.4 28.68613256799382 30.220901980286268 8.444797115679467 -1 0 1
1263 2 2.4 0.7560101523637521 1.5084969129743349 9.44714869231877 1 0 0
533 1 -1.2 1.4431508801448238 0.5552755957015795 10.560590032958856 1 0 0
1519 1 -1.2 0.06117473890908759 2.9222089979124783 10.288865263045897 1 0 0
1963 1 -1.2 3.920475584136303 2.0965982527221714 8.388226662159019 0 1 1
121 2 2.4 6.966280117133737 2.094018310248155 10.816535308441956 1 0 0
1236 1 -1.2 6.673324969699657 0.898541196925203 11.719603190355567 0 1 0
30 1 -1.2 7.69127733254151 1.2463261324096695 9.488638343679074 1 -1 0
2033 1 -1.2 12.851474623567102 2.205652985620298 9.062415491671056 0 1 1
1100 1 -1.2 14.958400837021008 1.3065175557594684 10.52338013283345 0 0 1
723 2 2.4 14.934965426001417 2.5087526416954367 11.952848574553943 -1 1 0
45 1 -1.2 19.409585950726377 2.152378163838003 8.852766773912464 1 0 0
2021 1 -1.2 21.269611857422127 1.9036851411007498 11.36928751796638 0 1 1
247 1 -1.2 22.716434842654774 2.3035600378679484 9.354816087111713 -1 1 0
1570 1 -1.2 29.700151649618252 0.7746196651306537 9.127270512829682 0 1 1
763 1 -1.2 27.94972945208799 2.6358963730532 11.661377295490261 0 0 0
845 1 -1.2 4.895200753365449 4.9031490721615 8.692529657806427 1 1 0
691 1 -1.2 5.616941319215264 2.9484816909567395 10.219441356140058 0 0 0
1773 1 -1.2 10.623911149162492 4.241787530495992 10.136407301489536 0 1 1
1014 1 -1.2 7.890311886283577 3.2656962112894465 11.4883172699919 0 0 0
792 1 -1.2 16.070485417009298 3.474927035128223 11.29625717394676 0 0 0
1952 1 -1.2 18.27351296790772 4.639620983339699 8.913628640527168 0 1 1
395 1 -1.2 18.6257643776358 3.1591590856703102 11.012700361274952 0 2 0
1804 2 2.4 19.359302544126646 3.588623083552827 9.590955635914483 0 0 1
1185 1 -1.2 20.73917866529112 4.253752918214677 9.95472196511103 0 0 0
352 2 2.4 21.99358745116722 3.209567509638777 10.479114702035291 0 1 0
1331 1 -1.2 23.06277682499585 4.091360089281886 11.23144376817056 -1 0 0
632 1 -1.2 28.456754136692208 4.934606656576258 10.177313323843475 0 0 0
205 2 2.4 29.18885426359161 3.6513074375233163 10.992814626661325 0 0 0
1368 1 -1.2 1.8073309275852778 7.695031037613725 10.550331670303802 1 0 1
1437 1 -1.2 2.611769381885817 5.635258301647024 11.629573140537827 1 0 0
261 1 -1.2 2.6225770430149975 5.910155840027165 8.77238757874746 1 2 0
592 2 2.4 2.7407470382022407 6.57919108230287 10.366268973277405 0 1 0
1042 1 -1.2 4.132187525010767 7.1460591947741285 10.874006319456182 0 1 0
1807 1 -1.2 6.519515435680192 7.550005313014258 10.725637393480175 0 0 1
675 2 2.4 10.447062984051461 5.9137636282768975 10.296492859578608 0 0 0
278 2 2.4 8.06689161431518 7.815208911906443 10.499007009400742 1 0 0
728 1 -1.2 9.107314214754226 6.499997813421156 10.719303647791094 0 0 0
1241 1 -1.2 8.425149278885371 8.113614294772248 8.987700386796197 0 1 1
1830 1 -1.2 11.200960167777584 6.437530392291556 8.991428711722945 1 0 0
1575 2 2.4 12.863862579844952 6.816173970771507 8.89692770264682 0 0 1
28 2 2.4 12.987338160464066 6.54434958762951 11.691330855324441 0 0 0
90 1 -1.2 13.547328262676595 6.347202567423669 10.2846790969016 0 0 0
1269 1 -1.2 16.00661950310882 6.260914850441444 8.70602512249092 0 1 0
1183 1 -1.2 18.2780860816011 7.42902815348589 8.621145905170252 0 0 0
462 1 -1.2 17.29240023975087 5.727720344793613 10.983491588653429 0 0 0
434 2 2.4 17.498077916124565 6.120620735084032 9.330011911923966 0 0 0
1825 2 2.4 19.909323483198477 7.393240034879052 8.282154489792948 0 0 1
564 1 -1.2 20.63990077994111 7.745236488887752 9.944604663030898 0 0 0
319 1 -1.2 23.022169423854784 6.931850554906152 10.973104492659747 0 1 0
949 2 2.4 22.18692691471464 8.15932425501341 10.438532757632673 0 0 0
551 1 -1.2 25.177700322816005 5.97067065767696 10.090962082396679 -1 0 0
1226 2 2.4 26.0652373140347 7.240574657634125 10.646834201377773 -1 2 0
1451 1 -1.2 27.44763520803719 7.357432790456747 9.640130343632901 -1 0 0
305 1 -1.2 30.007324990469474 6.993008102545198 10.025251941797238 -1 0 -1
1612 2 2.4 28.7389220207027 6.124096305432365 9.271292489756084 0 1 1
1933 2 2.4 0.22864694634363686 8.317272945597491 10.788061681717071 1 0 0
1572 1 -1.2 30.209877604684536 9.787359056294154 10.689667938430532 -1 0 1
1714 1 -1.2 7.433060641559569 11.147877430864115 10.292244785645055 1 1 1
1978 1 -1.2 12.727544533756259 8.388476522796747 9.378077898280118 0 0 1
1514 2 2.4 12.595193272509293 9.947277003603089 9.266194186756236 -1 1 0
884 1 -1.2 13.868629444838508 10.607515547742267 10.049947764999123 0 0 0
71 1 -1.2 15.96523671458494 9.821990081598752 11.97011748810621 0 0 -1
67 1 -1.2 22.126023213386762 9.746243893841164 11.485470022738143 0 0 0
1076 1 -1.2 22.92029368946547 8.891246877459434 9.00887490762635 0 0 0
1511 1 -1.2 25.534892238815907 8.869574655259218 10.51755823649342 0 1 0
1732 2 2.4 26.36209144987509 9.488145063647442 9.091896898888809 -1 -1 1
1794 1 -1.2 28.03378457461019 9.751497821784781 9.170725378297682 0 -1 1
457 2 2.4 29.310497291748007 10.632601925123478 9.631697973797822 0 0 0
1009 2 2.4 0.04793439142230087 12.913565965179068 7.8654879273676785 0 0 0
1790 2 2.4 2.5958480466905245 12.242039983674486 8.771242332070115 1 0 0
761 1 -1.2 2.5882064703676586 12.33661702014983 10.37361743187075 0 0 0
1432 2 2.4 6.9690938898438635 11.2982518964582 8.74992669566692 1 0 1
816 1 -1.2 9.428163902912678 11.146457588753295 12.398703236575837 0 0 0
943 1 -1.2 11.269022238175285 10.357338060968297 10.343589678777994 -1 0 0
2079 2 2.4 15.32909471913323 10.885076263073023 10.836132658169534 0 0 0
259 1 -1.2 16.240776712077118 11.149034626962743 9.635416586820051 1 0 0
479 1 -1.2 15.157785437064437 12.253732590345347 11.89705315914689 0 0 0
815 1 -1.2 18.47278429538585 11.20715391772135 8.230614752639275 -1 0 0
986 2 2.4 17.466702595357972 12.372228583682991 9.159397796027184 0 0 0
1749 1 -1.2 17.20482572149941 13.393638550279823 10.323074860138703 -1 0 1
1844 1 -1.2 20.791746563409905 10.58474350005182 8.75812120781248 0 0 0
1144 2 2.4 25.933590865459113 12.508747183995736 8.961260165456332 0 0 0
415 1 -1.2 26.07058981633318 12.338026123952801 10.528715384406798 0 0 0
1686 1 -1.2 -0.03240688331153149 11.415138207917964 8.65616468741987 1 1 1
1964 1 -1.2 28.905869448098628 11.798524277444754 10.698847512469953 -1 1 1
1107 2 2.4 5.535459980698567 14.942363886227707 11.068602390509884 0 0 0
1172 1 -1.2 5.501159821072905 14.420841246658311 9.379760089241843 -1 1 0
1051 1 -1.2 9.09171366967109 14.249580025860146 11.504887963150557 0 0 0
1027 1 -1.2 11.074102970163597 13.935237451210089 9.518601234987731 0 0 0
649 2 2.4 10.526459421820839 13.829286632621674 11.088303911182482 0 0 0
69 1 -1.2 14.771755412192453 14.616370660784824 10.690082156644486 0 0 0
517 2 2.4 14.825893935008246 15.966614970474991 9.566552683780417 -1 -1 0
1995 2 2.4 15.982031550625738 13.636537135121277 11.530775520944447 0 0 0
577 2 2.4 21.077827901528497 14.249141968465533 9.119286811486802 -1 0 0
348 1 -1.2 20.15666459289671 15.666615160236654 9.698987081175016 0 0 0
450 1 -1.2 21.536003332430013 13.89975834167757 10.582017107531922 -1 -1 0
116 1 -1.2 27.3682671530337 14.34410101793005 10.548261747094738 0 -1 0
2091 2 2.4 26.600650261394556 13.467763615224232 11.575983397708544 -1 1 0
253 2 2.4 28.12755697540194 14.161253576920195 8.95885516787013 0 0 0
1925 1 -1.2 29.629071705837337 13.720734915986972 9.323952901042952 0 0 1
1327 1 -1.2 0.7713611969750616 18.564846113618337 10.75447345554015 0 -1 0
2121 1 -1.2 4.535934858413261 16.19548924100021 11.118399854263957 0 1 0
65 1 -1.2 8.223977847787504 18.0583119978734 9.251730908813123 1 -1 -1
2066 2 2.4 8.24076234797229 18.219827778106378 10.83154596346558 1 0 1
1433 1 -1.2 14.747157220771049 17.63953720528064 9.914235926889283 0 0 1
1852 2 2.4 14.600674210051645 18.09193961043829 11.565533574021917 0 0 1
1271 1 -1.2 17.832909627983632 16.424825407137874 10.418350298328667 0 1 0
88 2 2.4 19.207539428627644 16.779408181571924 9.700974206339316 0 0 0
403 1 -1.2 19.89032575342958 18.046357638729404 10.682738854937474 0 0 -1
1645 2 2.4 20.475093383985726 19.386566128524727 11.546301073099345 0 0 1
1150 1 -1.2 25.006563941235385 17.13614280190807 11.234178245881834 0 0 0
1092 1 -1.2 25.14910276234678 17.648554264131512 8.463439767220294 -1 0 0
1131 2 2.4 25.07013680958731 18.095709003248672 9.923367126268122 0 0 0
1258 1 -1.2 26.837943995395115 18.543059343596603 10.027338445253092 0 0 0
439 1 -1.2 0.6602843742447847 20.193189880926308 8.63276004613154 0 -1 0
895 1 -1.2 0.9753408869013352 21.316440515655497 11.024472513219985 0 -1 1
859 1 -1.2 9.056556939049887 21.930237161862543 8.524486546021352 0 0 0
1161 1 -1.2 11.513885651456587 22.145727248266894 9.988335839074344 0 0 0
1178 2 2.4 13.098752534448373 22.168504752556355 9.533706572524336 0 0 0
419 1 -1.2 13.921462173145866 21.454256228795195 10.625957995642642 0 0 -1
1980 1 -1.2 15.241515321838461 19.615179667659525 11.730233995497976 0 0 1
1684 2 2.4 15.201851539630423 21.306114846286565 11.619046097513136 0 0 0
1663 1 -1.2 24.536342605473703 19.62420927213314 9.974192763484632 -1 0 0
929 1 -1.2 22.027547340417286 19.915899201480148 10.951831012561732 -1 -1 0
1426 1 -1.2 23.090872797028993 21.284472735979055 8.483851496245666 0 0 0
1478 2 2.4 23.40119453474291 20.838296488011974 10.145344076843756 0 0 1
1783 1 -1.2 23.762727270694068 22.13164675023876 10.816309254575287 0 -1 0
518 2 2.4 0.17474954145833949 19.962995861420843 10.138192873491969 1 -1 0
379 1 -1.2 29.009451069424827 19.814995726140076 10.236891768676523 -1 0 0
605 1 -1.2 5.247548517307318 22.124092662668165 9.453657300596408 0 1 0
1987 1 -1.2 4.959943825312386 24.651357662571474 8.954972836613146 0 1 0
1370 2 2.4 6.1649597483312935 23.484598398781166 9.20283914173421 -1 0 0
1223 1 -1.2 7.3917607621903265 24.07225229810493 10.130668945182096 1 0 0
166 1 -1.2 10.63920870102539 24.30621225219035 9.11300443819069 0 -1 0
386 2 2.4 10.01918355129507 22.643086873857182 9.673167861681627 -1 1 0
498 1 -1.2 8.945908411375253 22.27148515842344 11.036257812503008 1 0 0
1074 1 -1.2 15.830924355473183 22.83663954511877 10.822894521542391 0 0 0
2119 1 -1.2 18.374967320838746 23.435808639559898 9.849051923354907 0 0 1
2008 2 2.4 17.23475782603446 23.766231858855267 10.973353221385409 0 0 1
186 1 -1.2 21.45015977264666 25.18700156990328 10.01289019266184 0 -1 0
773 1 -1.2 25.893198521030126 23.261311768815247 10.77288233134843 -1 1 0
880 2 2.4 25.88731028072536 24.490001270631037 9.653103986801412 0 -1 0
22 1 -1.2 1.5040968086018511 25.040814528431124 10.323422581999948 0 0 0
170 2 2.4 0.33358461469903744 26.021670852607315 9.377897133126586 0 0 0
771 2 2.4 2.4822925471621033 25.90400168199849 11.331129045730624 1 0 0
310 1 -1.2 3.617165213410015 26.477805807997427 10.227304438950274 0 0 0
1119 2 2.4 5.1212337577119555 26.085111105597253 9.52571584532313 0 0 0
1536 1 -1.2 5.881116906741466 26.417719988857453 11.02019487201482 0 0 0
1774 1 -1.2 12.376755321918171 25.824262042282214 7.647148496976859 1 -2 1
201 1 -1.2 12.54250393944885 27.25295053949114 9.819483217622691 0 0 -1
1455 2 2.4 12.29103624788644 27.228021448170878 8.337510039332955 0 0 1
2072 1 -1.2 17.49244777346168 25.290139365186207 11.146630290744381 0 0 1
1210 1 -1.2 24.450567223898904 25.494773465474886 9.346403087756185 1 0 0
1203 2 2.4 23.018806372179252 25.99314403126122 10.140040403625521 0 0 0
1196 1 -1.2 22.818483624061763 27.618915101595473 9.663665735286102 0 0 0
947 1 -1.2 26.9585060744829 25.677590032400648 10.184324186113479 -1 -1 1
381 1 -1.2 29.576115050036627 26.88064720164892 10.19787005408175 0 0 0
1345 2 2.4 28.220927812565968 26.316391260384822 10.97018228096756 0 -1 0
2084 1 -1.2 6.698206595961099 29.213410032191998 9.506880501514205 0 0 1
448 2 2.4 6.784264527615676 28.078330680273428 10.964987722474698 0 -2 0
486 1 -1.2 8.338661543119624 28.16686110228034 11.348281127651447 0 -1 0
143 1 -1.2 14.202513126504943 28.848692106092848 11.063563817301908 0 1 0
1893 1 -1.2 17.046298563716956 29.74778244484386 11.677269158769144 0 -1 1
1996 2 2.4 18.285476627533775 29.25638358668062 10.885876942044208 0 0 1
930 1 -1.2 18.821063092914425 29.16488713629452 9.411635908420374 1 -1 0
1363 1 -1.2 25.01845398304107 29.982109215159767 10.681318887199357 0 -1 0
769 2 2.4 26.75370361006662 29.289530992571898 10.86731211259003 0 0 0
1307 1 -1.2 27.761201179404747 29.322714746248813 9.565871763149012 -1 -1 1
585 1 -1.2 27.157553440887853 27.752628460861615 11.350953899927408 -1 -1 0
631 1 -1.2 2.8341058249869 1.9257566206501862 13.020056993059903 0 0 0
1352 1 -1.2 4.308342055943102 0.5923910359757145 11.17599934281814 0 0 0
148 2 2.4 2.69494565900068 0.6208569248713788 11.736736432442626 1 1 0
2089 2 2.4 5.310941608500438 -0.02822937941490363 12.12902651191589 0 1 1
1221 1 -1.2 5.345090197943739 0.209973824233933 13.879949037826742 1 0 0
334 1 -1.2 8.85172571154829 1.6242280175509323 13.1407103169335 1 1 0
1501 2 2.4 9.071264537764362 0.32206203877069745 14.00750963943372 1 0 0
760 2 2.4 16.004786297543816 0.3718275369348073 14.30036984243093 0 0 0
1727 1 -1.2 16.057664115741222 1.7453161713642182 13.175018534671784 0 1 0
1290 1 -1.2 17.54641245925661 30.352664838159676 14.81166082466878 0 -1 0
1276 2 2.4 20.911172252838767 0.40123105908932627 11.80545230925255 1 1 0
1821 1 -1.2 20.88333153848215 0.9179172034073235 13.605413786883611 -1 0 1
2117 1 -1.2 23.94121413611961 0.9698521218225282 12.63130034509236 0 1 0
1316 1 -1.2 26.312320118243743 1.6683924086235629 13.442555656611997 -1 0 0
579 2 2.4 27.60540064745467 1.4163363235390434 12.574239339968848 -1 0 0
933 1 -1.2 28.925940725023434 0.7190717171151555 13.370420476710756 0 0 0
1351 1 -1.2 27.437824495483383 -0.01787052089479014 11.774711688491056 -1 0 0
1314 1 -1.2 1.1148725449235108 5.288219503866114 14.221583772231542 0 0 0
556 2 2.4 -0.07115966995067424 4.211500516238513 13.713892131354113 1 0 0
1364 1 -1.2 4.027473693393348 4.45607473419464 13.436078450905374 1 0 1
3 2 2.4 2.572589064267908 5.539159504781825 13.22920113243108 0 0 0
1717 2 2.4 5.656938204729021 4.717154699843172 13.595794352548495 1 1 0
1941 1 -1.2 6.4236138686099915 3.1827772383441415 13.388048539471534 1 0 1
135 2 2.4 8.10512696779462 3.1045732816467466 13.102884771430126 1 0 0
1532 1 -1.2 9.089923757613109 4.187515412035421 13.709605014630942 0 2 0
709 2 2.4 10.437266703578368 4.169984858474656 14.59125078189582 1 0 0
488 1 -1.2 11.830736683480655 3.684628000961551 13.919706218774094 1 0 1
2138 2 2.4 13.32253908939593 4.1210592362929885 13.592296787834705 0 1 1
946 1 -1.2 13.688551446722066 3.134072385944837 12.525898004964931 0 1 0
490 1 -1.2 14.597562011551798 3.9284257296305864 14.916234745808175 0 0 0
1624 2 2.4 17.51019537441998 4.226487343088376 11.624707431857873 0 0 1
355 1 -1.2 18.055681498284127 4.202411346559693 13.138345918138219 0 1 -1
591 2 2.4 19.30460615117954 4.641166238852395 13.97648765120016 0 1 0
1841 1 -1.2 20.608241612479766 3.8210247180962353 13.59552593335341 0 0 0
639 2 2.4 23.938773554379555 5.532003148740737 11.291523939115358 0 0 0
1462 1 -1.2 24.74854282667159 5.3330305876379125 12.701741173706559 0 1 0
1751 1 -1.2 29.723221858437565 4.471723755986461 12.166386993176117 -1 0 0
550 1 -1.2 -0.011769034383801589 8.528722164739802 12.57251262856155 1 0 0
780 1 -1.2 2.9083240188619293 7.0274607902209425 14.001053471766873 2 1 0
892 2 2.4 5.50619605119354 7.576962101886361 12.069424300304856 0 1 0
2022 1 -1.2 6.06529725862384 6.014096988952327 12.78697609838609 0 0 1
828 1 -1.2 11.246323441659404 6.715469442054795 11.628969990903776 -1 1 0
33 1 -1.2 13.358818792908776 5.415472060682053 12.695533479520924 0 0 0
1164 1 -1.2 19.493258787219123 6.290118394123557 13.57457550500056 -1 0 -1
376 2 2.4 19.561371621783927 7.84931577672132 13.939672571566163 0 1 0
19 1 -1.2 26.544868176013765 6.764566040954644 12.237041847395835 0 0 -1
277 2 2.4 25.722430961793382 6.3272891728673075 13.469179067255643 0 1 0
717 1 -1.2 25.656994390487665 7.6795070642010375 14.391532495507319 0 1 0
699 2 2.4 29.945501846662697 8.256167472937394 14.062116772954782 -1 1 0
1003 1 -1.2 29.28001351316272 6.72619458813704 14.16333522615467 1 0 0
1301 1 -1.2 5.717832068154428 8.832741696243632 12.986372991489095 0 -1 1
1538 2 2.4 5.474411988919454 10.381814579375682 12.918821409134964 0 0 0
1261 2 2.4 8.049633799703768 10.613885261149525 11.937280946718088 0 1 0
1279 1 -1.2 8.481810832008225 8.861884172043608 11.667743254191043 1 1 0
808 2 2.4 12.711107568318608 8.894253968758722 13.500450447317137 0 0 0
1313 1 -1.2 11.660871573739945 10.003935841767328 12.986020004917954 0 -1 0
1127 1 -1.2 13.347482023397186 8.25467287239783 11.971580618515638 0 0 0
408 1 -1.2 15.95620676980354 8.004011023170172 14.205829414400851 0 1 0
1836 1 -1.2 13.64383187602371 9.637489282657087 14.73281685344029 0 0 0
1515 2 2.4 15.323134894579699 9.351069749539596 15.144276886251108 -1 0 0
1393 2 2.4 16.71084905291188 9.29620769864167 13.401702435422362 0 0 1
527 1 -1.2 18.277130571029527 8.94959370647374 13.413112522404052 0 0 -1
281 1 -1.2 16.251084695003655 10.51157655837671 14.300830571331643 1 0 0
1699 1 -1.2 20.82540890423703 8.348274758689124 12.932437101843483 0 1 0
1829 1 -1.2 21.70431328787048 10.983968726682662 13.51372641167501 0 -1 0
2044 2 2.4 21.95876428022874 9.479228077020828 12.981693803018876 0 1 1
1793 1 -1.2 23.335233647594592 9.134419330333843 14.004437032392946 1 0 0
196 2 2.4 24.899140860581134 9.136993301573343 14.39759187144291 0 0 -1
1835 1 -1.2 26.064302771087622 9.952341052540763 13.663711339048907 0 0 0
62 2 2.4 27.67661396565493 10.306488897686867 14.148673436568213 0 -1 -1
911 1 -1.2 28.60615375352628 8.982945174804 14.69133731063652 -1 0 0
1442 2 2.4 1.398577495281786 13.231770752891135 13.782755844330493 0 0 0
1412 1 -1.2 2.647205724485501 12.716856714314014 12.966045942640724 1 0 0
851 1 -1.2 4.502164178816814 11.021623741609266 11.620674804191866 0 1 0
1167 2 2.4 3.5910677555886745 12.513311385155626 11.748323005109281 0 1 0
2146 1 -1.2 6.9264685145792155 11.098862409034604 12.96087913573068 1 0 0
159 2 2.4 11.144680394418916 10.954460583220335 11.78065944552551 0 0 0
887 1 -1.2 11.299448022289303 12.518305538469745 11.725232563900251 -1 -1 0
218 2 2.4 21.613237308015517 12.398902417656346 13.946570769445842 -1 0 0
2016 1 -1.2 19.945977405789915 13.018179548831164 13.614317360578466 0 0 0
1523 1 -1.2 22.381761468333817 13.364586188312789 12.988832644646802 0 0 0
2158 1 -1.2 27.6426532089098 12.723076822203447 12.853196941961114 -1 1 0
1293 1 -1.2 0.17605245195541175 12.670588988229364 12.853392093043851 1 0 0
942 1 -1.2 28.804234558457686 10.56108359210979 13.023068507983544 -1 0 1
1489 2 2.4 29.118342824706463 12.042736567461926 12.353476206837332 0 0 0
460 2 2.4 1.6609402496950563 16.311558968918014 14.146982172662298 0 -1 0
1342 1 -1.2 1.4939294605506057 14.829353825131056 13.606593535793234 1 0 0
1053 1 -1.2 4.667289570433504 13.592028228232907 11.83833156312735 0 0 0
729 1 -1.2 6.852801733450626 15.181733945850105 11.891851267182385 0 1 1
865 2 2.4 8.50933704280017 15.800003227825696 12.000897388757407 0 -1 0
1638 1 -1.2 8.724547943447815 15.880464327604999 13.615856571900553 0 0 1
222 1 -1.2 11.116146834779697 15.342429543474735 11.510831894507405 0 0 0
461 1 -1.2 13.011005502139211 15.076562528392282 13.249197659336614 -1 -1 0
1481 1 -1.2 16.74182383225656 14.922878275298407 12.31514811751413 0 0 1
499 1 -1.2 20.896112658861934 15.764598885082062 12.976956077109458 -1 -1 0
1346 2 2.4 21.813345312452853 14.583121885200129 12.063238358316795 0 0 0
321 1 -1.2 23.251909170020205 15.1128935353374 11.616962790445323 0 0 0
829 2 2.4 24.58337337054987 15.61449670852417 12.08039710280931 -1 0 0
2036 1 -1.2 25.666104540382 14.453737107855849 12.547729692409026 -1 0 1
1533 1 -1.2 0.709241744354712 17.25848100346288 13.147021620005743 0 0 0
1731 2 2.4 30.248174487684626 18.12776770113846 12.258464241700358 -1 0 0
978 1 -1.2 4.546025714821312 18.801574043670755 12.063696925993698 0 -1 0
535 1 -1.2 5.628751807569529 16.515667463389633 13.565756544188876 1 0 0
306 1 -1.2 6.778662857727186 17.74103234634934 11.499272803445415 0 0 0
565 2 2.4 5.16283300089123 17.347985004344324 11.948045591888155 1 0 0
1124 1 -1.2 9.23993583387231 17.08814586151476 11.654090489074429 0 1 0
340 2 2.4 9.484057626997117 17.08941181732677 14.28443240684463 1 1 0
1691 1 -1.2 8.779935155641644 18.40205707555968 14.50404259487421 0 1 0
915 2 2.4 11.976054338427671 16.315311357524724 12.61701296994331 0 0 0
690 1 -1.2 11.077550393094922 17.09852689093541 13.812556608243806 0 0 0
1589 1 -1.2 13.44414786070467 17.27082474079438 12.220735392129168 -1 0 0
1413 1 -1.2 15.869842009672949 17.130426215364064 12.55592847327151 0 0 0
687 2 2.4 17.271916226705716 16.39915898043865 12.004117053460902 0 0 0
1721 1 -1.2 18.548735451431813 16.838081473019077 12.832825406735374 1 1 0
710 2 2.4 19.966119442381068 17.061539554677644 13.2218101373077 0 0 -1
103 1 -1.2 20.81980181295005 18.536101841688748 12.918609773055756 0 0 -1
548 1 -1.2 24.843225548126085 16.6234652637009 13.512930486034676 0 0 0
1035 2 2.4 27.923140688051138 19.046784715322108 11.094257613059009 -1 0 0
283 1 -1.2 28.580925449636776 17.90307014287034 12.07471645444472 0 0 -1
388 2 2.4 1.0001093855314356 20.638396031403072 12.505326205584034 0 1 0
1678 1 -1.2 2.3896162613249436 19.912389906785258 13.250629355996587 0 0 0
489 1 -1.2 30.183516693963448 19.70292595487914 12.874401733524778 0 0 0
733 2 2.4 3.931274499443608 19.98802534768751 12.958176457290701 0 0 0
883 1 -1.2 4.600146077495151 21.634373109487225 12.46940206593937 0 -1 0
969 1 -1.2 10.785768330312132 19.76891467517936 13.455751251030101 0 -1 0
1093 2 2.4 9.215198645918868 19.712157697763274 13.580456661052926 0 1 0
1664 1 -1.2 8.446973290917436 19.46535517941841 12.084709981400286 -1 0 0
595 1 -1.2 12.484401336825218 21.541980442975223 14.084027732059827 0 -1 0
608 1 -1.2 15.104611968520311 21.695524295031504 13.368766899458324 -1 0 1
1932 1 -1.2 17.992707713090713 20.754202611721137 14.051601777019021 1 -1 1
436 2 2.4 18.71973343133529 21.64861306144052 12.763468663688627 -1 -1 0
2141 1 -1.2 19.38936576607316 20.615183765574848 11.649434820394497 -1 0 0
433 2 2.4 26.12546054255833 20.158972804552818 13.401664065892495 0 -1 0
272 1 -1.2 25.80654073386072 18.725626682626512 14.099074539020718 -1 0 -1
1483 1 -1.2 25.013964340772628 21.24436910726515 12.954013095485214 -1 0 0
162 1 -1.2 27.268135093586917 20.07182785400438 12.090235461467625 -1 -1 0
1895 1 -1.2 0.6566667007487167 22.01661833633021 13.331467189606434 0 1 1
1037 1 -1.2 2.1220045729273327 24.293971808876844 14.186176375139079 0 0 1
1954 1 -1.2 4.764852035200687 23.752449240101793 14.198069609381648 0 -1 1
169 2 2.4 8.020719091814525 23.677227500825442 11.539387152135244 0 0 0
298 1 -1.2 6.504569464371639 23.569757632359362 12.061355250104576 0 0 0
1756 2 2.4 5.5249146658587405 22.77825535251961 13.093176949456396 0 0 1
1067 1 -1.2 13.854434023848624 23.71075906065555 13.217274305416275 0 -1 0
400 2 2.4 13.278262348007347 25.131672513578557 13.451674846399035 0 0 0
1216 2 2.4 13.90164482477725 22.371165893046438 14.096061198623481 0 -1 0
1596 1 -1.2 17.62436265598815 22.724895511762938 12.335478062556586 -1 0 0
1031 1 -1.2 20.223581620722808 22.184973049578247 13.342221362849509 0 0 0
2083 1 -1.2 23.994003651364725 23.90054094486065 12.983798087055124 0 0 1
435 2 2.4 24.75301848329567 22.7836715835614 11.978238500527914 -1 0 0
1366 1 -1.2 27.682943040516676 23.15134556692507 13.768449822108664 0 -1 0
331 1 -1.2 29.98512113757238 24.210450521296 14.067093801175536 0 1 0
904 2 2.4 28.511334268033593 24.568032154507442 13.639134108224741 0 0 0
368 1 -1.2 1.7022233515172458 27.326901207179112 11.864643183098016 -1 0 0
544 2 2.4 3.825373839462149 24.850281692092626 13.957010925315013 1 -1 0
607 1 -1.2 3.6607248924443745 25.31219478831609 12.29460364580119 0 -1 0
1761 1 -1.2 8.773333760070598 24.72063461763885 12.558652808547896 0 -1 1
1881 1 -1.2 7.3799705312276265 25.94529080162854 15.04365907854651 0 0 1
1417 2 2.4 8.597669680771535 25.68835164287378 14.037484956385509 1 -1 0
1163 1 -1.2 8.998469455928799 27.084720698485086 13.402583733012397 -1 -1 0
1927 1 -1.2 13.147854678984112 25.94003593540946 12.062261090045713 0 -1 0
555 2 2.4 12.662816911061777 27.49199930017264 11.552339546101322 0 0 0
2110 1 -1.2 13.48354443718034 28.025752708365776 13.328562984545089 0 1 1
2065 2 2.4 14.144067731419094 27.345308956094403 14.923945224377592 0 0 1
2048 1 -1.2 16.129859846343393 27.353092647735142 12.092573995125349 0 0 1
111 2 2.4 17.62285739226466 26.733135418073743 12.012468137800003 0 0 0
234 1 -1.2 18.116027266861494 26.72748419564574 13.60304157171758 -1 0 0
1530 1 -1.2 18.70062085934498 27.601989708573672 11.285208845015173 -1 0 0
1486 1 -1.2 21.811947461126948 25.236639952433322 13.807277119303802 0 0 0
443 1 -1.2 23.303046979044097 25.88461520846416 11.747055597884497 -1 -1 0
1312 2 2.4 23.34464936586042 25.484748389173742 13.315645178255373 0 -1 0
1332 1 -1.2 24.09519263648114 26.403469320330167 14.389258189519225 -1 -1 0
1689 1 -1.2 28.88848268906542 25.62160815540101 12.312355250874816 -1 1 0
700 2 2.4 1.136417651005441 28.45040631883515 12.857487512207099 1 0 0
909 1 -1.2 2.2430679246336545 29.913560383925073 12.698731442489818 0 -1 0
655 1 -1.2 5.828760608516048 28.974471657279405 12.007588791185563 0 -1 0
300 1 -1.2 9.824226249877388 29.837274153645893 12.87769615698374 0 -1 0
1480 2 2.4 9.473237392905265 28.209753331017954 12.388301636602748 1 -1 1
801 1 -1.2 11.030852428586352 28.066396643834643 11.789200262987125 0 0 0
1792 2 2.4 15.431064030024409 28.86313038807761 11.961525874097767 0 -1 1
2095 1 -1.2 15.454868243765992 29.510393429870295 13.479635473377778 0 0 0
418 1 -1.2 19.570088418166026 30.183880247706135 11.417722030062402 0 0 0
984 1 -1.2 21.961846542260137 29.856947640789866 11.452614392330052 1 -1 0
1780 2 2.4 23.873453176438726 29.887591732601617 11.86953879456892 0 -1 0
1823 1 -1.2 23.876196458639573 28.80293363614535 13.08881776477414 0 -1 0
173 1 -1.2 29.96354799644692 28.938087628967534 12.731625948567274 -1 1 0
1875 2 2.4 1.75518025648362 1.7789265374019159 14.08899838303622 0 0 0
1977 1 -1.2 0.6535916692472233 0.47057520389898927 14.707470820299644 1 0 0
864 1 -1.2 0.6391638301595581 2.865818790080527 13.84133707240027 1 1 0
901 2 2.4 2.6406891415525284 1.8177102907423797 17.1094976048817 1 0 0
671 1 -1.2 2.7928478989477497 1.846889549009387 15.459525408393532 0 0 -1
1414 1 -1.2 7.672858619259189 30.28441303444764 14.548554393821888 1 -1 0
264 1 -1.2 5.811546828076973 30.104778430704506 16.595350229763522 0 0 -1
584 1 -1.2 10.224084349748026 -0.01791840323488505 15.474917642547542 0 0 0
940 2 2.4 11.024961922517814 1.2742102205844994 16.161742014354974 0 0 0
1041 1 -1.2 12.567214841751472 1.586043629526707 16.457029892946913 0 0 0
1347 2 2.4 14.10945379639409 1.555088840854802 16.88988328715287 0 0 0
330 1 -1.2 15.234916299516666 0.7479088834889941 15.650454359111823 0 0 0
469 2 2.4 18.466856374913583 0.513379271553118 15.749856913199011 0 0 0
511 1 -1.2 17.86561084467292 0.8237912444690942 17.292247173738915 0 0 0
606 1 -1.2 19.15218475172202 2.0414053614600634 15.346058802227764 0 0 0
1423 1 -1.2 21.727849125306555 2.326625362892879 15.44094543961708 0 0 0
1159 1 -1.2 19.797265357651153 30.173990587935524 15.998819383843266 -1 -1 0
569 1 -1.2 24.215789308745055 1.3451673139586997 15.047543688388897 0 0 0
1000 2 2.4 23.378109740589636 2.568932183474364 15.573956967435834 0 0 0
398 2 2.4 24.788127576032043 1.9681158151316978 13.607684166952918 -1 2 0
1635 2 2.4 29.480036827194887 0.21518441027504212 14.88126813245265 0 1 0
850 1 -1.2 28.249744988118543 0.7002960287676381 16.008582035303693 0 1 0
1550 2 2.4 28.50902053690265 0.4131040315369961 17.517909356544827 0 0 0
2026 1 -1.2 4.777386539362688 5.303287853395694 17.570964550628883 0 0 0
740 1 -1.2 6.105198748283893 5.209126819355648 15.130274233487189 0 0 -1
482 2 2.4 6.239994941307809 5.5638894049183 16.734409786894624 0 0 0
774 1 -1.2 10.505714712725041 2.5005256035688914 15.435060443062289 1 0 0
1603 1 -1.2 14.682219029825303 3.089164265488386 17.38083398503365 0 1 0
1669 2 2.4 14.953364444946349 4.496923119056063 16.273976019892007 0 0 0
1582 1 -1.2 16.394613351441762 5.032969791200623 15.892390950585265 0 1 0
467 1 -1.2 14.006922383718454 5.561563641349276 16.9088728179884 0 0 -1
941 1 -1.2 19.221899476568858 4.810111502692057 15.60014958920618 0 0 0
2114 2 2.4 20.582496483384322 2.380714390564878 14.264378039219244 0 1 0
2130 1 -1.2 24.03216487316003 3.3878687681989756 13.788242623164283 0 1 1
2144 1 -1.2 26.714001612201635 5.4519184389963495 14.377236633196343 0 1 0
1508 1 -1.2 29.054475846391306 4.5566919965338135 14.826888267259246 -1 0 1
6 1 -1.2 2.412938968651578 6.51865265950982 16.52265282808173 -1 0 -1
2017 2 2.4 2.288194517879871 7.812238963274202 15.319363483596197 0 1 0
1353 1 -1.2 7.111793922483332 7.071428347638914 16.989999604360477 0 0 0
1106 2 2.4 6.66563743439076 8.611198638169755 17.35044603109301 0 0 -1
130 1 -1.2 10.146671910357519 8.229431826336999 16.151422118714798 0 0 0
167 1 -1.2 11.003915136240279 5.351056966150245 15.475175033780637 -1 0 0
2103 2 2.4 11.298698391009696 7.015083201497122 15.809312692196128 0 0 0
2098 1 -1.2 12.46950671222642 7.610117007286929 16.811746593413964 -1 1 0
1071 2 2.4 17.82403998109469 5.419232976416102 16.560480305332323 0 0 0
1474 1 -1.2 18.34370862936525 7.049094382802069 16.70411348216564 -1 0 0
1441 2 2.4 19.454652561552347 7.980213493970893 16.785628112219666 0 0 0
894 1 -1.2 20.396037138915087 7.140870957292534 18.156798622393897 0 0 0
944 1 -1.2 22.79589344123551 7.921744198570023 17.55492712029536 -1 0 1
1099 1 -1.2 28.598470783486384 6.09540274206477 16.710756962569246 -1 0 0
447 2 2.4 28.30671259883247 5.9858108140941 15.101576265287651 -1 0 0
2108 1 -1.2 0.781306075764562 8.386568190417856 15.271563398674866 0 1 1
5 1 -1.2 -0.10107919913405836 10.771948606190719 16.300308746197466 0 -1 -1
2015 1 -1.2 4.944346981012295 10.636616898723611 14.507180142780623 1 1 0
224 1 -1.2 3.133304666757953 9.243396560144589 15.93450121744025 -1 0 -1
961 2 2.4 4.606795518329142 9.90293505272213 15.89272161885404 0 -1 0
473 1 -1.2 4.909656398884012 10.613392274295611 17.34423372311025 1 0 0
1554 1 -1.2 5.4295042681081105 8.596344741593665 16.216849635512933 1 0 0
236 1 -1.2 8.040017037274998 9.551717165320111 17.379998006102223 0 0 0
1847 1 -1.2 10.47581728423138 10.284745877846087 16.967076585213626 0 0 0
619 1 -1.2 11.877109531232048 7.720989543634155 14.342341742991877 1 0 0
1434 1 -1.2 15.263151953617488 8.997064614235292 16.873071366218937 0 0 1
938 2 2.4 16.169319470073095 10.477275481645043 17.199493299223132 0 0 0
429 1 -1.2 17.58610950046505 9.94398490933521 17.101816839583268 0 1 0
1341 1 -1.2 20.466825439891167 8.059507535773312 15.34396932122455 0 0 0
1983 2 2.4 23.605287866101616 9.444588637446833 17.14074854729761 0 1 1
1775 1 -1.2 25.10801721288739 9.626892893189744 15.925684628932794 0 0 0
1128 1 -1.2 22.580963365976512 10.542938346479733 16.891045175234424 0 0 0
288 1 -1.2 27.553822048202434 11.097836977228326 15.629516508189102 0 0 0
1285 2 2.4 0.9515759626754683 12.261742639273331 16.644135681705396 1 0 0
1781 1 -1.2 1.0312224980126437 13.206062622322156 15.350125924435792 1 0 0
1716 1 -1.2 2.340563193099352 11.53029021857618 16.783846419519097 1 1 0
1052 1 -1.2 4.643976670384625 12.939892598957282 16.56423919569706 1 0 0
770 2 2.4 3.884102076123379 11.873798889737822 17.47801308549529 0 0 0
2059 1 -1.2 15.919147505751628 11.812683431805405 16.148986093913646 0 0 0
51 2 2.4 19.04138767598495 13.334940388958897 14.905732589380294 0 0 0
1602 1 -1.2 18.980179006661942 11.807788983398517 15.98293113240615 0 0 1
154 1 -1.2 21.584561563114313 12.784280869953076 15.508313973672704 -1 0 -1
916 2 2.4 22.36571904128957 12.339544431733945 16.952138219243686 0 0 0
1063 1 -1.2 23.948499391384104 12.63844981156465 17.206365007465955 0 0 0
1722 1 -1.2 28.768635457900455 12.738508660520193 17.11340685372807 0 0 0
263 1 -1.2 3.207099930821564 16.423059985639952 14.43588391109805 0 0 0
350 2 2.4 4.618151452265142 16.455574053382545 14.879186747075678 1 0 0
1733 1 -1.2 5.139289986269758 15.252793500671379 15.802386467367526 0 0 0
483 2 2.4 5.716001281675458 14.256977223486516 16.98920376387839 0 0 0
1917 1 -1.2 9.647045073302477 14.478840071837098 17.03543797960344 0 0 0
756 1 -1.2 12.31761128847056 15.388698262255176 15.97486632499542 0 1 0
1334 2 2.4 16.11058879269969 13.540189799204372 15.787823374365065 0 0 0
1811 1 -1.2 16.01770670754891 14.536274480475663 17.124063830553965 0 0 0
1209 1 -1.2 14.84563417873296 13.7516230309223 14.758564797440078 0 1 0
458 2 2.4 13.791038910846842 15.126867842932997 14.831149770892292 0 -1 0
648 1 -1.2 17.284935000892773 13.394044792946529 14.789409366227375 0 -1 0
1188 1 -1.2 19.685437977178243 14.59652175674339 15.595376216946406 0 0 0
1840 2 2.4 20.156956654216724 16.189117170143106 15.91879623228403 0 -1 0
1217 1 -1.2 21.533999550726 16.610317143574363 16.90247133191516 0 0 0
1286 2 2.4 27.299938588937003 16.396791732908916 17.032934076970946 0 0 0
1601 1 -1.2 27.940454460540163 14.910135585275041 17.55317531616592 -1 0 0
1529 1 -1.2 0.9503916809360772 16.756725234436924 15.525733420198511 0 0 1
1670 2 2.4 1.75185884901982 17.53679725949374 16.730241371707056 0 0 0
2013 1 -1.2 2.5270793052822733 18.861639391152266 16.17595875605485 1 0 1
758 2 2.4 4.191363930107105 18.85825826156648 16.14034331615801 1 0 0
521 1 -1.2 5.130346187135752 17.62250243890642 16.077222629773594 0 -1 0
571 1 -1.2 9.800338681604048 16.52305154020709 15.800054779426441 1 0 0
1324 2 2.4 14.239896297347594 18.089096594264472 15.972377165851817 0 -1 0
1470 1 -1.2 14.524345015942306 16.62036102620166 14.983692144201154 0 0 1
646 1 -1.2 15.48006375795892 18.972244559013163 16.627596937843336 0 1 -1
814 1 -1.2 20.12752382490195 17.388128994729964 14.848366083027427 0 0 0
1296 1 -1.2 22.458070170293315 19.34038388375856 17.212217366949208 0 0 0
1548 1 -1.2 23.763063140190663 17.514234349840322 15.732474848759763 0 -1 0
472 2 2.4 22.869819978752652 17.727219692622462 17.18230813872661 0 -1 -1
109 2 2.4 25.060997359199412 17.459825540149186 14.795717312290273 0 0 0
1629 1 -1.2 26.270430676753787 16.725353144747803 15.893894968987064 0 0 1
1064 1 -1.2 28.366370531096003 17.62208875133082 16.76358861092786 0 0 0
654 1 -1.2 4.580100811283245 19.666791063841725 14.551578836885517 0 0 0
107 1 -1.2 8.531913019545332 21.10756045918305 14.206410657466892 -1 0 -1
576 1 -1.2 6.491482699929896 22.119292217418746 14.358626747444418 1 -1 -1
888 1 -1.2 7.095359332299815 20.89337358663572 16.561952793711246 -1 -1 0
1876 2 2.4 7.670162570164332 21.826604827825246 15.54988938245088 0 0 1
1126 1 -1.2 10.345234211020278 19.279116534227256 18.411291208775978 0 0 0
1242 1 -1.2 13.145236487184555 18.86318440415626 14.759701120241735 0 0 0
252 1 -1.2 11.285898231383479 20.1025856158279 16.017877206203245 1 0 0
580 2 2.4 11.925073838145599 20.00556312753993 14.546343901943905 0 0 0
1764 1 -1.2 16.61697267086638 21.683841146288405 16.298523715758307 0 0 0
378 1 -1.2 17.860853505631596 19.64770588951223 16.422369221276263 0 0 -2
590 2 2.4 17.82842278047896 21.07553776324664 15.710553997169558 -1 0 0
1642 1 -1.2 21.370917830171976 20.91455932817625 15.428005589648071 0 0 0
337 2 2.4 22.30313750293581 20.78370550172286 16.743801514223076 0 0 0
1148 1 -1.2 23.8405018920612 21.334325664101687 16.185255628639577 0 0 0
999 2 2.4 24.693225151446704 22.42824093515231 17.063293626884132 0 0 0
1375 1 -1.2 26.8878033738152 20.88798130234986 14.751578947955732 -1 -1 0
523 1 -1.2 29.66412730948897 20.20328030355896 16.677774136136 -1 0 0
506 2 2.4 29.981440767736498 21.914194751670337 16.71023188601561 -1 -1 0
1240 2 2.4 0.8388432205523495 23.280828957071414 14.548840258734812 0 0 0
1101 1 -1.2 0.9017493460844251 22.54977370925317 16.029206802415967 0 0 0
824 1 -1.2 8.277717631496923 23.11933367291099 15.989103069009753 0 1 0
665 1 -1.2 10.731626912058692 23.018701877188683 16.01984271451421 0 -2 0
2118 1 -1.2 11.941729328018118 24.745579496632825 14.007844663610939 0 0 0
2115 2 2.4 15.471574917443984 22.550633231628495 16.80243837185857 0 0 0
24 1 -1.2 14.555449655699794 22.95490413780377 15.505216089599022 0 0 -1
1029 1 -1.2 15.89106060241517 23.64878517117629 17.956773721947638 0 -1 0
1278 1 -1.2 19.078124067084705 22.165196559088187 15.966860583827588 0 0 0
1994 2 2.4 20.622556825948656 22.169056846727788 15.012911310250324 0 0 1
906 1 -1.2 21.434300481460987 23.48722026007748 15.767405386523645 0 -1 -1
1695 2 2.4 21.299920809679865 25.043304396712514 15.40669966917237 0 0 0
1173 1 -1.2 24.086336331160762 23.88529697238486 17.184276318634534 0 -1 0
698 2 2.4 23.45832934195344 25.415472452191587 17.310359177079228 0 0 0
1389 1 -1.2 26.088042380175928 22.681356903275688 16.125210007987135 0 1 0
1130 2 2.4 27.296377756567146 22.426510620675064 15.137873145759697 -1 0 0
1662 1 -1.2 28.565269608865925 22.47545391765672 16.31479176211295 -1 0 0
402 1 -1.2 4.50678738964079 26.148127391094636 14.677556395151084 1 0 0
158 2 2.4 5.913666997396166 26.603552787394413 15.363052846334499 0 0 0
357 1 -1.2 5.572842685696928 26.327929022546737 16.990486145813094 1 0 0
156 1 -1.2 9.779823342923049 25.433179204087093 15.212244224825776 0 -1 0
1610 2 2.4 11.229848397322291 24.706472747272826 15.552000081374455 0 -1 0
647 1 -1.2 11.492559322212852 25.405046321807273 16.96071579876927 1 0 0
1299 2 2.4 12.718637408716555 26.321983997695728 17.251377573990776 0 0 0
1675 1 -1.2 14.371738952248139 25.838398999666538 14.496078068342145 0 0 1
1989 1 -1.2 13.958607433192263 25.275028043757022 17.557753534936644 0 0 1
988 2 2.4 16.744714777636368 27.597611912531402 16.824369772741743 1 -1 0
1109 1 -1.2 15.64841636237858 28.068716161650297 15.843416112686885 0 0 0
1416 1 -1.2 18.161594125640107 27.46521724219543 16.21905970067367 0 -1 0
363 2 2.4 19.2218794937502 26.914968165586192 14.844927803703998 0 0 0
918 1 -1.2 19.744162920247838 25.46589398939722 15.339972499783077 1 0 0
1542 1 -1.2 21.977076189766112 25.946231228866548 16.745735368377762 -1 0 1
1701 1 -1.2 24.240339100299835 26.728879112083266 16.503318632088458 0 0 0
102 1 -1.2 28.02891364526195 25.29102116215279 15.022650300426541 0 -1 0
84 1 -1.2 26.96054623084793 27.6517709403317 16.032694100990916 -1 -1 0
890 2 2.4 25.474924239611568 27.918948878981283 16.653931938347093 0 -1 0
2020 2 2.4 28.147629897784977 26.377950747637282 16.117783621206712 -1 0 1
168 1 -1.2 29.420292815428912 27.04879063663406 16.457521639753306 -1 -1 -1
2010 1 -1.2 1.0911944694915774 27.70841194267512 14.60752147399519 1 0 0
477 1 -1.2 0.9522367808965735 28.47304973162183 17.27798605430434 1 -1 0
960 1 -1.2 6.168585757280543 28.27486253100163 15.124662681826091 0 -1 0
531 2 2.4 6.248196732238935 29.84174530952677 15.041351713743657 1 -1 0
1320 1 -1.2 13.02943881026538 27.432152415489696 16.104875907329774 0 -1 0
837 1 -1.2 16.87938291060158 28.765113517277946 18.055366431847897 0 0 0
1340 1 -1.2 20.337796561397703 28.02514960912496 14.310172107962591 0 -1 1
841 2 2.4 20.750453110162336 29.016575170237157 15.780578871900323 0 0 0
2082 1 -1.2 20.893961670352542 28.273035290448377 17.229076392209162 1 0 1
784 2 2.4 23.703626620469223 28.35041414627485 14.615418201428843 0 0 0
1796 1 -1.2 22.308645861819706 29.283015732453865 15.128570134235169 0 -1 1
1820 1 -1.2 24.91198958242694 28.93460284279446 15.511812497834315 -1 -1 1
64 2 2.4 0.18621645171720833 27.957762396860076 16.108898490723945 1 -1 0
1090 1 -1.2 29.63189579281304 29.239692416443926 15.653842368491643 -2 0 0
1619 1 -1.2 2.411372228832293 0.2202124158724483 17.31504946391873 0 1 0
2039 1 -1.2 4.068909034535001 2.099085411838435 17.889585603453835 0 1 0
1179 2 2.4 4.732844091527817 1.7063865480966165 19.26324329145412 0 0 0
185 1 -1.2 3.491671544894705 0.49838335811963724 19.885309452731533 1 0 0
1001 1 -1.2 6.1800047270896865 0.8532500091315605 19.06611387755363 0 0 0
1868 1 -1.2 8.190577260092518 2.129588025423254 17.792109075942328 1 0 1
686 2 2.4 8.955929364772723 0.6882152663238628 18.37188103011469 0 1 -1
788 1 -1.2 8.925924258209971 0.6297994783770122 20.139036467936226 1 0 0
762 1 -1.2 10.561701663582848 0.928604420387566 17.724257366140073 1 1 0
293 1 -1.2 12.562173013129549 1.2316752914097349 20.52667966824512 0 0 0
566 2 2.4 13.665511354929505 0.17756048839427574 19.781267614829527 0 0 0
119 1 -1.2 14.305368856745435 0.899539960775045 18.307974722707538 0 0 -1
1791 2 2.4 26.56568214780476 1.3046220111386797 19.643543202085464 0 0 0
1556 1 -1.2 25.806984451308914 30.36085759626813 19.598111149307975 -1 -1 0
1030 1 -1.2 27.16875279893534 1.235884222248126 18.05961191855746 -1 1 0
836 1 -1.2 25.318635496802774 2.443394235450331 19.924066057055004 0 1 0
1007 1 -1.2 30.226539917751694 0.4429711676299423 17.607067284702573 1 1 0
1472 1 -1.2 1.730719925413733 2.993334573598032 17.702585083522067 0 0 0
2019 2 2.4 1.8079727303095605 3.8242680023907387 19.11958582655491 0 1 1
1544 1 -1.2 0.4147342193955823 4.416805914476367 19.523370398997983 0 1 0
1026 1 -1.2 5.290334079589636 3.107641895970691 19.970839490501984 0 0 0
597 1 -1.2 2.65639002370719 5.242391784667476 18.821525066747213 0 0 -1
203 1 -1.2 7.5007511813155 4.672760854906794 17.10136590339583 1 -1 0
1142 2 2.4 8.54667076253335 3.7099544927408923 18.16177029580541 1 0 0
1013 1 -1.2 8.257996519801404 4.020106272804028 19.716653345954658 0 0 0
451 1 -1.2 10.296052824663805 3.6502679474463484 18.290259939701166 0 -1 0
1175 1 -1.2 10.687724230562589 2.81978209115808 20.918985659376798 0 0 0
1310 2 2.4 10.291438078004079 4.037046253284382 19.836540640981635 0 0 0
572 1 -1.2 15.160503519515927 5.144638371271179 20.236892396837593 1 0 0
2037 1 -1.2 17.34775926636044 4.924168740303598 18.068038783200993 -1 1 1
747 2 2.4 16.796428699413365 5.458048137233229 19.546481169907267 0 0 0
620 1 -1.2 17.588802884217824 4.61587250774207 20.47247603540435 0 0 0
1640 1 -1.2 21.86261547347407 5.302685470009734 18.24689702940122 0 1 1
1974 1 -1.2 23.459533038025512 3.345998102317225 17.16414566655336 0 0 1
858 1 -1.2 21.771311577179304 2.7900566711543333 19.582548585577825 0 1 0
268 2 2.4 22.64402197020647 3.9171193844285916 18.465222520174542 0 1 0
669 1 -1.2 24.19879902519711 4.654126017933725 19.003590769027706 0 0 0
1564 2 2.4 25.659096912990492 4.037352203865253 19.264159925495996 0 0 0
1004 1 -1.2 26.764199308660864 4.451440728598617 18.203850795615185 0 0 0
529 2 2.4 3.274176297310896 6.238633816273628 17.756842210844756 1 0 0
1207 1 -1.2 3.6805426542659223 7.637328063333304 18.67973307919514 0 1 -1
1970 2 2.4 5.040261368702935 8.300721775260397 19.522894197821422 0 0 0
1600 2 2.4 13.250338174274363 6.589529234381065 17.902415423299196 -1 1 0
1325 1 -1.2 12.176941759302062 5.513333367444037 18.657171240988138 0 0 -1
1707 2 2.4 11.984230338474084 6.219479738257501 20.445346938832177 1 1 0
715 1 -1.2 11.752785368429915 7.888793817008179 20.65023511837793 1 1 0
1522 1 -1.2 14.148096621428374 7.364771338638829 19.21160221219691 -1 0 0
424 2 2.4 14.532368290874071 6.393840032377417 20.7981454149569 0 0 0
2069 1 -1.2 17.074622037500127 7.032467905414679 20.074884357983404 0 1 0
601 2 2.4 21.92322247774388 7.007210819234383 18.581302845442867 0 0 -1
322 1 -1.2 22.126861985296827 7.026565784779673 20.207658443667974 0 1 -1
454 1 -1.2 24.67672540037089 7.460233908054044 20.273343897933064 -1 0 0
1198 1 -1.2 26.556056721122562 7.121471308046868 18.12921598910744 0 0 0
1190 2 2.4 27.7120402975924 5.9477471831536395 18.002496733205327 0 -1 0
1913 1 -1.2 28.781992128733506 6.231151424636274 19.477279991754582 0 0 0
1302 1 -1.2 4.692016996014225 9.734031283653563 20.502144025326967 0 0 0
1398 1 -1.2 6.292900569008077 9.041892094430352 18.84588275208781 0 0 0
86 2 2.4 9.696601466546326 8.893115981649876 17.467109956662117 0 0 0
2058 1 -1.2 9.738582077927129 7.951530165242107 18.77826576590783 0 1 0
428 1 -1.2 10.506370564982939 10.451920111368855 19.78673964802359 1 1 0
70 1 -1.2 19.775418509658078 9.572760864511743 17.35734396750757 1 0 0
604 2 2.4 18.887747490615503 10.848733310545265 17.196118740648338 0 -1 0
1322 2 2.4 25.68337206469293 8.143201082363083 19.136852780209733 0 0 0
1966 1 -1.2 24.885712811070977 9.340914604384253 18.28307259128744 0 1 1
1463 1 -1.2 26.80479144027747 8.687165797173165 20.15220749421444 0 0 0
520 2 2.4 28.751838060661772 11.084215166940837 16.708462210463782 -1 0 0
1227 2 2.4 27.988131041092487 9.615661512575633 19.71572487794269 -1 1 0
754 1 -1.2 27.91232644043293 10.316398368059392 18.065418617629355 -1 1 0
325 2 2.4 2.0081021635567486 13.400390105480763 19.161908062859556 0 0 -1
1951 1 -1.2 0.8315016912170995 13.254068061582107 17.9225836103177 0 1 1
802 1 -1.2 1.8045425379838353 12.848312324148761 20.675873831814116 0 0 0
935 1 -1.2 3.5407590626979486 12.708981552746097 18.846160936617967 0 -1 0
1630 1 -1.2 9.065371564660083 12.026967980794272 18.014280437597062 0 0 0
1012 2 2.4 10.592835132170435 11.235680882462162 18.35848632327045 0 0 0
1401 1 -1.2 11.785880056988177 12.65580686655416 18.52411094275253 0 0 0
1498 1 -1.2 15.594188475723776 10.724816371887085 18.765070234881215 0 0 0
2 2 2.4 15.688505666274226 12.085731450936274 19.827941363665122 -1 0 -1
127 1 -1.2 14.27291640376719 12.66584179732324 19.716046411697306 1 -1 -1
993 1 -1.2 16.680421635945187 13.288870557302216 19.169440102700012 0 0 0
1798 1 -1.2 19.118041740895464 11.752625203962511 18.622459847124453 1 0 1
1369 2 2.4 20.63381014856878 12.209556247766406 19.372136477563906 0 0 0
2064 1 -1.2 21.407178682421858 13.073907780051549 18.11510993628309 0 0 -1
713 1 -1.2 24.086527404226608 12.670389913315281 19.94620655526604 0 -1 0
805 2 2.4 24.725779381647683 13.42616104487001 18.54336929046726 0 1 0
318 1 -1.2 26.27419585762203 13.09390719647132 18.691101186905346 0 0 0
1245 1 -1.2 28.780375646452356 13.46064021747642 19.66910745400121 -1 0 0
992 1 -1.2 2.555062340007787 15.054256824607863 19.309842977122788 0 0 0
2006 2 2.4 3.5772949555242834 16.0343094706831 18.71188998888979 1 0 0
1979 1 -1.2 4.820858712909146 15.032973475940864 18.16122149198538 0 0 0
1882 1 -1.2 7.140389165935953 13.62147318274241 17.309714737985555 0 0 0
1525 2 2.4 8.72476365523999 13.579577141606276 18.08211558108531 0 0 0
1206 1 -1.2 8.603985124445781 14.259888681859936 19.83700122565263 1 1 0
688 2 2.4 13.132452926973627 13.648439162700965 19.208020766821257 0 -1 0
452 1 -1.2 13.314857175501457 14.581202011972417 17.92295000740193 0 -1 0
1477 2 2.4 12.658521197321077 16.170566476633518 17.32147843837557 0 0 0
1277 1 -1.2 11.287851075366898 16.387356915103812 18.271540303762986 1 1 0
1747 1 -1.2 15.353489857735006 15.744336536297244 19.567769009718415 0 -1 0
1191 2 2.4 16.583573538554234 14.76278208549819 18.680981462824935 0 0 0
538 1 -1.2 18.033310651779356 15.258428686684645 18.57037480362725 0 0 0
1355 1 -1.2 19.275464243108885 16.76974832698839 17.264444564766645 0 0 0
2133 1 -1.2 19.685281034754503 15.75171413888098 20.201728294827443 -1 0 0
1176 1 -1.2 24.446486637398422 15.05670863603664 18.592492668611435 0 1 0
928 2 2.4 25.010830958048906 16.50897353515365 19.035326417883656 0 0 0
1580 1 -1.2 26.58942032768005 16.736162378304453 18.597197614317857 0 0 0
1789 2 2.4 27.791428403035116 13.585187268056274 18.441519493919188 0 -1 0
1113 1 -1.2 0.5157919035055788 17.946555995374858 17.71724143349121 0 0 0
1102 1 -1.2 2.8105966222257655 16.448670779690236 17.29188200150759 0 -1 0
2097 1 -1.2 4.147775391176144 17.08465369291202 19.954680582949127 0 0 0
1080 1 -1.2 4.822715513226503 19.604379784328966 17.387243213779126 1 -1 0
966 1 -1.2 7.717269415499252 19.05700035518496 18.22649505368851 1 0 0
614 2 2.4 9.853933318476189 16.16337534394848 17.31051364364747 0 0 0
1971 2 2.4 9.06384651291309 18.42656966049962 18.7609716533179 0 0 0
1931 1 -1.2 8.730996747209584 17.010145498698456 17.994613228659215 1 -1 0
1541 1 -1.2 8.675669514450213 19.066250483249178 20.51669842152723 0 0 0
1962 1 -1.2 13.540217290146849 17.53632740754914 17.351123961933272 0 0 0
721 2 2.4 16.00942710186097 17.165273366524755 19.616818793984883 -1 0 -1
896 1 -1.2 16.829431342518447 17.836890036196177 18.31990003934213 0 -1 0
1694 2 2.4 19.059661045678215 16.624024410349 18.912448079787904 0 0 0
1152 1 -1.2 19.055642762364972 18.270870135826158 19.393174032135775 1 -1 -1
965 1 -1.2 23.745977411845086 17.52747259305807 18.588359391909417 -1 0 0
628 2 2.4 29.42537271279354 18.746079194160476 17.260930585782837 0 0 0
1617 1 -1.2 29.249568261400185 17.13644018161822 20.803291310295055 -1 0 0
1077 1 -1.2 6.034574643202456 21.253455736184357 19.04527708491463 0 0 1
830 2 2.4 6.36224470682759 20.0907188713871 17.871910534693075 0 0 -1
1467 2 2.4 10.6755468844313 20.486625484618056 17.462222186724308 0 -1 0
704 1 -1.2 9.176168885092203 21.197067776552164 17.34932413893128 0 0 0
846 1 -1.2 11.834643560018117 21.590472961199627 17.9104870574404 1 1 0
640 2 2.4 13.115282363095428 21.48816418257948 18.801887328510766 0 0 0
1049 1 -1.2 12.735873875306195 22.702083835365276 19.736228242524312 0 -1 0
1247 1 -1.2 13.017131867881213 20.21098330267084 19.741768224624135 -1 0 0
1246 1 -1.2 14.325306307903649 21.443172522763152 17.59972082014264 -1 0 0
1907 1 -1.2 17.05763851695374 20.363221995293532 18.98454573329726 0 0 0
1273 2 2.4 16.757082400979122 19.144654205346306 17.619838284721553 0 0 0
844 2 2.4 21.48333864039635 21.360846896682084 19.556513246375054 0 0 0
679 1 -1.2 21.73945626028 21.88510092433962 17.983729453750367 0 -1 0
1616 1 -1.2 28.990584091754844 19.135185953785626 18.855258464024395 -1 0 0
764 1 -1.2 0.27293762657963866 24.01519147993037 20.447454050897733 0 0 0
871 1 -1.2 5.893748057987855 23.346869803647788 19.946455195597714 -1 -1 0
329 1 -1.2 9.416888760095057 23.374004702800153 18.552354871830637 0 0 0
998 2 2.4 9.438816815890743 22.89500827210258 17.030072536190048 1 -1 0
1622 2 2.4 9.27263746601728 24.588044663149894 19.62350126773739 0 0 0
672 1 -1.2 20.75750240860559 22.502826940304598 20.6572310131556 0 0 -1
1473 1 -1.2 25.339045208394047 21.709660077873057 18.435128623754462 0 0 0
270 1 -1.2 0.05724944345298977 22.18676241452194 18.297630227506634 1 0 0
1718 2 2.4 29.8495120511814 22.91964106969191 19.588173093298877 0 0 0
1805 1 -1.2 28.466272377236503 23.500786642938056 19.154172729911693 -1 -1 0
1396 2 2.4 27.575903605444946 24.846854669175148 18.99502570563486 0 -1 0
1739 1 -1.2 5.342081493378408 26.17322091897778 19.883868008755137 0 -1 0
554 2 2.4 6.0882279379964706 26.748712719195083 18.425984219475957 0 -1 -1
389 1 -1.2 10.025478602603675 25.921312191661162 19.234884805106443 0 0 0
164 1 -1.2 7.806264704747747 26.92466275187524 18.960838658704517 0 0 -1
1505 1 -1.2 16.525463433435867 26.325257785072697 17.89865699285304 0 -1 0
1291 1 -1.2 14.97868645835088 25.24618018006793 19.862906894402144 1 0 0
1239 2 2.4 15.415160371672815 25.178120093808346 18.269809570082714 0 0 0
1005 1 -1.2 17.363062582288617 26.51631524703864 20.883362789229576 1 -1 0
39 2 2.4 19.0317141713963 26.274532532379244 20.578314507154495 0 0 -1
953 1 -1.2 19.807368223431467 27.161619514465936 19.287617249319197 0 -1 0
1112 1 -1.2 23.559078388649304 25.762313864515008 18.908096026846707 -1 0 0
1143 2 2.4 24.555323018666645 24.94589143495624 20.08952389453207 0 0 0
478 1 -1.2 26.043992254706556 25.18804590846634 19.337007564343164 0 -1 0
491 1 -1.2 27.52424797874861 25.374694998728575 17.352782905811534 -1 -1 0
1371 2 2.4 1.2582173270015145 29.971222774886773 18.034915690045022 0 0 0
1410 1 -1.2 1.0009682874171637 29.900481541036164 19.68107102427676 1 -1 0
532 2 2.4 6.362218077131828 29.93463309939831 18.076501762360905 0 -1 0
47 1 -1.2 5.829334894183163 28.404037492627143 18.545880836004613 1 -1 0
1025 1 -1.2 8.042442621172587 29.87325058955451 18.169080818500102 0 0 0
1409 1 -1.2 10.359232228985553 28.075258929923926 19.791962908500892 1 -1 1
1499 1 -1.2 12.776216426898703 26.946668130286184 18.75410897573566 0 0 0
1911 2 2.4 12.01711897281796 28.000941208154437 19.666841985174628 0 0 0
1184 1 -1.2 12.70110286507958 29.45158609657754 19.35952576173362 0 0 0
176 1 -1.2 17.406840707799955 -0.0071877084702496215 19.66370083109121 -1 1 0
1777 2 2.4 17.940320789112832 29.978085288382218 18.24924857374578 0 -1 0
2154 1 -1.2 19.74369351550217 30.135038471440165 18.56547033681137 0 0 0
2080 2 2.4 20.529754499040273 28.671899366235483 18.89002880651439 0 0 1
2096 1 -1.2 21.64772726224609 29.31364930776273 20.118696503195768 0 0 0
1110 1 -1.2 25.667191182862172 28.213151385960067 18.210676720269984 0 -1 0
962 2 2.4 26.677553834056106 29.17340793483744 19.19064427395759 -1 -1 0
1942 1 -1.2 27.14312353754276 28.48324075901727 20.518065923880183 0 -1 1
53 1 -1.2 27.82278015291868 29.428053751366345 17.87553025945687 0 -1 -1
57 1 -1.2 1.4898935477403883 0.5401113708421507 21.805041835070014 1 1 0
925 2 2.4 1.9899084708890957 2.2167799412749973 21.914521653311645 1 0 0
2045 1 -1.2 3.491033519288624 2.699958244364389 22.20794229111345 1 0 1
823 1 -1.2 7.448348398037665 0.892396812261926 22.600987218210815 0 1 -1
913 2 2.4 8.780521729441057 0.38434382027306746 21.80557285913898 0 0 -1
1365 1 -1.2 10.325386408018273 0.8482220255096118 22.28371774323146 0 0 0
914 2 2.4 11.669888956912322 1.7665730464377805 21.66579404989803 1 0 0
1019 1 -1.2 14.904925629309014 -0.08559446545252843 20.88936280901774 0 0 0
23 1 -1.2 16.725232367122178 2.249815261880556 20.82305197694874 0 0 0
1213 2 2.4 16.486115475821414 0.6123422379629765 20.81161271862116 1 0 1
695 1 -1.2 20.760534667888493 1.1415560320528506 21.00088560458339 0 0 0
496 2 2.4 21.106602131995103 2.6995285962605755 21.17975826692674 0 0 0
1349 1 -1.2 27.756773360302535 1.5292216407322745 20.80784500955171 -1 0 0
970 1 -1.2 25.76240897664019 0.5244382782509316 21.928645906543533 -1 1 0
1587 2 2.4 26.97458368188152 1.4464214720195996 22.296244570087758 -1 1 0
1998 1 -1.2 27.674671753036996 0.3335703409957841 23.404317730288707 0 1 0
1655 1 -1.2 2.227947083896467 2.9450035445444414 20.26212459263546 1 0 1
863 1 -1.2 1.0964154498395167 2.898925559207074 23.148902546559494 1 1 -1
637 2 2.4 4.612112947579066 3.686269806875235 21.518468043000674 1 0 0
657 1 -1.2 3.7983800078678756 5.347162951659358 21.478891774222674 0 1 0
361 2 2.4 7.093902738674709 2.601088517740993 23.12754561631183 -1 1 -1
1121 1 -1.2 6.044567252611553 3.660136857217285 22.32779654202493 0 1 -1
32 1 -1.2 12.567895892006963 2.659184068521849 22.951245657334525 0 -1 -1
1788 1 -1.2 17.56243949946781 3.2846201016503462 22.96839343022359 0 0 0
1659 2 2.4 17.82402222763161 3.2914045907962057 21.335288322704837 0 1 -1
860 1 -1.2 19.627829510102867 3.350688673986252 21.237183508343534 0 1 0
2073 1 -1.2 22.52986071916789 3.222411703174172 22.028907527123128 0 1 0
653 1 -1.2 24.61642736055183 4.9056294888626075 22.68915746755408 0 0 0
1822 1 -1.2 26.680048312294982 4.485328612485283 20.568383624357132 0 0 0
973 2 2.4 26.164634928061634 4.461123017317416 22.296101012849856 0 0 0
1692 1 -1.2 26.703395849088317 2.935804825166504 22.839534055398566 -1 1 0
1149 1 -1.2 0.5497115414586321 6.795309535651835 20.87423135665471 1 1 0
1769 1 -1.2 3.958635885012549 7.960990951440302 22.105615191147244 0 0 0
1910 2 2.4 4.806239507042873 6.605836900123399 21.734467359104784 0 0 0
621 1 -1.2 5.74672437482668 6.973921408547806 20.464517786208443 1 0 0
1208 1 -1.2 5.768287083576832 6.143651151527912 22.957555758167874 0 1 0
1637 1 -1.2 7.8045687434152065 7.638650406714135 23.047095863201612 1 1 -1
1656 1 -1.2 10.689058840243764 5.400134107715892 20.79589357790162 0 1 0
1066 1 -1.2 13.16380077276703 5.933024847987225 21.564187930256935 0 0 0
285 1 -1.2 15.387135788409127 7.439720508130314 22.169161201136298 0 1 -1
1765 2 2.4 16.880113399762962 7.739924548428241 21.66549789755003 0 0 0
778 1 -1.2 18.15664801031731 7.448244134825835 22.641809751744482 1 0 0
777 1 -1.2 20.702768299374167 7.007686959245941 23.3504635954242 0 1 0
1082 2 2.4 23.2233850781672 7.698502680523257 21.103962954221366 -1 0 0
1535 1 -1.2 23.319231202214553 6.795373839318143 22.487700960949752 0 0 0
1627 1 -1.2 27.088496348120106 5.610001803455911 23.066330347778354 -1 2 0
1168 2 2.4 30.072618711558032 5.474909938939202 20.33054574916587 -1 0 0
1771 1 -1.2 29.300971271173463 4.839930394269086 21.59733132696238 -1 0 1
1406 2 2.4 0.3693700845288857 8.41112046068802 20.94856071585273 0 0 0
1929 1 -1.2 0.37632979367482683 8.657874263640132 22.54250274587496 1 1 0
465 1 -1.2 1.8658883939581539 9.259092299315158 20.59270750763981 0 0 0
611 1 -1.2 3.524953569795384 10.533118810128956 22.214147246152837 1 -1 0
843 2 2.4 3.396530467879797 9.239552351581205 21.267292885311598 1 1 0
641 1 -1.2 7.788302221924998 9.672150319231726 21.965197080560802 1 0 -1
1597 2 2.4 10.363804836693841 8.77092375890607 20.155658279917144 0 0 0
1973 1 -1.2 9.727761923549767 8.070014365616505 21.589831639194532 0 0 0
1934 2 2.4 8.725435509231493 8.836448314687589 22.788870169601072 1 0 0
926 2 2.4 16.086948889970714 10.384884012590005 21.89812484283975 1 0 0
885 1 -1.2 14.563138629585115 10.210392997142774 21.792696514304872 0 0 -1
1487 1 -1.2 16.510556840282142 10.274370277087936 23.40979555278054 0 0 0
1651 1 -1.2 17.15163339682518 9.373295590722272 21.05243693164436 -1 0 0
1493 1 -1.2 21.64277051047765 10.935938089380485 19.76582673150834 0 -1 0
1458 1 -1.2 20.919127817541224 10.745038238853002 22.62390699989897 0 1 0
1378 1 -1.2 22.729484929552875 9.428987412428823 21.290112084764267 -1 0 0
385 2 2.4 21.913763149116697 10.832790835847986 21.326831497786134 0 1 0
371 1 -1.2 29.38199619624731 8.617218269765939 20.160661210458716 -1 0 0
367 1 -1.2 3.8803673918195956 13.334399771930064 21.969419124269447 0 1 -1
1623 2 2.4 4.3495006316792555 11.792968810899389 22.575956907247907 0 0 0
1986 1 -1.2 5.787548367877491 10.856210218017651 22.351579000234707 1 0 0
124 2 2.4 7.2991818347549104 11.269571808038956 22.44373958336051 1 0 0
2156 1 -1.2 7.275977475865389 12.161436843840459 21.009454859945304 1 0 1
1103 1 -1.2 8.758256337932613 11.276583036795824 23.239033168392826 0 0 0
736 2 2.4 13.451945135704461 10.827649918637462 22.811912738224397 0 0 -1
1294 1 -1.2 12.220909276933883 12.000177386562086 22.264312767824062 1 1 0
1494 1 -1.2 16.35337350008643 11.943732413488611 21.309043981994165 0 0 0
202 1 -1.2 19.942123658274213 13.153286303449494 20.611508728176023 0 0 -1
1594 1 -1.2 22.608564599125515 12.264992506716162 21.846221785379623 -1 -1 0
508 2 2.4 23.353872341541976 13.568524604063805 21.2498640889261 0 0 0
732 1 -1.2 27.322564500713217 13.289703147419361 21.945858824322237 -1 0 -1
1734 1 -1.2 28.374385174755176 10.933581698738035 20.489015773290923 -1 -1 0
74 2 2.4 28.38068943680608 12.527511604265692 21.017993233748946 -1 -1 -1
2003 1 -1.2 29.774522092629855 12.706259912838403 21.942822975431806 0 0 0
937 2 2.4 0.8089109015949676 13.494914839186263 21.797292029919383 0 -1 0
7 1 -1.2 1.5183847138908029 13.910091854213597 23.311426750458203 1 -1 -1
1736 1 -1.2 3.3566374456793113 15.768527289932825 21.976271858904305 0 0 0
1060 2 2.4 3.121501068172544 14.563870177112321 23.080672467578367 1 0 0
360 1 -1.2 7.511046159989603 14.637180923170005 22.086157441211554 1 1 -1
1212 1 -1.2 10.016891365467242 13.191510433399477 22.058960291636296 0 0 0
853 2 2.4 8.562017028340446 13.555326497288721 21.34699851196979 1 0 0
674 2 2.4 11.708129496777573 13.479610796277814 21.803012474792894 0 0 -1
1854 1 -1.2 12.367002848084782 14.410644830067808 20.66382649565053 1 0 0
2129 1 -1.2 20.01494249066337 14.85778864466322 22.54073801127363 0 1 0
1036 2 2.4 20.525106718052765 14.703267267796651 21.076500521435822 0 0 0
1759 1 -1.2 22.139844495097705 14.541962002711234 20.817854323003463 0 -1 0
1385 1 -1.2 24.21877867896064 14.428573118233476 22.183720604343918 0 0 0
1448 1 -1.2 24.45719274953151 16.67455533829924 20.528006940445987 -1 0 0
49 2 2.4 24.747747656343737 15.900524554307777 21.89367651203277 0 -1 0
714 1 -1.2 26.400043347967113 15.524993353062207 22.060022023454117 1 0 0
1404 1 -1.2 0.29505210141970034 15.057556787184856 21.521177671297714 0 0 0
1205 1 -1.2 1.6052867773557409 17.598879440443657 21.418635475119398 1 0 0
976 2 2.4 3.2230339337515876 17.198277432342564 21.320470050643934 1 0 0
1953 1 -1.2 3.8971468064346446 18.50326497573964 22.282824881943704 0 0 1
878 2 2.4 5.039477671350559 18.84889409860986 23.46777523832345 0 0 0
359 1 -1.2 6.449447238025306 19.12123629451868 23.137849257158784 0 0 0
1507 1 -1.2 10.715121549835986 18.469176510139608 22.23915233532594 0 0 0
1697 1 -1.2 13.654857322625345 19.504679548317988 22.29255137569343 0 1 0
1155 2 2.4 12.332195050011768 18.81136613355762 22.892597367737473 -1 0 0
617 1 -1.2 15.069116764836822 18.397452514221946 19.974119219401693 0 0 0
2128 2 2.4 18.363197331158627 18.3565667057921 20.995136996200976 0 0 0
1356 1 -1.2 17.260986658789164 17.112152149382485 20.791994496116335 0 -1 0
1614 1 -1.2 19.794675247694062 18.173003376828454 22.054810380304374 0 0 0
416 1 -1.2 22.50707302027903 18.95641684200821 21.836496126670802 0 0 0
1283 1 -1.2 25.126675267241307 19.25174364552551 21.6750619788319 0 0 -1
1443 2 2.4 0.1900222415082322 16.684560127287096 21.590828349614657 0 0 0
1613 1 -1.2 30.022409047803205 17.096330381177033 23.05950352990519 -1 -1 0
54 1 -1.2 1.653401479196487 21.304276420490353 21.442197657600477 1 -1 0
1800 1 -1.2 -0.10861606539229775 19.42388269765327 20.993112532177875 1 -1 0
613 2 2.4 0.1523535132801506 20.871511068111612 21.68006720512274 1 -1 -1
142 1 -1.2 4.414139548163643 22.1276837239516 21.30861885114215 1 -1 0
541 2 2.4 5.762154484012477 21.722541476453426 20.560640877115393 1 -1 0
1335 2 2.4 7.545663147294612 20.405268555958994 23.020408770709594 0 0 0
659 1 -1.2 6.817021369994703 21.440884865686748 21.931584971228062 -1 -1 -1
664 2 2.4 9.65291991332547 19.728274048711068 21.557940754919244 0 0 0
1869 1 -1.2 9.04706754448365 19.885511830086266 23.126667410304776 1 0 0
214 1 -1.2 10.364094759524404 21.088155124235193 20.84618701411361 1 -1 0
1958 2 2.4 14.375257322677028 19.6703289016128 20.73450498027745 0 0 0
1044 1 -1.2 15.24341868812203 21.241524365520625 21.08068283643973 0 0 0
1153 2 2.4 16.88277219664782 21.045648126810942 20.56146318348847 0 0 0
509 1 -1.2 17.55204795923098 19.78061787304945 21.756905164649982 0 0 0
1238 2 2.4 20.854771701492893 19.42988687535031 21.93978440482136 0 1 0
101 1 -1.2 20.67180728457906 20.09413659058721 20.25008671770533 0 0 0
1676 1 -1.2 23.232924188897147 21.095076537197585 20.328240770582312 -1 -1 0
2122 1 -1.2 25.857566936036964 21.55808429732284 20.96899657828199 0 0 0
1562 2 2.4 26.435110390379815 20.256422103157274 21.711164991268813 0 0 0
1282 1 -1.2 27.940898467797844 19.762496621102066 21.13408567567034 0 1 0
1180 2 2.4 28.966409129017013 18.716817060182237 20.325938974511903 -1 0 0
696 1 -1.2 2.4482493807076446 23.767404828308035 21.774908443759276 1 0 0
2152 2 2.4 1.0593307420831222 24.62663593926444 21.768903120111144 1 0 0
735 2 2.4 2.9345347288423618 22.140404778019953 22.197502862390774 0 0 0
1017 1 -1.2 8.020016932532574 24.678809394816504 20.532598794039004 -1 -1 0
1135 1 -1.2 10.497173063030058 23.78783500960085 20.768624512290007 0 0 0
160 2 2.4 11.363084391211002 22.483003231393475 21.124411584609934 0 0 0
932 1 -1.2 11.949526483077998 22.39407509062352 22.59851164394267 1 0 0
1428 1 -1.2 15.848301839987666 25.049413700243083 22.606944167199803 1 -1 0
1315 1 -1.2 18.029488361315135 22.23985778488001 20.704268781306997 0 -1 0
1459 1 -1.2 19.679626698705896 24.77267724912643 20.341108560087942 0 -1 -1
1528 2 2.4 19.398704015917104 23.159300682273415 21.11394298299787 0 0 0
237 1 -1.2 19.166446316354698 23.82699019653114 22.59285723348254 -1 0 0
374 2 2.4 24.51311482590627 21.877553477760646 19.90411824924392 0 0 0
776 1 -1.2 24.226348282835314 23.437785135529477 20.196841834366772 -1 0 -1
825 1 -1.2 0.1797968231580768 24.644832606748977 23.146316282624092 1 0 -1
118 1 -1.2 29.682398794047437 21.92523907064071 20.768596055039364 -1 0 0
1784 1 -1.2 1.6153013600366948 26.172998852313654 21.224115840540303 0 -1 1
193 2 2.4 2.303408244792486 27.54173372738774 21.860957032327512 1 -1 0
1838 2 2.4 5.079764130795509 26.30516545844635 22.755857139789317 1 0 0
743 1 -1.2 3.8751599586019028 27.194483400959612 22.314238512181273 0 -1 0
474 1 -1.2 6.0299073809617925 24.969169394990892 22.254920892763604 1 -1 0
1969 2 2.4 6.346399179489233 24.801494430037344 20.60592432178007 1 -1 0
560 1 -1.2 8.597902062368917 27.236772184554294 21.510484315686092 1 -1 0
15 2 2.4 9.018093041182864 27.218891090029498 19.99855711952463 0 -1 0
1858 1 -1.2 12.083232721471708 27.67342015166351 21.347552183074093 1 0 1
1778 2 2.4 15.955533306766748 25.923097807318715 21.367882181248206 0 -1 0
1999 1 -1.2 15.034417857881087 27.24336434788716 21.85020193324152 0 0 0
344 1 -1.2 19.667136182329408 26.96201117542838 21.734045955260125 0 0 -1
811 1 -1.2 24.398154179728103 25.782702734263463 21.45211167150479 -1 0 0
1832 1 -1.2 24.588130761389344 26.836209466541046 23.919308010033316 0 0 0
304 2 2.4 24.9127242213995 27.035969087718122 22.470473386809015 -1 -1 0
1939 1 -1.2 26.448379570863786 26.46578950835967 21.98890853658293 0 -1 1
209 1 -1.2 28.066250427040572 25.870400177017043 20.177794691124536 1 0 0
855 2 2.4 27.65890477476122 27.15229077186177 21.1876658975383 0 0 0
1022 2 2.4 2.3513526226296526 30.190113277913653 20.622389942852863 0 -1 0
1199 1 -1.2 2.848246057551189 28.782905299462954 20.96044885778164 0 0 0
126 1 -1.2 1.214998929196067 28.002065303369616 22.940621599252424 1 -1 -1
2134 1 -1.2 6.210932262797415 27.650153997828625 22.68451811435741 0 1 0
519 2 2.4 7.869902280080192 27.829470917627813 22.800335700115063 0 -1 -1
1738 1 -1.2 8.214528153888498 29.438769223856156 22.28411353694399 -1 -1 0
171 2 2.4 13.440550817052333 27.340244951883562 22.29651252260394 0 0 -1
2120 1 -1.2 13.276736069911033 28.218413539903498 23.634680438149015 0 0 0
581 1 -1.2 17.14307817648268 0.5138711244168814 22.226819426177236 -1 1 0
616 2 2.4 19.938881387473153 28.26638300790129 22.974756602434432 0 0 0
1959 2 2.4 21.566065203611405 30.260667821442443 21.409273027592093 0 -1 0
2051 1 -1.2 20.711845870305428 29.567820276636105 22.509251987709543 -1 -1 1
1073 1 -1.2 23.029165599365427 0.10956638861924213 22.050895263244463 0 1 0
1492 2 2.4 24.419898150842766 30.10045661288535 22.66539897230071 0 -1 0
235 1 -1.2 24.845983622123956 28.470464495587326 22.26128474620372 -1 0 0
1905 1 -1.2 29.038426218731786 27.423117910900178 21.815642008503257 -2 0 0
1503 2 2.4 30.010784158742545 27.666118059211595 23.203816448393734 0 0 0
1834 1 -1.2 4.019834169305163 1.1550862888008864 25.253291818761294 1 1 0
61 2 2.4 4.663372681485578 2.520273349482737 25.164779728561886 1 0 -1
459 2 2.4 3.9809574065070894 30.30911553774696 26.240595963105275 0 0 0
668 1 -1.2 5.918160103417308 2.2188025950589165 24.241358658400525 0 1 0
1079 1 -1.2 13.565724891329445 0.5094740876594749 24.123841352380392 0 0 0
217 2 2.4 17.690067485979075 0.909571900386775 25.912703259741296 0 0 -1
1411 1 -1.2 17.48790245987422 30.28207972419879 24.861127817647425 0 0 0
335 1 -1.2 28.065509561480035 -0.020883628000063093 25.800238886448856 0 1 -1
370 1 -1.2 0.38109296594687747 2.992593491747355 25.748594164264176 1 1 0
1139 1 -1.2 1.6397474825543852 4.926029287042546 24.545309035994197 0 0 0
387 2 2.4 0.3640969034812387 3.7578968111862943 24.246476164917315 0 1 -1
1745 1 -1.2 4.173642173456447 4.098168662034783 25.037421552563558 0 -1 0
1141 2 2.4 3.0370571472902275 5.309791598254848 24.93775476150555 0 1 0
1915 1 -1.2 8.6742972334608 3.0235249764575114 23.749936334882623 0 0 0
13 2 2.4 8.626139515646196 4.151100447895803 24.918937438149793 0 0 -1
1908 1 -1.2 10.386404531739489 4.1854914769916025 25.15372606894053 0 0 0
1709 1 -1.2 12.484617740253928 2.845678320783682 25.45936392595067 0 1 0
2032 2 2.4 11.82117547031841 4.297789328267973 25.837425069722975 0 1 0
99 2 2.4 13.394966073257898 2.234799004222541 24.221013181167365 0 0 -1
2057 1 -1.2 15.06085902335418 2.5997891717339883 24.32472664478599 0 1 0
251 1 -1.2 17.596184626427696 2.6851963313825418 25.390962573303153 0 0 -1
1403 1 -1.2 16.864154136770832 4.910526616964197 24.18177614410934 0 0 0
2126 2 2.4 16.62111984513009 3.1409700917339247 24.266619792153417 0 1 0
29 1 -1.2 22.19218332817211 4.994942482378459 24.078694558430147 0 0 0
1839 2 2.4 23.46367095388891 3.952559168543176 23.47618066508892 0 0 1
1450 1 -1.2 23.79527091499999 2.7558163804737443 24.506949190252353 0 0 0
1249 2 2.4 28.64486271485682 5.4259520769904155 22.93464844547816 -1 1 0
2027 1 -1.2 29.425656593088682 4.464969090155077 24.382605752756152 -1 1 0
1938 1 -1.2 0.9732803096338554 8.20575827387147 24.92709540853995 1 0 1
1540 2 2.4 2.677881782672804 8.220659779206411 25.516231712106556 0 0 0
827 1 -1.2 3.4857341778200817 6.945150536219402 24.69258178022599 0 1 0
1308 1 -1.2 7.981419897315673 5.455606589344897 24.183656636849207 0 -1 0
1816 2 2.4 6.812938644728579 6.748510960981886 24.12258298478687 0 0 0
1880 1 -1.2 5.939546614128607 7.300044682854639 25.424771626415712 -1 0 0
1818 1 -1.2 12.696585653262288 5.575595415363353 25.70078814095293 0 -1 0
623 1 -1.2 12.199191302469861 7.839148441734043 25.212713805967 1 0 0
786 1 -1.2 16.543805330868533 6.8058404073690735 25.617808881819126 1 1 -1
1491 2 2.4 19.139088717083222 7.559764348370864 23.765386682281317 0 1 0
1923 2 2.4 17.60710285383382 5.714886784946849 25.36517870482241 1 0 0
1665 1 -1.2 18.843358989820203 6.528366989487956 24.93899090450127 0 1 0
1960 2 2.4 22.190904598446224 6.638400120168997 23.846261938933587 0 0 0
1181 1 -1.2 22.414494302656223 8.05278573336896 24.747209716434444 0 0 0
951 2 2.4 30.05199489741353 8.177568173215162 23.771012106042793 0 0 0
189 1 -1.2 29.55360056184512 6.7587087671556985 23.194486369827814 -1 0 -1
1350 1 -1.2 3.6089852924603623 9.55140487177687 25.422125126334997 2 -1 0
1766 2 2.4 4.407179314090795 10.850556525033479 25.344268839573804 0 0 0
1028 1 -1.2 6.033253546076483 10.956348979526718 25.190006202225184 -1 0 0
2060 1 -1.2 10.056268266413348 8.976465686382827 23.750183572972762 0 0 0
924 1 -1.2 11.445615203319566 10.378891669857058 25.620679347941756 0 0 0
707 1 -1.2 12.614779946593456 9.336027935379887 23.340033905986957 0 0 -1
1083 2 2.4 11.584583588137955 9.223248906923175 24.52818875152956 -1 0 -1
1842 1 -1.2 15.439431972934331 10.13691771422742 26.034460174522913 1 0 0
1265 1 -1.2 19.2825492567293 9.256283220948108 24.242005849043053 0 1 0
1768 2 2.4 20.148794898808813 10.565842590682237 24.047060452261025 -1 0 0
1926 1 -1.2 21.367321379877644 10.445222551925246 25.192860301218385 0 0 1
1321 2 2.4 22.709537557804328 9.48261786434548 25.27936443843175 -1 -1 0
68 1 -1.2 23.986944715427104 10.580168211936137 24.893563470934975 0 0 0
55 1 -1.2 26.51286323563198 10.238913368299595 25.570303412541243 -1 0 -1
1096 2 2.4 25.44005922152893 11.419628759475012 24.981017576980978 -1 0 0
1819 1 -1.2 28.914953408766962 9.015479511008998 24.60802353762083 0 0 0
314 2 2.4 28.178178605979102 10.377808472718831 25.211833387516855 -1 0 0
1809 1 -1.2 4.19026897233716 11.724659073450805 24.14436459726691 0 0 0
1808 1 -1.2 8.527262208390615 11.010515764213475 25.895068536290417 0 0 1
242 2 2.4 8.903030143319487 12.158258391200176 24.693602240171746 0 0 -1
1440 1 -1.2 10.508550750992509 12.390133366891469 25.006285234488672 1 1 0
1400 1 -1.2 7.504743105986519 13.292104010311236 24.571162188054913 0 0 0
902 2 2.4 15.609906853953 10.986643868722195 24.797367150306176 0 0 0
1712 1 -1.2 14.259963056075906 11.50549753306611 24.044838125192925 0 1 0
2034 1 -1.2 16.45559390561997 12.354495675020072 24.992575137399697 -1 0 0
1479 2 2.4 18.0235499852064 12.771788677872014 25.105859133748236 0 0 0
108 1 -1.2 19.17503185021565 12.014190096564732 23.922036731286468 0 0 -1
612 1 -1.2 25.872580843440314 12.185281929844816 23.64291214324319 0 0 -1
1648 2 2.4 27.276954468032265 12.888705939523101 23.462616635052047 1 0 0
609 1 -1.2 27.66918381373534 14.198467074509953 24.281018197207295 0 0 0
1865 1 -1.2 28.370965799874686 11.703483298966216 23.947813370583066 0 0 1
1903 1 -1.2 3.2588101283011044 14.91177426862829 24.593037023626795 0 0 1
291 2 2.4 4.568976289139233 15.344300060516916 25.641174746252226 0 0 -1
1581 1 -1.2 5.576242112447525 15.363085823086866 24.185237537932693 1 0 0
207 2 2.4 7.0237323615471015 14.760652228972704 23.90124887464677 1 0 -1
1904 1 -1.2 8.215197908317043 15.848410181713287 24.409381908895135 0 0 0
1680 1 -1.2 10.575446498803142 16.28825635210088 25.13269306446861 0 0 0
627 2 2.4 9.05076819030796 15.902338348845692 25.82991153049162 0 0 -1
1485 1 -1.2 12.118464056635023 14.43776469306908 23.160010482423715 0 0 0
1874 2 2.4 11.9780243924894 15.794027718056949 24.16239058708882 -1 0 0
893 1 -1.2 13.177158549514953 15.183044003572181 25.41739809622933 -1 -1 0
775 1 -1.2 18.208157565219096 14.334483761070322 24.68303856860365 0 -1 0
1886 2 2.4 19.641351994106813 15.128784657004411 24.205222802721366 0 0 0
643 1 -1.2 21.027987283102746 14.330990684149636 24.6837502885895 0 0 -1
537 1 -1.2 22.99204013950539 15.55056144712377 26.180054700961943 0 0 0
1038 1 -1.2 25.355566024680282 15.313567660558677 24.973662419720664 0 0 0
676 2 2.4 26.60157406917802 15.521849419124772 23.93803497464394 0 0 0
1866 1 -1.2 27.25938245032736 16.901082636137897 24.387419079039045 0 0 0
178 1 -1.2 4.28351888976017 16.5288831039583 26.628634990115128 1 0 -1
1418 2 2.4 5.124790086117707 17.945712631130927 26.25491545395348 1 0 0
2157 1 -1.2 5.070551671453963 17.74662589863235 24.682023543247865 1 0 0
1956 1 -1.2 12.397081494842004 17.280162576397437 23.409344809276202 0 0 0
105 1 -1.2 14.410302840063057 18.96632095662007 25.75438616705697 0 0 -1
757 2 2.4 16.045043805070538 18.83861902259967 26.04632472141124 1 0 0
1468 2 2.4 19.01233078984764 17.97013572884439 25.572477197951983 0 0 0
1857 1 -1.2 17.288456214310386 17.97935392402229 24.997304619877806 0 0 0
833 1 -1.2 19.374442031777534 16.480557947411143 24.961930175577734 -1 1 -1
94 1 -1.2 19.54040516376993 19.36049206118655 25.08666267617167 0 -1 -1
589 2 2.4 23.933370380610924 18.864721828643493 22.611913701737603 -1 0 0
1520 1 -1.2 24.16128902827127 17.065929458816477 22.92869777082381 0 0 1
790 1 -1.2 24.448303730834755 17.819965002910568 26.107222650643884 0 0 0
1873 2 2.4 28.893064108783438 17.35311963395976 24.34965519508477 0 0 0
738 1 -1.2 29.85794640262055 16.867940209892062 25.5145021058381 -1 0 -1
273 1 -1.2 29.016950215417292 19.139334944672402 24.21636811799927 -1 0 0
246 1 -1.2 2.4040114076801844 21.000750026751817 25.90121397559346 0 0 -1
401 1 -1.2 4.673706313477471 20.27705820536269 24.29178778292867 1 0 0
1309 2 2.4 3.6834560273396444 21.390169404895328 24.974592326653244 0 -1 0
995 1 -1.2 5.031433154922853 22.508706107352577 25.451059060184427 1 -1 -1
934 1 -1.2 7.3521641569105265 21.55193508398763 24.095845637687137 1 0 0
1338 1 -1.2 12.221569131254068 19.468601303020442 24.47201936107102 0 -1 0
494 2 2.4 13.14347256635908 19.850695253848126 25.647695950922763 1 -1 0
2132 1 -1.2 13.616430574959493 21.337480565272305 24.882173370623153 0 0 0
1146 1 -1.2 20.739242961621663 20.601436593585174 23.096526124791392 1 0 -1
1513 2 2.4 20.34732112018742 20.812127341987228 24.634926689316572 0 -1 0
131 1 -1.2 19.22761988708793 22.240161669518308 24.741226746296153 0 -1 -1
840 1 -1.2 21.661255042659672 21.038179372217797 25.55345900899303 -1 0 -1
1735 1 -1.2 23.664398907612668 19.98424513898577 23.683840426060016 0 -1 0
1813 2 2.4 23.29782148338505 20.978220028327772 25.12939607859575 -1 0 0
296 1 -1.2 27.036362351706476 20.372415805875697 23.361145810078018 -1 0 0
81 1 -1.2 29.57439921041977 21.345367823100776 23.031867233923695 -1 0 0
2054 2 2.4 28.388967391677696 20.52254475069458 23.927420553270416 1 0 0
971 1 -1.2 28.037569074733643 21.572102977524146 25.080128062282803 0 0 0
79 1 -1.2 3.2520592891441438 22.306706403960106 23.676950455712113 0 -1 0
375 2 2.4 6.580228567171278 22.276623884430528 25.341393700644346 0 0 -1
810 1 -1.2 6.974997981793797 23.913412138464277 25.134717628517908 0 0 -1
575 1 -1.2 11.608074096650572 23.266336110082364 25.0663946354204 1 -1 0
14 2 2.4 12.897526899239281 22.47473200272051 24.160483153936063 0 -1 -1
312 1 -1.2 14.0125700888741 23.557607636495284 23.591692126998208 0 0 -1
1546 1 -1.2 15.72637305311649 23.446173158619537 26.222986421651072 0 0 0
1850 2 2.4 16.409234599570485 24.71167465656922 25.4918489012312 0 -1 0
835 1 -1.2 17.697819531556807 24.382496690413266 24.702242754047077 1 0 0
602 2 2.4 19.262267289789115 23.839861808400773 24.351168524376394 0 0 0
431 1 -1.2 20.752427195913764 24.86528642328707 24.59142377261213 0 0 -1
1976 1 -1.2 23.99663795574915 22.40358230921814 24.742118508750398 -1 0 1
662 2 2.4 24.724829794642602 23.421784344518194 26.14400175245843 -1 0 -1
274 1 -1.2 26.268676067281984 23.058185503498038 26.027680059134916 0 -1 0
1253 1 -1.2 24.966282253174896 25.12591488707691 26.029023459272526 0 0 0
1947 2 2.4 27.772764129672158 22.94332639737623 25.992138715824336 -1 0 0
332 1 -1.2 28.59970435453359 24.27501885188991 25.169927444109543 0 0 -1
1392 1 -1.2 0.8982297363071052 24.69215868959748 25.739678188943042 0 0 0
75 2 2.4 1.3040233507693666 26.056999995870804 26.51326225061366 0 -1 -1
1641 1 -1.2 2.478319743834012 26.63407506419647 25.37167436407739 1 0 0
2088 1 -1.2 4.867435262702943 26.478004056436667 24.36310066153756 1 0 -1
2000 1 -1.2 7.178867130758864 26.672165584027827 26.544434034875803 0 0 0
2106 1 -1.2 13.167901140070585 25.985406671796056 22.943169737443192 0 0 0
232 2 2.4 14.387324074554876 25.192521245330752 23.61589585487284 0 -1 0
1737 1 -1.2 15.221049595257622 25.666790309502417 24.93266991839367 -1 -1 0
1849 2 2.4 20.892047357823987 26.215103408564715 25.401642963014826 0 -1 0
1571 1 -1.2 20.370866820284316 27.661199484947247 24.336128743992163 0 0 0
1856 1 -1.2 22.412990275120848 25.991209343732653 25.80035018425326 0 -1 0
1300 2 2.4 24.073561513654152 26.298540676571566 25.469387993043174 0 0 0
303 2 2.4 29.9418422133219 25.033013752119576 24.774963863847983 0 0 -1
1421 1 -1.2 29.83565714049461 26.492120729266293 24.317249860420034 0 -1 0
1046 2 2.4 3.8976376369941272 27.361588507075673 25.555255808878062 1 0 0
882 1 -1.2 3.5765019398974154 29.003898010887617 25.246854781777824 1 0 0
1599 2 2.4 8.408760022428828 27.664994858869143 26.12234791509217 0 0 0
179 1 -1.2 8.524584553047504 27.366091650464014 24.396922666582157 0 -1 0
980 1 -1.2 9.996319283988102 27.92399344623853 26.562778778036343 0 -1 0
870 1 -1.2 14.484057947436701 29.131563095577675 25.884843906507797 -1 -1 -1
1859 1 -1.2 15.67858717718351 29.181674233719264 23.591263268202177 0 -1 0
2068 2 2.4 14.274131197574786 29.35827131623955 24.259052162556763 1 -1 0
1088 1 -1.2 18.29119026157513 28.719130373506694 22.961212961788032 0 -1 0
1888 2 2.4 17.217832664734495 29.765564972626954 23.335505349490067 0 0 0
922 1 -1.2 24.69174496343455 29.73778045291298 24.310001314586504 0 -1 -1
445 2 2.4 25.349178210536163 28.84772021329625 25.6562372263287 -1 -1 0
1268 1 -1.2 26.604047298449874 28.45904959774749 24.794826527405835 -1 0 0
1687 1 -1.2 24.36177658627016 27.693904853334892 26.23882782195291 0 0 0
1323 2 2.4 27.88875726991539 29.49322986983268 24.514433582328415 0 -1 0
804 1 -1.2 29.320726345784557 28.67342311909815 24.337268729594825 -1 0 0
1547 1 -1.2 0.9026398490795551 1.4225559007612225 27.85754943972519 0 0 0
1215 2 2.4 1.8884945176636159 0.26834941930990025 28.615245924071672 0 1 0
2135 1 -1.2 5.81084564068977 30.328065862182118 27.086922357176174 0 0 0
213 1 -1.2 8.171483307893272 1.0667007713314451 26.961112151494998 1 1 -1
349 2 2.4 8.446056814681032 2.5485572964292564 27.568899736596382 1 0 0
873 1 -1.2 14.684426534228058 1.1188008352426722 28.791456106736806 -1 0 0
328 2 2.4 14.672252835288603 30.13814806455031 29.284542177632208 0 0 -1
889 2 2.4 16.521364539697544 1.5022669065223202 28.71637461054911 0 0 0
546 1 -1.2 16.94707699191057 1.0632608081165262 27.315611963815176 0 0 -2
151 1 -1.2 19.34771526357458 0.2771539763745081 26.224551407387303 -1 0 -1
1729 2 2.4 20.238807484356155 0.28860553936818395 27.511077033476685 -1 0 0
1230 1 -1.2 21.152018464804275 1.6956155740966776 27.499000800488822 -1 1 -1
133 2 2.4 22.71040460380484 0.6512095183456738 27.361801120660346 0 0 0
1639 1 -1.2 23.81773050715557 1.1760542099630946 26.172910779641757 0 1 0
726 1 -1.2 23.465043616880017 0.5488717222243313 28.840692140752214 -1 1 -1
955 1 -1.2 26.094006465446263 1.8598587641811108 25.76254072221685 -1 0 0
256 2 2.4 26.719180591069005 0.5498811520631628 26.57742541967219 0 1 -1
990 1 -1.2 27.127161892606658 0.5997272048965323 28.122096373003856 0 0 0
241 2 2.4 0.8697163005082895 2.9207407878358747 27.29725504668983 1 0 -1
1930 1 -1.2 2.433543620490661 3.405474470445223 27.39208952978503 1 1 0
545 1 -1.2 -0.01857353777017478 3.7933611034067924 28.09567294917663 1 -1 0
266 2 2.4 3.212788644532985 4.738883355793689 27.815928305348947 1 0 -1
680 1 -1.2 5.026454353798223 4.62079530474002 27.915617548329067 0 0 0
1311 2 2.4 5.627764352697181 3.1657198252591066 28.237639657965396 0 0 0
1650 1 -1.2 5.180442299697932 2.4776684082404574 26.785291312798677 1 1 0
1748 1 -1.2 7.183522284557376 2.80365019415864 28.660696868098746 0 0 0
1517 1 -1.2 9.74469460560731 2.6310297955172874 28.583657350819216 -1 0 0
11 1 -1.2 7.886454251036949 3.638921082303198 26.27399453125685 -1 -1 -1
1287 2 2.4 10.566158828051272 4.081414312427126 28.65541293049262 1 1 -1
536 1 -1.2 11.767342231772053 4.216335924959521 27.510820312573184 0 0 -1
1943 1 -1.2 16.546207167710318 2.998939387351603 28.644919573879612 0 1 0
1814 2 2.4 16.891633619062624 4.745475779070969 28.215624060033207 0 0 0
1719 2 2.4 24.366035545625596 2.5446682258017668 25.978502317327923 0 1 0
2067 2 2.4 24.103072316206106 4.667024295572979 28.256743312823343 0 0 0
1763 1 -1.2 24.16857569754403 3.7816685950632065 26.92186024412286 -1 0 0
1918 1 -1.2 25.640726745907273 5.076903670259194 28.867619130358072 -1 0 0
1810 1 -1.2 2.6341067476017126 5.575014113958896 28.980662482509217 0 0 0
727 1 -1.2 3.1084006574768512 5.725635699436996 26.475249261896614 0 0 0
875 1 -1.2 6.007028887626406 7.217515980205791 28.056452858249784 0 -1 0
1358 2 2.4 6.8404368310907175 7.841277376123493 26.926259128549322 0 0 0
2023 1 -1.2 9.297572009684584 4.982706077327499 28.087927452375347 0 1 1
1068 1 -1.2 8.43908010874243 7.146763534484819 26.84534364708334 0 0 0
146 2 2.4 9.562145397500334 6.70152760589192 27.881977935011843 0 0 0
1922 2 2.4 12.404207489837818 7.002365353088369 26.586214314285748 0 0 0
1255 1 -1.2 11.147627829840594 6.880904245193073 27.601315527241873 0 0 0
525 1 -1.2 13.775061453196326 7.419033148278634 27.574177384758208 0 1 -1
856 2 2.4 15.42999932350738 6.875531735228352 27.102553736844083 0 0 0
1618 1 -1.2 15.338464157330165 5.4040053949947096 27.999494834206086 0 1 0
1376 1 -1.2 17.55723056954948 5.10041465047552 26.877615933308377 0 0 0
1746 1 -1.2 21.343328677646852 8.123746900413982 28.365474528625903 -1 0 0
897 1 -1.2 23.44156641072121 6.41223901307024 27.850622679994455 -1 0 0
1720 2 2.4 23.007005997885532 7.955975162004699 27.931080483641328 0 1 1
1059 2 2.4 1.8827123230759002 8.99939225497724 28.231335917147533 1 0 0
480 1 -1.2 0.534735157861795 10.181249231300956 27.875400181574665 0 0 -1
492 1 -1.2 2.5632618497708677 8.135444652573824 27.18208545243042 0 0 -1
1872 1 -1.2 2.6055350914451707 10.37772284717659 28.806012576431588 0 0 0
959 1 -1.2 7.100176710124196 9.402922011481074 27.385781220848532 0 0 0
1348 2 2.4 7.095619674019839 10.964164388200535 26.630853243227417 0 0 0
1961 1 -1.2 10.659847225562013 11.65462930901662 28.01462139263606 0 1 0
820 2 2.4 15.773908388966987 9.83958578149754 27.685111491189968 0 1 -1
390 1 -1.2 14.488012517943762 9.66585531760271 28.89522728941253 0 2 -1
501 1 -1.2 16.271449384678526 8.277718800713268 27.720983671211034 0 0 0
753 1 -1.2 19.146383731470795 8.229728735844176 29.681120105265443 0 1 -1
294 1 -1.2 19.278041977603216 10.386910315294283 28.55902612584786 -1 1 -1
1395 2 2.4 20.373103587113803 9.108598082346152 29.033806763812276 0 0 0
1147 1 -1.2 23.30540928650405 9.303658702149146 26.834320755932588 0 0 0
1431 2 2.4 24.43920289285209 10.006700523720276 28.868891467113308 0 0 0
377 1 -1.2 26.13182161295293 10.082193684900288 29.17217052072067 0 1 -1
543 2 2.4 29.50662728712908 10.707884668000672 27.9763572218813 0 0 -1
645 1 -1.2 28.84379637950377 11.064701634655954 26.37103898901152 0 0 0
2035 1 -1.2 2.5525647959141 13.704640134073799 27.2406627378194 1 0 0
1425 1 -1.2 4.1182936873441625 11.481597310724412 26.853312867072137 1 0 0
1576 2 2.4 3.6330550479630745 12.655489792238864 27.642666370682985 1 0 0
920 1 -1.2 4.561629984204332 13.392864814599726 28.74790491889397 1 -1 0
697 2 2.4 6.049387524717466 13.6382589356374 27.930261291901598 1 0 -1
1955 1 -1.2 7.0251937595678156 12.067468372857462 27.86192127073623 0 0 0
1138 1 -1.2 9.062050369143455 12.902750646233388 29.195349300908443 0 0 -1
1982 2 2.4 11.304162578659469 11.872900324352928 26.343386395250707 0 0 0
1723 1 -1.2 12.550811693047354 12.835833713540554 26.625171641238463 0 0 0
475 1 -1.2 16.93849627853761 10.89985682854885 27.946330253268528 0 0 -1
1604 1 -1.2 18.749653324690232 12.020590721119746 26.429134442261738 0 0 0
182 2 2.4 18.409979291226836 11.656612220392471 27.921475236684532 0 0 -1
1559 1 -1.2 18.677804224319424 13.030179503469645 28.83439014827726 -1 0 0
438 1 -1.2 22.503225496011595 12.947182621701781 26.699052277605674 -1 0 0
968 1 -1.2 23.989600148241237 11.299384226648797 27.981576769998966 0 0 0
626 2 2.4 24.173785270219277 12.620381768588684 27.15101782467501 0 0 -1
718 1 -1.2 25.4421824704388 12.53323823275447 26.185322840228363 0 0 0
848 1 -1.2 24.453908589272157 13.835656417947646 28.43082515883343 0 1 -1
983 1 -1.2 29.591067906220285 12.342837785451946 28.269400327182254 -1 -1 0
1527 2 2.4 1.6886351664477302 15.05324750211971 28.149626045002258 1 0 0
1137 1 -1.2 0.8773749844760241 14.151098565526947 29.16336315521913 1 0 0
921 1 -1.2 0.9989765351087814 15.797398769405905 26.96434615326237 1 0 0
2050 1 -1.2 5.1699972680388715 14.130548824460655 26.50539946806357 1 0 0
1435 1 -1.2 2.6852084031959293 16.002961904000443 28.99110130509222 1 0 0
1280 1 -1.2 7.02166593722996 14.664011156635498 28.827345367929798 1 0 -1
1848 1 -1.2 8.744743473736134 14.5854294112214 26.729486284187676 1 0 0
181 2 2.4 8.720724698049082 14.286146578825432 28.49579369577813 1 0 -1
1045 2 2.4 11.179351337991438 16.318773589670535 28.62409591743363 1 0 0
1032 1 -1.2 11.721446578804922 15.39639259655557 27.435914148747862 0 0 0
1465 2 2.4 13.033819600049476 14.70057843205142 26.956335899808956 0 0 -1
2011 1 -1.2 14.14960219976661 15.27878229631683 27.975187899845324 0 0 0
165 1 -1.2 18.82295769922407 15.742029058129194 28.149000981814545 0 0 -1
748 2 2.4 19.71382689504236 14.464035224272694 28.66880558280254 0 0 -1
862 1 -1.2 20.676382895090903 14.589808615071538 27.336841352554018 0 1 0
484 2 2.4 21.841031697880794 14.474423145601712 26.10940753362452 0 0 -1
1633 2 2.4 24.488551024822105 16.268049147918564 26.310376084974216 -1 1 0
1831 1 -1.2 25.23415334080594 16.15310463715867 27.599992243010572 0 0 0
373 2 2.4 25.30906092899162 15.280341198027738 28.899222140746375 -1 0 -1
1058 2 2.4 0.2769656814487973 17.29042735365312 26.921446291141184 1 0 0
323 1 -1.2 1.7432995711142707 18.30677739184287 26.67842288759699 0 0 -1
821 1 -1.2 4.16907708996858 19.033436104918724 26.825416095676633 0 0 0
798 1 -1.2 6.616595671074609 17.963122651763715 26.464078301728605 0 0 -1
172 2 2.4 7.726537317632291 17.965855718629875 27.88362059981055 1 0 -1
1390 1 -1.2 8.851791496785044 16.99703808845798 27.09543090832525 0 0 0
872 1 -1.2 10.898844761138232 18.084776141263387 28.446781202926985 0 0 0
313 2 2.4 12.049536041821868 19.20345375714175 28.250194883779 0 1 -1
765 1 -1.2 13.446080954137583 18.295971016841087 28.5119698071792 0 0 -1
369 1 -1.2 15.934841434609629 18.670963996224028 27.755458506825796 -1 0 -1
2042 2 2.4 14.9119162220763 18.50960744916311 29.002589099420078 0 0 0
1303 1 -1.2 18.907394882016533 18.003538118831035 27.33199834486984 0 0 0
25 2 2.4 19.051684895699857 17.40948328159086 28.720191598100936 0 0 -1
1891 1 -1.2 20.446851933234168 17.77335390070372 29.259101973299504 0 0 0
1008 1 -1.2 22.897626631678175 18.032781502229664 28.0840700908904 0 0 0
712 2 2.4 23.923086533852352 18.871578435691923 27.32936067015003 0 0 0
2004 1 -1.2 25.11987236390222 19.506099219079385 28.212034231317045 0 0 1
1679 1 -1.2 29.851265438395874 18.079228862351012 28.07753859939546 -1 1 0
1935 2 2.4 2.685353458506764 19.78563021730363 27.066531614815613 1 0 1
1495 1 -1.2 2.4249986846550033 20.713333441554088 28.37240334574588 1 0 0
17 1 -1.2 7.817109110148981 19.60887047749031 28.187816697235977 0 -1 0
347 1 -1.2 7.180653671944636 21.905839246974487 26.819747720965655 1 0 -1
2153 1 -1.2 8.685894076457998 22.190968715480434 29.046255799079447 0 0 0
593 1 -1.2 12.098548855474027 20.176199193255602 26.80131671282067 0 0 -1
1584 1 -1.2 11.62848828590465 20.412853111787257 29.342183549121696 1 0 0
636 1 -1.2 16.113178052761864 20.687831472462232 26.19285761506453 1 0 -1
563 1 -1.2 17.78925399018257 21.940933081143005 27.213613580594618 1 0 -1
573 1 -1.2 20.068211998529872 21.913655271386457 28.69147435862797 1 0 0
1776 1 -1.2 23.611285877539093 19.983547102880298 26.26571953908625 0 0 0
455 1 -1.2 7.705372406980527 24.17963181815607 27.412640176684558 0 -1 0
175 1 -1.2 9.833024867089183 22.914653683703897 26.576075751618646 0 -1 -1
2150 2 2.4 8.361312023397616 22.77278981556132 27.53706729462116 1 0 -1
650 2 2.4 11.30593211742973 23.749251084675397 26.607894030470135 0 -1 1
1211 1 -1.2 12.700439411123744 23.293935102346197 27.46857014355253 0 0 -1
656 1 -1.2 15.198261835044171 22.31022424864152 28.294280401034044 0 0 0
279 2 2.4 15.875867120227356 22.081056339731166 26.820203672260114 0 0 -1
1108 2 2.4 13.957920953917355 23.28714550983626 28.450950837524505 0 0 0
1827 2 2.4 18.663298841105657 22.65505729587395 28.245349830031273 0 0 0
113 1 -1.2 19.413640783663997 24.034723336723612 28.221040978726986 0 -1 -1
59 1 -1.2 21.816845869222472 24.556869874211486 28.21655718457878 0 -1 -1
115 1 -1.2 23.692907889753307 22.836777732447434 27.164178787893515 0 0 -1
1672 2 2.4 23.005396789574988 23.578749406618925 28.572991517056867 0 0 0
1786 1 -1.2 22.410854319964933 22.680602237165356 29.69015813374787 0 -1 0
1634 2 2.4 27.74743582863173 22.7084971720275 29.197466519667397 -1 0 0
610 1 -1.2 28.268652542873006 22.84000640177366 27.6052412483505 0 0 0
583 1 -1.2 0.04400267893858866 26.95626900719371 27.230535313066774 0 -1 -1
276 1 -1.2 2.5159829419595083 25.238202343212468 27.530707564613387 0 0 -1
2137 2 2.4 4.138595084075977 25.596293099363226 27.73829272478472 1 0 0
1136 1 -1.2 4.219749083094333 25.363698672376195 29.453868505196187 0 0 0
78 1 -1.2 5.254531125401639 24.99086267942438 26.8069881488951 0 -1 -1
183 2 2.4 6.785636445271746 25.0007780405703 26.443039555791316 0 0 -1
905 1 -1.2 11.417573405090035 27.122699411522078 28.604763033206087 0 -1 0
1357 2 2.4 11.249127301265434 26.943231013974874 26.86867707427304 1 0 0
31 1 -1.2 11.119063879369415 25.334313771329242 26.481803970433774 0 -1 -1
1319 1 -1.2 14.634186497809589 24.77340715132874 28.044376688654577 0 -1 0
1192 2 2.4 15.598080141007907 25.95306030561799 28.018598032729646 0 -1 0
582 1 -1.2 16.28628029744039 26.56385393772613 29.33697837931278 -1 -1 0
1968 1 -1.2 16.875512576644553 25.60546247131294 26.861773381382797 0 0 0
1949 1 -1.2 20.329473747981172 26.36109293553827 27.023545658901572 -1 0 0
1708 2 2.4 20.1045403649425 25.342588914800505 28.32754759614315 0 0 0
177 1 -1.2 19.64553216837177 26.023673226864084 29.63097761205808 0 0 0
249 1 -1.2 1.2957808333199048 29.287357969374394 28.426799794595286 1 -1 -1
1693 2 2.4 0.019843847959777835 28.189237233956504 28.405992413073566 0 -1 0
1785 1 -1.2 3.028089929049792 0.07955571806217622 27.52340545769598 1 -1 0
42 1 -1.2 4.410865782148045 27.163007231950612 27.084027655130942 0 -1 -1
975 2 2.4 7.296988169185251 30.268061892953593 27.495535958702487 0 -1 0
441 1 -1.2 8.051721115706234 29.128854500745376 26.836224366035204 0 -1 0
1509 1 -1.2 12.616664631901177 27.348137412855333 26.084416597702294 0 -1 0
446 2 2.4 13.790464313410316 28.233431571859 26.96027371338101 0 -1 0
287 1 -1.2 14.819060864867128 27.203494781540122 27.50163694642973 0 0 -1
1688 1 -1.2 13.583094268805953 29.213990266878586 28.257834140530214 0 0 0
2099 1 -1.2 16.097029958116373 29.280935373172905 29.165288353702092 -1 0 0
1195 1 -1.2 21.723221423528642 30.121528255657328 26.65335593323742 0 0 0
93 1 -1.2 25.652417457339816 29.738500407815803 26.936366269737274 -1 0 -1
95 1 -1.2 26.49527652071434 28.954869803335793 29.27245631281352 -1 -1 -1
1284 1 -1.2 28.983651955561267 28.944523660962563 28.784420060984434 0 0 0
505 2 2.4 27.842962596016186 29.99704506346448 29.312445569897285 0 -1 0
1500 1 -1.2 0.45388868561688855 -0.04688635457419788 31.55105884038625 1 0 0
557 1 -1.2 4.208763216576551 1.5393513169645057 32.06751216352576 0 0 -1
1742 2 2.4 3.7472219729146152 0.05032859764269658 31.208196036449067 0 0 0
1713 1 -1.2 4.540991813303546 2.7938957504955377 29.513622604896764 1 1 -1
510 1 -1.2 2.643992503252468 0.6398937420067139 29.940694588621092 0 0 -1
440 1 -1.2 7.02002453121301 0.6388050019663603 31.70763387890139 0 0 0
2071 1 -1.2 14.17090023100629 30.29540661308604 30.952170266726633 0 0 0
1266 1 -1.2 17.815546908902455 1.1638657348408792 29.847052974943825 0 1 -1
997 2 2.4 18.199739900458596 1.254181134349453 31.382634268780187 0 0 -1
1543 1 -1.2 19.136444370230645 2.653972669749918 31.53956211087721 0 0 0
442 1 -1.2 22.099373753216636 30.148724499514618 30.874594255829738 -1 -1 -1
46 1 -1.2 24.437089998261623 0.7010329904219037 31.66910549542967 0 0 -1
110 2 2.4 23.63387832296664 -0.02453214292027975 30.4523106494101 0 0 -1
781 2 2.4 29.563793812401762 0.9427067697879973 31.525798928899324 0 0 -1
2159 1 -1.2 29.426309732691333 2.474601922944509 30.837578133490435 0 1 0
822 1 -1.2 28.408579424419337 0.14071774105953871 30.688449901690007 0 1 -1
819 2 2.4 1.5433418578066602 4.740336548162239 31.549793839759644 0 0 0
1054 1 -1.2 0.22937029377261284 4.839980650067971 30.69280908942936 1 1 0
464 1 -1.2 2.532980318762935 3.3456730782301363 31.180687867442565 0 0 0
1802 2 2.4 3.992615339115779 2.9800860916265863 31.321236716490038 0 0 0
1833 1 -1.2 4.681341116401693 4.450970279596136 31.938139923999785 1 1 0
1047 2 2.4 5.931800503044902 5.46213755676768 31.977621057249905 0 0 0
744 1 -1.2 7.073865583405854 4.221930499317682 32.02676201651423 0 0 -1
730 1 -1.2 11.239211846303554 4.283220165480657 30.21049439599704 -1 0 0
1132 2 2.4 12.474914294529231 4.9988734625281666 31.38785860180586 1 1 1
692 1 -1.2 13.838677797554318 4.213822255078343 31.418670559302075 0 0 0
324 1 -1.2 17.766514937154543 4.918296557632306 29.58283396384145 0 1 0
1889 1 -1.2 16.817593451854748 4.321101510584515 31.689459573260052 0 1 0
629 1 -1.2 19.521443756690655 5.386710062088208 31.362674729990506 -1 0 -1
1288 2 2.4 17.821311843399467 5.517191111856529 31.06316043157878 0 1 0
739 1 -1.2 21.695689887172513 3.678527590964283 31.665741803230546 0 1 -1
132 1 -1.2 22.967480167400755 4.126034522046586 29.349443677167855 0 0 -1
1504 2 2.4 22.80415553071737 4.755143210562853 31.169035028547547 0 0 0
1328 1 -1.2 26.679792504544864 5.726751542252288 31.117609971905814 -1 0 0
1531 1 -1.2 28.366250058511255 4.4592711683448005 29.46331304979619 -1 0 0
244 2 2.4 29.812592535210317 3.7130720494924816 29.684273158326672 -1 1 -1
1078 1 -1.2 2.574281489215147 6.047683875128185 31.326684087780006 1 0 -1
1743 2 2.4 2.9994624018745983 6.88240677350538 29.938798176963914 0 1 0
1673 1 -1.2 4.549650952047202 7.679029487093353 30.30935016470652 1 1 0
797 1 -1.2 6.545545572879409 6.034610664769336 30.386563817825852 -1 1 -1
1779 2 2.4 5.972270333556048 7.341953015527366 29.604515354178382 0 0 0
1666 1 -1.2 9.68187955503443 7.567355483190072 29.36052883345823 0 1 0
114 1 -1.2 9.200455889191941 8.470947105412082 31.867894514310255 0 -1 0
847 1 -1.2 12.275607103834583 6.752991298271772 31.3913388154804 1 1 0
1466 2 2.4 12.99474651269929 8.13932715745752 32.013336414506924 0 1 0
1565 1 -1.2 14.268626799932552 8.468993915273092 30.933322430652197 0 1 -1
1992 1 -1.2 17.345908257705528 7.091117173052204 31.26201838882603 1 0 0
2148 1 -1.2 21.320505896061512 8.205006779869509 32.19400532011132 1 1 0
87 2 2.4 27.107925750910894 5.670709780032453 29.468091192688224 -1 1 -1
2024 1 -1.2 27.203665650610667 7.12826615879949 29.06273599229261 -1 1 0
1772 1 -1.2 1.6817700219199834 7.958104180359982 29.543047126011665 1 0 0
1157 1 -1.2 2.3507485349147514 9.798941532305994 31.70323400206967 0 0 -1
1628 1 -1.2 7.275706174120153 8.382400894340892 29.953391444579843 0 -1 0
1202 2 2.4 8.900159536457984 8.867024893964821 30.26201224953806 0 1 0
558 1 -1.2 9.30847900364471 10.332182972250482 30.048108347884966 0 0 0
2043 2 2.4 11.45651364947107 11.170696053379695 32.245289712643064 0 1 0
1795 1 -1.2 11.922368685695732 9.48237093190205 32.19447186186467 0 0 0
362 2 2.4 15.124285124825025 9.745961193378838 30.458896613929763 -1 1 -1
1985 1 -1.2 14.715661396788857 10.68584277399318 31.700462039811367 1 0 0
1379 1 -1.2 16.78395090521133 9.625009260693359 30.83851321120555 -1 -1 0
289 2 2.4 18.11598000695521 8.734573744031392 30.828110845028224 0 0 -1
1750 1 -1.2 19.039588412284214 9.517702635050824 32.03333598792683 -1 0 0
497 1 -1.2 21.194439748535412 9.62700315747429 30.281262363779398 0 0 0
100 2 2.4 20.675096771366015 9.550916218539353 31.971467129201 -1 0 -1
44 1 -1.2 21.463986418253462 10.712198556859702 32.459281853604516 -1 0 -1
1916 1 -1.2 24.091055226646862 8.397543552983976 29.04320245610596 -1 0 0
192 1 -1.2 24.1327712975715 10.944821734690994 30.319379836097443 0 1 -1
430 1 -1.2 23.6502555360839 8.882015432486892 32.02120505852405 0 0 -1
1588 2 2.4 24.292844768375105 10.45141473876605 31.834748178773598 -1 0 0
964 2 2.4 27.312949312998636 8.917541867084822 29.53061860192947 0 0 0
1232 1 -1.2 27.69712357478347 8.804489341460192 31.17268195799561 0 1 0
1824 1 -1.2 28.659439464901343 9.509899675838827 28.716499100498652 -1 0 1
1399 1 -1.2 0.6406839338389813 11.618701994046136 30.37219181000288 1 0 0
1682 2 2.4 2.1163782906471296 10.922111476390466 30.544842756181634 0 1 0
82 1 -1.2 3.1839337109551886 12.072862343957949 31.07220024598667 0 0 -1
1177 2 2.4 9.919581086251783 11.517830117482086 29.31967171301497 0 1 0
936 1 -1.2 11.042620131441387 11.704145251781835 30.63450293065578 1 0 0
333 1 -1.2 12.600329987253408 12.064596950715517 32.90433572276864 0 1 -1
1901 1 -1.2 15.13986380152131 13.018766780116795 32.44490315178032 0 0 0
1298 2 2.4 -0.08074517198421492 12.910412454778296 29.551381847742267 1 0 0
2052 1 -1.2 29.05404196837932 13.62850182079326 30.445439872421098 -1 0 0
809 1 -1.2 3.1976816172398355 15.190746092841675 31.16475440086978 0 0 0
534 1 -1.2 4.733737018869196 16.973503044951705 30.279537280104908 0 0 -1
1367 1 -1.2 7.121426360137973 16.23834879705911 31.571688939223634 1 -1 0
1812 1 -1.2 9.670605110584283 15.72126109127497 29.15367298216117 0 -1 0
1476 1 -1.2 12.156882967134136 16.078026369702293 29.925382026112207 0 0 0
1909 2 2.4 13.918578873006348 16.00806323923029 29.753441702486164 0 0 0
694 1 -1.2 14.263740312951615 15.023339169559605 30.941631238342634 0 0 0
540 1 -1.2 20.81696238057311 14.433673651312816 30.066416467007322 0 0 -1
772 2 2.4 21.079959087560272 14.494207668817428 31.67223825049281 0 1 0
1586 2 2.4 23.58933983679901 16.544656018338063 31.42655416953943 0 0 0
199 1 -1.2 22.314384564089455 15.480735797284716 31.620670048863516 0 0 -1
1643 1 -1.2 24.489742902286704 16.05225568852472 30.057006497820947 0 0 0
1397 1 -1.2 26.734333601905707 15.115825646617262 29.481332098821415 0 0 0
420 1 -1.2 26.956554177978386 14.178144255957646 31.531998541277506 0 1 -1
1454 2 2.4 27.991094769906482 14.905152724481567 30.63772499642021 -1 0 0
406 1 -1.2 28.812878804081354 16.520311884565697 30.35388353944389 0 0 0
1946 2 2.4 1.1075606350453213 19.11999339294801 31.015125204338702 1 0 0
258 1 -1.2 -0.10997128817578172 18.96426160008374 30.20079846400981 1 0 -1
1496 1 -1.2 2.2566355374040894 17.884358752545598 31.058627623114994 1 -1 0
97 2 2.4 3.1996130846633504 16.623448252990087 30.436720702175656 1 0 -1
1595 1 -1.2 7.295147652931245 17.25361817667608 29.280477577438706 0 0 0
1741 2 2.4 6.335961133015396 17.220374101550732 30.531925316513345 0 -1 0
204 1 -1.2 6.626232364206714 18.84111395142987 30.904516927935877 0 0 -1
742 1 -1.2 15.10527259603095 17.242712237891887 30.062698159877137 0 0 -1
832 2 2.4 17.864152384559283 18.69877782926318 31.19371518326511 0 0 0
1652 1 -1.2 17.87116430356223 18.047576300437886 29.69593474801505 1 1 0
1419 2 2.4 22.075714463190934 18.405047042551878 29.48570889516973 0 0 -1
1075 1 -1.2 23.2032742800211 17.97203554338637 30.844369741727593 0 -1 -1
1021 2 2.4 29.140818506810124 17.993937762337772 29.6647861249929 -1 0 0
48 1 -1.2 27.767427269365182 18.73069613777398 29.696355386172694 0 -1 -1
861 1 -1.2 1.7050614684849486 20.60051531172034 30.795517039952347 1 0 -1
1661 1 -1.2 4.237542708757748 19.74933582431023 30.013162313123875 1 0 -1
1609 2 2.4 3.1274963260644526 21.056704020839547 29.71507773614157 1 0 0
974 2 2.4 5.559459590289619 20.11960418665311 30.838547124953575 0 0 0
1510 1 -1.2 6.654891947126604 21.06839075058882 30.136264638370303 1 0 0
2056 2 2.4 8.168042070181183 20.574166645131413 29.635974275368685 0 0 0
1906 1 -1.2 9.230700530700013 20.33782941969411 30.797519505721176 0 0 0
793 2 2.4 10.822917866470977 21.001414555937966 30.627582495416465 0 0 -1
211 1 -1.2 11.615246248248651 20.503109294711834 31.932745186211857 1 -1 -1
456 1 -1.2 14.968223252988581 19.980219350791184 29.78569773979248 0 -1 -1
1237 2 2.4 15.369183076469639 20.262575365460492 31.33133841543204 0 -1 -1
345 1 -1.2 16.369338509856057 19.155957207850562 31.805435645835182 0 0 -1
1797 1 -1.2 19.122394299019483 19.658544384336537 31.754404308251296 0 -1 0
1359 2 2.4 21.200415565563627 21.573046869974412 29.641311752040856 0 -1 0
570 1 -1.2 20.73468426367703 21.493385270224525 31.14003856421746 1 -1 -1
269 1 -1.2 21.84820865640118 20.032730713473264 29.457591682504443 0 0 -1
411 2 2.4 19.57430857040241 21.226918173516324 32.243957716360555 0 0 -1
1817 1 -1.2 24.568416203266 21.841990185230834 32.07953539816531 -1 0 0
716 1 -1.2 26.906244960960656 21.371276050596634 29.08520954618076 0 1 -1
1174 1 -1.2 25.750864220193307 19.778132072996325 30.787515449449163 -1 0 0
685 2 2.4 26.317297285325253 19.847322804466387 29.33720406127656 0 0 -1
311 1 -1.2 3.6497782655077513 22.447647683369947 30.339786317296983 0 0 -1
351 2 2.4 4.078751423267334 24.07031927935669 30.55450821631377 1 1 -1
1402 1 -1.2 5.37122632952916 23.87216291715678 31.57904892481128 1 0 0
994 1 -1.2 10.788393352694165 22.535502076237133 30.531139016810656 0 0 0
2107 1 -1.2 13.251002521183675 22.962315937640376 29.980593707595755 0 0 0
422 2 2.4 11.905292776519547 23.65392899675494 30.68690594146194 1 0 -1
358 1 -1.2 12.225265190520725 23.424751988876153 32.18967601481137 1 0 -1
1674 1 -1.2 15.526606097666804 21.922947538058885 31.47136203892554 -1 0 0
813 1 -1.2 17.514755457859195 22.39638805295428 29.57356899994711 0 0 0
1549 2 2.4 17.05387047541031 22.577120602257324 30.988395082448832 0 -1 0
1170 1 -1.2 16.64087479729993 24.18003392648754 31.106378700371458 1 0 -1
900 1 -1.2 25.308701906816392 24.302437012685385 31.466812000636796 0 -1 -1
719 1 -1.2 26.78979909626963 24.138159807851363 29.50969564385751 0 -1 -1
397 2 2.4 29.469591170366765 23.794304072275487 31.506127051026816 0 0 -1
1568 1 -1.2 28.87746057167205 22.713060610293084 30.45587823258273 -1 0 0
356 1 -1.2 2.7446635365112586 24.73792082488713 31.435601346156908 1 0 0
427 1 -1.2 0.3671260619178769 27.25741665082225 29.651509945111552 1 0 -1
1204 2 2.4 8.12856950887087 27.19011272554514 31.211694208775693 1 0 0
1631 1 -1.2 8.96645340355339 26.716964714353985 29.955874389414433 0 0 0
1744 2 2.4 10.532340097893231 26.58618002716524 29.95171516469867 0 -1 0
317 1 -1.2 11.088737123607887 24.993301604847236 30.37762604280923 1 0 0
689 1 -1.2 11.3520210548046 27.074891431842133 31.190306986020804 1 0 -1
2029 2 2.4 12.267492117176506 27.486548961915357 32.42640234740525 0 0 0
2049 1 -1.2 18.2741204430192 26.352249470662528 31.885666458340175 -1 0 0
339 2 2.4 19.067863194019118 27.062972023056112 30.71608541359953 0 0 -1
923 1 -1.2 24.211106833380143 24.762700302702605 29.03771273973034 0 0 -1
1574 2 2.4 25.45668166797807 25.02348850104055 30.189527196043496 0 0 0
1579 1 -1.2 25.73360822032417 26.61737992719837 30.187870568833585 0 0 0
1862 2 2.4 29.697690822091282 26.990547669369224 31.01887645561999 0 -1 0
1950 1 -1.2 29.365014510710367 25.383055157578085 30.914441872300976 -1 0 0
1267 1 -1.2 28.171636679065383 27.21038763900736 31.67610703197801 0 0 0
227 1 -1.2 0.04796139502766828 27.894472050803763 32.20165227847406 1 -1 -1
1725 1 -1.2 2.768320347507594 29.545947247557038 31.945064575404334 2 0 -1
128 1 -1.2 5.133867727535892 30.13692512692472 30.370162282178804 1 -1 -1
1591 1 -1.2 7.343374588411932 30.36282733552488 29.187310238189404 0 0 0
1767 2 2.4 6.7716803888373525 29.996324946334912 30.74148447838847 -1 -1 0
1871 1 -1.2 7.16025778906214 28.485677002945494 30.856661114935203 1 -1 1
526 1 -1.2 13.10220974449791 28.893740278856367 32.703804183317274 0 -1 -1
404 1 -1.2 15.373885225151055 28.050209083923306 31.227996587052953 0 0 -1
85 2 2.4 14.790597173608315 29.431638380754276 32.144311478910204 0 0 -1
957 1 -1.2 17.886947150190505 28.34071138384869 30.624284775206455 -1 -1 -1
2053 2 2.4 16.451960203655524 28.052855834678343 30.048498282044378 0 0 0
1704 1 -1.2 20.14697259273103 30.313126156322323 28.903585555241737 0 0 0
92 1 -1.2 19.428282466502004 -0.0811066371255407 31.647559427973466 -1 0 -1
412 2 2.4 20.512756141653576 29.47423065922651 30.90279683723936 0 0 -1
1991 1 -1.2 20.405747420118413 27.85338137852624 31.24816906582957 0 0 0
36 1 -1.2 24.23808004115172 28.916385795861476 30.265993891782863 -1 -1 -1
705 1 -1.2 25.867509398567307 28.23292984571663 32.05032954669824 0 0 0
26 2 2.4 25.6637614724218 28.200759614381443 30.50011708258766 0 0 -1
1605 1 -1.2 5.949626166046987 0.9902857143768551 34.20655391239786 0 1 0
796 2 2.4 7.275033977433646 0.9908040206260487 33.28776169636598 0 1 -1
1770 1 -1.2 8.234994628867456 2.1691360832692643 33.28714958341893 0 -1 0
1667 1 -1.2 16.395617258655886 1.523458886811399 0.04734793848959235 0 1 0
307 1 -1.2 17.355664439949702 1.1465726423074023 32.88229906782156 0 1 -1
1898 2 2.4 16.548537728032784 0.38447187037040326 34.12656335609244 0 0 0
1344 1 -1.2 24.305600263153515 2.5133795349400043 33.97066888970353 -1 0 0
1539 2 2.4 25.121165781771406 1.8218502244860701 32.760453375959955 -1 0 0
468 1 -1.2 26.337823156059983 0.8802132423402452 33.67227801591843 0 0 -1
2041 2 2.4 27.839928036611123 0.36636024514660537 34.11723568231863 0 1 0
683 1 -1.2 29.270391810566494 0.6496230676443736 33.11271820842622 0 0 -1
1200 1 -1.2 0.9579688057210412 4.995761139396138 32.99764347491089 0 0 -1
1098 1 -1.2 7.6344436069041235 4.850323110504679 34.37694231179952 0 1 0
1034 2 2.4 8.019078526344142 3.8149770499341753 33.19058800341462 1 1 0
2124 1 -1.2 9.358535081748702 4.138915042103497 32.4170280156861 0 1 0
996 1 -1.2 10.632742721562673 4.479278005708949 35.03266603832331 0 0 -1
1552 2 2.4 10.499509480647879 5.088866468954338 33.45630676501882 0 1 0
513 1 -1.2 11.922899110442401 4.464999485317926 32.89873869722241 0 1 -1
831 2 2.4 15.263452016905784 4.451792843725891 32.29350383069393 0 1 -1
661 2 2.4 16.16044923811825 3.044601575221149 34.642172911416544 0 1 -1
977 1 -1.2 15.215780748434758 3.0432806341001224 33.28881461764247 0 0 0
10 1 -1.2 17.630828979876373 3.758241938225812 34.58741051185552 0 0 -1
987 2 2.4 20.05649831312409 3.9531829703606354 32.01324543361374 0 0 0
1235 1 -1.2 20.068955531449514 3.632052854229566 33.74933326091868 -1 1 0
1125 1 -1.2 24.137110050881656 4.72479403650185 31.879355133161287 0 1 -1
1123 1 -1.2 25.974994971218685 2.841874229331428 31.91166669449074 0 0 -1
603 2 2.4 25.855548924299235 4.607819411005138 31.92434144552857 0 1 -1
625 2 2.4 0.42920077400334167 6.235362208214711 33.847865124921704 1 0 0
1615 1 -1.2 1.0515662723901504 7.64575424765187 32.82441784427767 1 0 1
1512 1 -1.2 2.979849677745384 8.784088248636287 34.14171130680999 1 0 -1
1469 1 -1.2 6.014740305789415 6.581485482294354 33.143973304023966 1 1 0
1225 2 2.4 7.017645292672196 6.2749255742002825 34.370435331586584 -1 1 0
394 1 -1.2 8.017827059648347 7.5470926022886085 34.385336082156634 1 1 -1
191 1 -1.2 10.317340366469224 6.5306501170176885 33.48926965558588 0 0 -1
2139 2 2.4 9.30419195081212 8.157499604016468 33.44066671602136 0 1 0
80 1 -1.2 13.567721553707337 7.769319527885298 33.56704853681699 0 0 0
1330 1 -1.2 15.127193463498923 5.857152175398576 33.19629216938254 0 0 -1
553 2 2.4 15.049032672806247 7.286377604039908 34.06296536820576 1 1 -1
487 1 -1.2 16.428907740038383 8.199035188794165 33.90251422354672 0 0 -1
2040 1 -1.2 22.29731956024209 6.379172342944662 31.120605016338846 -1 1 0
40 2 2.4 22.75904750606347 7.50000281226501 32.289049757232675 0 -1 -1
1260 1 -1.2 23.162306706366415 6.806092620302635 33.744146910416454 0 0 -1
58 1 -1.2 26.517058058253056 4.807199373853075 33.53318170687327 0 0 0
1057 2 2.4 27.84377931060312 5.51675834283899 34.32307818297797 -1 1 0
2025 1 -1.2 28.98141931140141 6.164914994337264 33.57903229803316 -1 0 0
495 2 2.4 1.7310966241906596 9.013346220505445 33.184922041567724 1 0 -1
1062 1 -1.2 0.6779068693407703 9.748391617460383 34.27375535583075 1 0 0
225 1 -1.2 10.532555808929871 9.021920003278712 34.12722262768106 0 0 -1
1377 1 -1.2 14.896815484359724 10.910545291361741 34.33681090621008 -1 0 0
463 1 -1.2 25.868820861337745 10.349944035325896 32.627040806484295 -1 0 0
1297 2 2.4 27.26789389885537 9.857466662076813 32.37528157052168 -1 -1 0
681 1 -1.2 27.662397078215346 9.38015672802174 33.83475248546269 0 0 0
1557 1 -1.2 0.9958789723074493 14.453658899520683 32.27320677986714 1 0 0
1551 2 2.4 1.3290072310995245 11.128357998806173 34.47061049820174 0 0 0
624 1 -1.2 0.2071552316817267 12.380944283148471 34.111385162499694 1 0 -1
1011 2 2.4 3.5879238176965216 12.220095782281453 32.719259896349335 0 0 0
1018 1 -1.2 2.702550465848667 11.238546359430035 33.7029749222335 1 0 0
1091 1 -1.2 5.05755684186628 11.731796734626519 32.95492904125744 -1 1 0
839 1 -1.2 5.678713567860387 13.062427718755234 0.06592774197270239 0 1 1
1936 2 2.4 6.254459180585215 12.690793815994931 33.868829709180986 1 0 0
336 1 -1.2 7.597554731564949 11.815040311734078 33.842635106819 1 0 0
622 1 -1.2 9.500870689990375 13.484809310919161 34.890686116133594 0 0 -1
1706 2 2.4 9.091396377035796 12.049839805107391 34.36786351080465 1 0 0
1843 1 -1.2 9.84200389664443 11.40604574136018 32.875097813131 0 1 0
206 2 2.4 14.395045439828031 11.62422234870766 32.90426564811804 1 0 -1
1578 1 -1.2 18.350064381939216 13.903175757078696 34.26640836354186 1 0 0
1087 1 -1.2 22.123167613243666 11.517537655019046 34.763836825400354 -1 0 -1
881 1 -1.2 21.5937685608043 13.291125760642895 32.66886570642056 0 0 -1
1081 2 2.4 22.267146822646083 11.940337114782686 33.182113094611395 -1 -1 0
383 1 -1.2 23.857654394646566 11.562285283198447 33.061947610193364 -1 1 -2
1702 1 -1.2 27.27740706351655 11.785458380507388 0.42817331209870957 -1 1 1
18 1 -1.2 27.824437668644848 11.530389917901408 32.10447628065603 0 0 0
1154 2 2.4 27.7477947294624 13.034889885803397 32.53198199774433 -1 0 -1
2143 1 -1.2 28.924127023571693 14.103107156558458 32.95283780094081 0 1 0
1117 2 2.4 2.688876419780282 15.056429641792574 32.710271736688306 0 0 0
37 2 2.4 1.4165794075056588 16.235708922667904 34.690035747394404 0 -1 -1
215 1 -1.2 2.7952369195258147 16.32654466128363 33.668261542793 0 0 -1
1259 1 -1.2 3.4779183353842864 13.70390732232938 33.19872318766283 1 0 0
12 1 -1.2 6.831239340498156 14.292502159367213 33.508370625446176 0 0 -1
2031 2 2.4 7.39052091528317 15.972834841324904 33.23969279728552 0 0 0
1573 2 2.4 9.846706523770916 15.088526272033988 34.72849029803384 1 0 0
799 1 -1.2 9.16995114958567 15.837651633600071 33.34470646677089 -1 1 -1
1815 2 2.4 12.794129639937601 14.842459178108308 34.961834625236605 0 0 0
787 1 -1.2 11.384132213562669 15.295060712036147 34.487496693563614 1 0 -1
1050 1 -1.2 13.616856171886653 14.628199356549352 33.522794015580374 0 0 -1
393 1 -1.2 16.15487395569608 15.31302309805734 33.09410677952422 0 1 -1
842 2 2.4 14.951676757871285 14.602078161993377 32.50646321048732 0 0 -1
1023 2 2.4 19.052175650568945 15.423728698170486 34.15536969053302 0 0 -1
1380 1 -1.2 19.870714774427512 14.960572857193087 32.56509999081077 -1 0 0
749 1 -1.2 24.647949232025272 16.65328041297266 32.769835694083305 0 0 -1
1069 2 2.4 24.14477759375968 16.530669670599767 34.47927883465383 0 0 0
666 1 -1.2 26.318870541063564 13.393240682989667 33.6217963669085 0 0 -1
1264 2 2.4 0.11689531275523264 13.778644198248374 33.31881150320659 0 1 0
1484 1 -1.2 0.6462417425688188 14.8668742862626 34.535174388183414 1 0 0
2007 2 2.4 0.14739511487786877 19.146995696395607 34.260093730699296 1 0 0
1902 1 -1.2 0.6515026112792681 19.07161886761741 32.75395828662195 0 0 -1
137 1 -1.2 6.421292855188912 16.809287920851386 34.35648888420626 1 0 0
1436 1 -1.2 15.555410378806329 17.626317869807135 34.216058941664215 0 0 0
1945 2 2.4 16.923304587923937 16.912125597056356 33.66103168226101 0 0 0
2081 1 -1.2 18.16237138850901 16.69822130801201 34.65125819284967 0 0 0
1116 1 -1.2 17.748182245420054 17.152896517749422 32.156853232885545 1 0 0
779 1 -1.2 23.12709966930754 17.963906575739884 34.895095984835535 0 0 -1
711 2 2.4 23.516076999712126 19.43867889843722 34.60587395990477 0 0 -1
1197 1 -1.2 25.591245443936515 16.6368555125642 0.13446781491232257 0 0 0
755 1 -1.2 5.007497823307111 20.75218687995616 32.36752892022638 0 0 -1
239 1 -1.2 2.9971043913362956 20.366553053634924 34.284747274374055 0 0 -1
230 2 2.4 3.9473345860303684 21.22326597577749 33.47088174395034 0 0 -1
1016 1 -1.2 5.014487963921313 22.073561080380042 34.48223097645274 0 -1 0
514 1 -1.2 6.0558327585155505 19.604545333960456 0.014983812006514108 1 0 1
547 1 -1.2 7.5160808402373025 21.3062741127849 34.469628737033645 0 -1 0
634 1 -1.2 11.834419459377088 20.020648238073104 34.37401037969471 1 0 -1
1382 2 2.4 12.677659184384995 20.333348422379395 33.07397407360323 0 0 0
1424 1 -1.2 14.09343627121354 20.210554372626717 32.35112957453247 0 -1 0
1122 1 -1.2 18.1689165255861 22.200402047245348 32.05085750276319 0 0 0
1394 2 2.4 20.95700932686557 21.313545355772803 34.95168054005787 0 0 0
1845 1 -1.2 19.78140875181143 21.344225130346942 33.759606617234255 0 0 0
346 1 -1.2 21.794963017084505 19.920973456110413 34.59492120395212 0 1 -1
221 1 -1.2 24.258891185023312 19.658060203069383 33.2011624056375 -1 0 -1
1252 2 2.4 25.358421412894927 20.446473351870015 32.31435206335562 0 0 -1
1439 1 -1.2 26.963670552028088 20.23395571243285 33.08926657098686 -1 -1 0
1085 1 -1.2 28.917936391418177 19.005354373341742 34.58032949682698 -1 0 0
1993 2 2.4 27.716374122442723 20.199617002811358 34.64812989731924 0 0 0
250 1 -1.2 0.5972171430021688 23.323630191842643 31.72423610845742 1 0 -1
854 2 2.4 1.9815245043684904 23.581440528865517 32.429538331096886 1 0 0
212 1 -1.2 1.6449509576991548 24.276147014797015 33.82085613983055 2 0 -1
766 1 -1.2 3.0562989382243178 22.458340301136747 32.89929259046632 0 0 0
1020 1 -1.2 7.329376477547384 23.725180878406775 33.096219535318305 1 -1 0
2149 2 2.4 7.812192095590836 22.999353154004286 34.33160468635765 0 0 0
1621 2 2.4 6.292189225492331 24.84001714365319 32.562698748805964 0 0 0
1387 1 -1.2 9.32547336397656 22.90003594035627 35.01309846093399 0 -1 0
1890 1 -1.2 13.26647908499296 21.751162042110856 33.86702346261917 0 0 0
125 1 -1.2 11.817821294388626 23.524776825986454 34.95055477186355 1 0 -1
2078 2 2.4 12.974709565692264 23.33727768452056 33.75206614731783 1 0 0
1654 1 -1.2 14.291500990268009 24.427366787126555 34.17934850545048 0 0 -1
504 1 -1.2 24.094744973271947 23.513327881638286 33.947480953894726 0 -1 -1
1585 2 2.4 24.962739545156193 23.272017384307063 32.66314675453948 -1 0 0
366 1 -1.2 26.58387512990637 23.165135494350118 33.33666099651551 -1 0 -1
220 2 2.4 27.91052402285738 23.29386345725636 34.23134373001301 -1 0 -1
117 1 -1.2 28.20201890876189 21.751465874978226 34.84506635698982 0 -1 -1
1447 1 -1.2 28.93694551844365 23.91338952737555 33.117493817238575 0 0 0
265 2 2.4 4.317206906755884 26.251277904254625 34.82705475949916 1 -1 -1
391 1 -1.2 3.0872489986755873 27.145819571695856 34.40225313351569 0 0 -1
1194 1 -1.2 5.094334159029759 25.57443676638812 33.56061186198067 1 0 -1
958 1 -1.2 7.342621694864881 25.752223460101693 31.44512319365135 0 -1 0
1632 1 -1.2 10.176553262728 25.624180279591513 -0.02756561782843695 0 0 1
1801 2 2.4 10.750638526990622 27.127691691686213 35.023733985897195 0 -1 0
35 1 -1.2 11.242945506291457 27.339925010935495 33.569574275488726 0 -1 -1
198 1 -1.2 13.989869226317284 26.895360390360093 34.93585220403719 0 0 -1
826 1 -1.2 13.417027272658668 26.460083765253234 32.19051686955583 1 1 -1
782 2 2.4 14.211345853451888 26.066972780707285 33.55940222737307 0 0 -1
919 1 -1.2 15.830544620751965 25.819188425452953 33.03079732533341 0 0 -1
326 2 2.4 19.117912427577973 25.66132723800735 34.849384571238865 0 0 -1
1275 2 2.4 17.27853849670699 25.161286439187943 32.52122660333967 0 0 0
1975 1 -1.2 18.000867873481653 24.776425466038113 33.85148922850823 0 0 0
149 1 -1.2 18.697694718111446 27.253838721154114 34.533606407870735 0 -1 -1
43 1 -1.2 27.46153481229988 24.315991025273703 0.2491940904755676 0 0 0
1644 1 -1.2 27.40478654676759 26.645414738831956 34.07357972130812 0 0 0
1251 2 2.4 1.2900181304628737 29.15147407216794 32.670928105267855 0 0 0
1231 1 -1.2 1.3902083341604692 29.0947730116301 34.270391487312494 0 0 -1
1072 2 2.4 2.8550816428536696 28.71443498168005 -0.11063403861856358 1 -1 1
1988 1 -1.2 3.7650138619499214 29.961552757237996 34.59850023778505 0 0 0
104 1 -1.2 9.643311507377746 28.17506503220722 -0.14308213489410804 1 -1 0
1086 1 -1.2 8.646516922891903 27.786156502261615 32.4808024029746 0 0 -1
1914 1 -1.2 8.661609875754271 -0.07952068511863786 34.04657219842525 0 1 0
2077 2 2.4 8.621677699215466 28.67009544690848 33.958386486808095 1 0 0
1937 1 -1.2 15.165247863740547 30.142753202786604 33.53292958553911 0 -1 0
562 1 -1.2 17.605069553469683 29.60567398759367 34.34617774607524 0 -1 0
2085 1 -1.2 22.12873210456878 28.7573463568629 34.315346115007415 0 0 0
1870 1 -1.2 24.22267007497376 27.48349429994858 33.3213832034461 0 -1 0
2127 2 2.4 23.601058585012222 28.72719575584874 33.91143220470773 0 0 0
1488 1 -1.2 24.545896531380127 29.581074303355564 34.91253780266404 0 -1 0
783 2 2.4 27.324065834457855 27.890931702507775 32.843600203054635 0 0 -1
426 1 -1.2 27.756059287628158 29.188713438599795 33.716596754242865 0 0 -1

Velocities

684 -19.548455979139337 -10.642706471865909 -12.52292185928244
1864 -6.980337975516773 -9.52433745859836 1.0509031870776777
2009 -5.532212952385625 25.479973447960024 1.0862155178756698
1921 -4.7248186885076775 -17.391598201227506 -9.3945138830096
425 -1.4548688567326498 -5.924802883585842 9.434472247280487
262 -13.928397217650033 -1.2725228533616588 -8.545812670975984
658 0.6924700162018703 3.994921296886326 -7.698957984855037
275 -10.429330353744032 20.38267243194436 -17.107851233155195
1140 20.912476947327836 -12.34913022089462 -11.58319892830802
1657 -15.604580176013421 16.996389518909865 1.437192596861535
1867 -32.72017011235551 -5.221599499207881 -0.43837117963951305
678 -5.900632290643706 0.6378455516719276 -0.4386091205462012
485 -5.960045656097574 9.545710758660013 -15.165452517500324
240 -13.679776277341402 25.0457608833852 -12.796667661820225
963 -5.916814761809829 11.346546707279836 -10.75285209868047
2074 12.073225023218669 -3.5482213947472596 10.798947623102926
1828 -14.340914739492085 -12.951091231804694 -4.269417655034437
1677 0.842841492303846 -2.3037084130163965 7.792933553336573
380 6.3356222170520695 14.32960265234822 -15.303554270595273
1972 -8.181810521546304 1.5228142445995 6.893233756338964
1317 -5.77182219729219 4.96646255409747 5.966600858760052
1561 -10.740344210256302 -1.668467446640154 -6.025989036298192
1134 2.1659986592606217 -10.340902538772701 -2.763387499306532
66 16.987346941330006 7.278822563469188 5.734722506397698
1384 -8.576790145201048 1.1364435840963565 0.8478470085084804
1879 0.5715654339592864 3.784962309646076 12.64758805833556
1671 -8.352345962223179 -5.027166908590678 1.0339554931059856
1593 5.068147455739697 -1.249529064034315 3.596452432285916
134 3.0601440314453594 12.240159795294755 6.748266144314398
129 2.91416199421248 -9.317340988918424 -10.479640665654385
1281 0.9239248654117733 13.719445136744808 2.1681870525910814
260 -13.33418509903417 18.31312461839049 -5.141445595629655
2028 -11.856660267923028 -25.600635066169374 18.70189161784818
161 11.538055806652801 -13.158365992463228 1.0301990115364401
145 3.4297968020657104 -9.986870560787375 -3.433969972950995
180 5.328813948127533 19.346393846415538 -3.7381070746926026
1984 -3.706817674932341 1.2172427593811213 -2.8067993748177327
2093 -9.428199613152001 19.355756210017546 5.980282019896582
1475 1.257949464815989 2.317606866981416 -1.0637665701071222
140 11.895673250116436 -6.5127988862280155 -18.438586723771923
280 -13.084023959314784 1.9892933479216737 12.052123930563218
1438 -3.2066998315261475 8.288883522016636 -4.530997995962834
432 14.865343502138176 -4.327224985792181 11.167482830713793
615 -2.2677256109641584 1.6273955787315892 -2.4233653480780384
702 3.438100417622503 -1.5595583500283925 1.7108185419616466
444 -16.163081330467694 -6.667209414595928 10.609411159529479
470 1.9636980259916172 -6.9628328547527065 3.5341642878351767
618 -10.57206259193691 6.313829839138666 -6.40306499764353
1558 5.9351932501816425 -0.8569460622897962 2.5881744693044553
98 -1.1093575529306308 7.241625211356979 -15.188361004250062
120 2.742705645407129 1.6528661412926864 -16.546192229010693
1660 6.263222992346709 15.41270778493355 4.400293453869795
516 -9.85877395188451 5.352894517652976 -16.02715369248823
879 -8.538833958000488 6.433337880891991 11.225884619961832
1015 -3.4005178929634883 -8.98079345211413 5.535905755217454
284 2.21155605097937 2.893844380645059 9.848170454458085
1010 -0.10089366484014237 5.727100604405515 -8.883399077642231
515 1.3186813531790378 2.4449267393912586 -5.699913562092723
1129 -7.086544807513241 2.1967680356494195 7.251055950841407
1577 -0.6614126950581478 -7.119816439723242 -4.15538602773738
1220 16.932079313483413 7.697690447417031 9.186547166861736
598 -9.845719718955126 4.191620755072236 0.6466981651689965
1456 16.1364583565691 1.1515659113630088 4.054527536141886
286 1.3455046428367505 2.0045094689549567 -9.99914703875528
243 8.136718244853446 7.936585989531739 4.706594419259023
1169 -12.902639062728472 -14.861682400662966 4.810710479804511
1234 -2.1957066109779517 12.343842439406583 10.98642824508583
2101 -5.045087312381961 -2.776170655808329 -0.7412957787385751
1928 4.639587483292825 16.639796741737506 -4.109123901959281
1896 5.899581366918859 -16.99581178557243 12.572865655976779
574 -5.802157200988047 -2.363943966997758 -17.949545272640705
1405 -1.934233685249772 -0.5522279294787952 3.7983673845619776
1457 -9.716297937941174 -9.767337257618712 -17.835581534675306
701 -25.750571718827807 4.790905513103034 7.4032981039703465
1186 10.444138915324352 -5.498732644216629 19.738475191755853
991 2.096531055680245 1.4429460245914927 1.6918780483927884
152 8.304801221985223 10.879309336769893 8.590739991359635
877 7.79857193266551 12.224667127785814 -11.010973829648421
1055 -2.9206237604391094 -3.4666129013788556 12.982120450382228
2038 -10.59509393995987 8.553884089792712 -1.9680958872740162
1696 -2.3669638415217227 5.090695837453917 -2.9536844334072123
1590 4.287441144092448 9.510921832833093 1.1063804065691842
1760 3.4198145628368968 -19.501984903022326 -3.502152447632424
1965 -1.281750016320524 -10.43854979024063 -0.9478719978207838
223 17.953540349291945 15.44908963692785 -2.6531716927640425
542 8.099912631967504 8.488632062109774 -5.144669200447184
982 -3.754751021665886 -5.395022685960748 -4.428451229730353
587 22.78939274437316 2.63610001360361 -14.305409244578517
1219 -4.1190493495140466 5.826543982383175 8.69300854024122
1160 7.207182607420346 -1.5821487104477556 15.556597062688958
1094 -0.18325053284434742 -2.1843927574720268 20.525607652170066
1295 10.127069715631809 15.018714802054472 -13.319925320401369
1444 4.080020391546855 -20.04322859493286 14.19229853193521
1006 -15.242209631276141 -2.443166907318088 -14.184283892607684
1754 -12.166571585996962 -4.149956317814213 16.904333920912514
2100 14.34010765879926 13.134635391486254 10.97387236074614
1118 15.48321908421403 1.4773970728792847 -6.8091670134594136
396 7.8511126826867015 9.612937322587316 4.470604313835998
530 10.969264235068673 -9.645301955857917 -6.336937081193913
874 -5.172566976520134 0.7632626842973818 -5.395013059119122
1683 -1.747665678678649 1.9986157606432375 21.1063324127096
200 -4.1628573436624725 -0.10972851624165508 -4.555293180179972
1024 -18.38601087079747 4.167832489213238 -0.1747322297661845
1449 -9.639275772222343 3.64683877821396 4.275875759711244
106 13.28456599792503 -3.9244485250767998 -12.677114078193622
1885 -5.053065735887937 -8.961455942167206 6.286581227562826
353 -8.12717764122612 -7.206993227793892 0.9739705245109265
1391 -7.657748488055071 -18.806785625670805 9.808999101404872
1070 -4.627003085169752 -7.979998886751784 4.437818636676788
703 12.089750676653686 -10.758723231131414 2.22200934358652
673 -2.993056418347375 4.8370940796801465 3.2017495931365323
2090 0.44341753906591413 -7.6028371016869 -4.045797709430197
1698 -6.6153424075818785 -7.00999908619728 -5.214523924542303
1607 -0.5579234046195616 12.42020208249815 7.0891735325604675
1274 7.964967568418489 0.007920339191114116 3.756762503042516
1846 -17.608944546449248 -13.68709823211427 3.8121233925462783
1560 -1.8817156813408924 -18.91783610235372 1.7435620289347462
2001 -2.0789054816465597 -1.78015735082982 10.173901972206869
1189 0.02793099962235224 -16.721816949266017 1.0341150703741082
1583 -20.92806633473006 8.040894004483674 -5.509774765051242
1892 14.276067560459552 25.353112128095557 16.819700483328404
338 10.61531777342698 0.6219318632033812 -11.269576525999941
2136 2.0758805169136556 -12.53359919919195 -5.499818852688339
1250 -5.736950343927614 -3.885487132263371 -4.7767487941490705
2112 -7.009506791673014 4.433017489471421 -7.58699271735696
2030 -5.0204407902672035 3.010482748313562 -15.364084826914782
682 16.429814402697193 -3.118427131350584 4.240834419133836
1151 6.338558982541233 -3.1217247358895412 1.9677898242226328
1653 -2.184596650647041 10.876828725263268 9.569701197046355
372 7.9826535079867105 -2.4123295246025007 -6.739334704824446
745 -4.686465219240063 7.792008019944777 -12.876416580028247
1883 13.70616982328676 -2.0659399252932973 4.846093686783462
1482 15.20019163281348 11.843864574504924 6.602920306381918
83 2.6854833964588796 18.106651610174286 14.034255428894598
38 4.890517594535022 -0.2952232389451982 -1.5597433872046462
1228 -10.270105387717166 -4.628986972227941 -6.390448986986734
245 -1.9959873053849355 16.881375080276623 6.813890436966584
16 -0.591117079715739 -2.628539308188952 6.755688052058506
1114 0.6015626751740183 8.558436329379866 -19.54876854767457
1710 -6.63814029086434 9.612897376888059 -11.058925252260046
1361 -3.2216077668244334 1.3106717356660715 6.615380083607782
1592 -11.00786236956618 -9.522216284733585 -8.202886750264511
1851 5.398294703170883 -11.230982454877806 5.43268007580752
708 -10.164561654693705 9.948701088254056 -3.845394569386444
2014 -16.940135085646077 2.8481427777572477 -7.958896513064471
63 14.799021460298325 -2.4314863475842645 -1.8174653454341811
2142 10.188177629826855 -5.873845965594589 7.7321562065728875
1703 -13.51098752840284 4.297407368325835 -3.5414271580095646
1145 7.877388635536604 4.797766010266637 -0.18439547282369206
365 15.33003560159926 -7.91216820979622 4.603894806108891
295 -10.002331982914301 -10.069771659829795 -2.4350180841739193
652 11.959007376137587 -7.5426744960317125 2.1276805089080764
1884 15.55358990636471 -16.65881446903411 12.553793476084694
746 -3.814809394086773 -14.348369407528455 -4.07438234973467
2018 -6.318394550698452 -4.919389464271005 5.0593811441309935
633 1.4899230522967999 6.440264274317257 -17.406077080246625
1048 -0.3062481764166929 3.121243481705955 2.42356033734022
1855 -19.722461198108665 -6.106943642343943 -3.247912300039
8 -9.240778139183126 -15.848204270075936 2.305024882937615
1354 -0.8582502385616915 7.8279880899971435 1.5630800795018562
568 8.556015300064665 -2.604851971073204 2.6033671329715657
50 1.4372143452682828 -4.559278858629253 13.780414275017383
1187 9.53584007092682 1.8142957169145557 9.856973596661568
2125 8.493794993835909 8.790984350577185 -5.260745402843715
956 3.356518921638166 0.9254621620501722 -0.03768959619274168
722 4.070590923194081 -7.521147495881594 13.149999839042573
741 -11.804064638153017 2.3136370200256433 0.5350413279852336
410 -3.2644641513883355 0.9755766646792865 5.029666966494464
1668 2.4809167312779286 2.3175038774743117 -9.255568727896453
1782 -7.7410285159506245 1.2528132865071915 -6.926506836996438
2092 0.8016315355073959 3.272938232067405 -4.163571849045192
437 6.116118328445613 13.360319347804971 1.1935711001432416
1912 -7.123717830970583 -5.5987847889731555 7.840006251964829
898 6.892803382851752 -1.0719837264067495 2.2449789146855257
1464 9.072321185697541 -11.940016846875775 -11.25780195018599
1386 0.04901329028576664 15.506722008303855 5.5947696384094465
1940 -5.295530299147509 5.428395058834109 -7.589288003106446
1002 7.435048056091027 2.015898514526075 1.0446688891316973
229 -4.525607885232013 2.195584386403941 -2.5029884470113672
972 0.46606876190583074 3.325358681997846 -6.164119589943226
2012 13.603709863895727 4.073755891377404 5.390490275883904
1262 -2.068445316745213 7.494352529096054 4.931518120750137
528 9.221832462598877 -13.47151371657397 -4.426356051064234
471 -9.979669959224745 7.035057825717596 0.26211954726331727
1043 -8.322129656297227 3.825496951599693 -12.562721150621647
803 15.048275279705958 2.716338367699436 -2.1653209028974643
1647 9.476806107630583 1.1445759644301974 18.275273338714108
1304 -17.760970235554506 -6.8981283303607785 -19.86855143975699
1453 12.71339004574752 0.2626231190741057 11.272771729494552
60 -3.4289298174187963 -8.56836518906787 7.478021238212851
768 13.596725881850395 7.540165241923545 -12.757709638872678
1537 8.722937671046141 8.741834860273292 -1.1663534838596514
1534 5.751336814415774 14.51324565317291 -11.89973986578314
1156 -14.125487950489493 -7.277764225029948 -9.231597061517284
549 6.695466085160518 0.6780389321057019 18.834388528034054
2109 6.3400745889516905 -8.80069076529579 -7.220305356922912
795 6.5154425312147906 6.9030660630450384 13.005457009340274
2075 -11.318470445334581 15.135010774149185 -12.183000908642933
1606 -18.04048508389567 10.861958371103235 4.301726676491456
34 -4.124440961495887 -8.82152639802989 8.416193974094723
364 -5.061495548911339 4.295744002534686 -5.099788739742536
869 -29.674457009431354 -3.25135096386336 -13.544335450622075
1837 -11.107919613770868 0.8994260078522982 -6.637037164277516
89 0.9352431474437704 1.3470122424690423 14.024167980160529
155 11.336952779577764 -6.768331840482225 7.700817602983585
857 8.714717117852548 4.557525875552316 4.9253536612722915
1900 -9.211917757890713 -3.456738180225229 -1.9694468681044064
948 0.2997117082281607 3.1010198635584545 2.578474584041344
1711 -2.4968340263608204 -14.600515095341038 -19.87652930788987
1506 -11.017491815791168 16.320656022260167 -5.551643699119708
255 1.3584310739249412 7.82453391314373 -1.564835650232041
630 -3.373656295292555 -11.88910305588538 -14.036894836314543
1056 -1.3250902462255898 2.965981242068919 -2.9748842958927137
1636 15.85965371096099 -13.6202996573355 3.453761726278284
989 -4.184207281077444 -0.46901222388117075 -6.034122458285783
1270 -10.198360035079755 -8.052747555841288 12.956508796540598
706 1.7556861059819993 -3.318157128542805 14.451672678419289
1948 -18.317521612191968 8.045393944778773 7.85726892514413
642 8.006097656678214 8.595552902249063 -16.639831765357744
1040 -13.006002292898739 -4.115595024070492 2.2821398426944404
931 -3.5547027799936313 -11.445252602322448 1.310059882247529
981 -9.479342353760712 -0.055673058772401196 -12.952998547206303
867 1.2215994220675974 -6.313612323043154 -2.0083144802371806
163 9.853626738818123 -8.992515186517531 1.2038815096127575
292 -0.24309139066439375 4.589928171750157 -6.050667919681736
1990 6.175141443008083 5.148275975954668 2.715503338811264
27 9.938112625402146 0.3817621994118823 -0.21840096693418382
1620 -7.6162774008508425 9.635947235835253 -6.631296957870493
1120 9.407626564529046 -8.768357049709179 -9.789011531076053
1229 0.08611793271256424 8.85920887142154 0.7926639652970436
596 -18.101374970181958 0.6592407399800742 -0.07694599762208716
341 -8.23140921943193 3.6903765632403447 -4.5877740936200455
112 -2.7456719736878887 -3.098436816163216 -7.244598198511591
2111 -0.860002102500796 -2.5049391691145924 -13.70468456548508
1516 0.4561679928136893 -1.624998083136311 15.0622386499615
384 -7.632876473161796 -2.141935870607545 8.268127916382495
493 -8.039960104203642 14.559277389588962 10.331261291506067
228 -13.628815663928728 1.4558315830982267 1.5956424645730143
1165 5.900933514714849 -8.942601579628437 6.680879441944793
1218 14.366552118246982 -18.287169519778377 -1.8096246826259095
1752 8.260130747277014 -4.98214008121471 -4.84829950722938
1944 -13.169597434609319 15.669975651334584 -1.761833990040817
297 -4.542964943432592 8.21040147955224 -1.9980194247190723
891 -9.73836161715814 6.9317462625607895 1.975103964627363
1182 -5.444305774265091 0.7049070698121965 0.8327335928660572
1171 0.6470219686066717 4.60831742324714 -6.127908716255888
750 6.599534136943722 8.031036799625504 -5.41762221446345
1826 -1.4777026959485469 4.074843432685377 0.5829304392761739
1497 3.4762483429543205 -8.945550536236667 16.222606878668966
73 -12.951942284242994 3.428967201757472 7.381500389432527
522 6.244149913825022 -8.788134167986318 3.996740852501968
1415 -18.23190692956984 23.945541661447404 1.8727589555778674
2055 -0.4873205656220003 -10.310267704543207 -9.434727289066219
1799 5.404349800932955 1.2597393150207943 -2.4636618519241242
1728 25.315818407117575 20.120602636887174 -1.1819842499722881
302 2.62071927668142 -9.63125222930319 -8.65114918756468
21 -5.920288584252367 -20.867209856287392 -2.9422989871961014
1924 7.77346473554283 -9.202807401174448 3.7255274729715224
731 -0.41051195277327107 8.201807114936004 -0.37771976837474247
421 10.052819904796962 -0.3996687045014332 3.603130685927441
254 -1.3090033577036246 8.794056640664015 9.98318797266135
1446 -0.6413225142785455 3.8846803320404875 2.8398208392657223
1201 -0.16274854815301082 -2.46109243077142 -3.2452271958381833
315 7.630761405303469 7.215600410137129 11.13262874505639
1726 -14.435190608388533 9.571897555279927 25.016824441450876
800 16.16112832409548 -7.098826100823204 -12.196728707832104
1388 1.6698570232028593 19.668470182450076 5.3891795218025695
1333 4.076413268336097 -0.6709352748109502 0.525910016458419
789 -20.593887797133025 -5.866296328658757 4.638813611791375
794 3.8429318144152997 -10.160796761795291 -1.508289642087739
2105 13.967189810937349 -27.905331604886648 0.5077366890147356
917 3.9390370402709785 -1.2807021128976435 14.412526818337811
197 7.9157285476498505 -7.220749192239216 -4.381979622376789
301 10.795531642747362 -15.274026518130125 8.580449535424114
1518 6.457426666943878 -21.58312282082936 3.1981076552603116
1700 7.753102232402685 3.901925575073104 -7.168475230095853
96 20.811979923649847 7.0588006571579385 8.92361361241289
1329 2.713251085013404 1.7131741658006925 0.9268332086651929
1272 -16.520816591025802 -15.592746084645897 -7.476187918919379
1429 13.782363501071544 -10.379731840728398 -2.914246379638472
1452 22.914010350656874 -3.7761329853420116 -14.98742708851542
1427 -3.2305001325121654 3.1851601648851666 0.2973719793527528
600 14.863746441687764 4.417288056390516 7.319394877586901
1408 -4.319043857210636 -0.20863384157338646 -0.136540432801717
910 12.786556583151466 -9.838135540490784 0.03385772806179323
868 -1.1440739629925407 -11.179583091352603 5.185322111662465
392 -9.48594408657129 8.328543901878726 -2.5113098478263796
248 12.022855430249669 -2.7924815736733644 15.186243275243568
405 0.6964493742633036 -9.151094092813828 7.928665690209675
453 3.872357881211163 6.328428621365458 15.04369819819087
1306 12.038603727529129 4.764011637008521 -15.020376955837827
2104 4.5956472411689315 -11.419316136667845 -1.2111502083384804
309 12.656632335140882 0.950904351734367 0.10586210479451735
1740 -1.3903277766709181 6.621434748868476 10.652189106634758
257 6.745621102975474 -9.266362946523751 10.783183167981614
1878 8.814247112866846 17.977286492617743 8.887236770603478
818 -3.3211192596827104 -2.3689052637068557 6.638336177008542
1685 7.136397698072135 0.4447139841176789 6.853365247669905
886 -4.37699485713362 2.1540709180261812 15.4098905152273
2140 1.2185126240313076 -5.001504314105973 -6.599911901225602
586 24.642659160387485 -0.7136152558548275 -19.671614174737886
354 -12.437602038660371 -9.073526414880854 -7.452515877228428
903 10.824040301586479 -5.0661896263820925 5.471873257171402
299 -7.137651527048675 2.00542972826882 -2.3174561874749
1111 10.949723215498345 -3.1075081913042424 -1.1618046394710213
1860 -10.640121740951903 -3.184062362185964 -4.171285635245314
1105 12.672044610716567 13.10433336840133 -7.866366032558411
1553 -2.815407387112611 7.805720763476252 0.5884504565401093
1381 0.3848796408920332 -3.669844837393526 7.7637429420198885
899 9.872112883773015 3.7564676666229735 20.957013344321922
1420 -6.303363632149529 -4.560213248193338 5.902922182562559
939 -4.7182303407892645 2.733255760594844 -6.78489162289469
559 8.301866212753458 1.5992846648183499 8.99586386453906
343 8.386416627755825 6.021440154188341 -9.598478702494686
157 3.593172937572166 -9.915848197628453 14.554931584447868
1569 5.88826254465643 13.847026715750525 6.807138361757671
812 2.8754869666071037 1.1120457161284665 4.774268281450651
1166 -1.7822592714909775 7.279886063525483 -2.4079455210872447
1787 -19.73113655165251 17.086132323888926 -5.906871199696878
2151 -4.758895402271373 1.9814449172597792 2.8184515253390585
342 -21.17561712493559 -1.2830391444936005 20.32025910138489
2094 0.6834818544677848 5.744734558449942 13.805696117874023
1806 3.977968129065877 -1.882978985187316 3.8638717675487757
1758 -12.80705610247842 -4.9021351943717635 13.101952492058299
1336 9.199794139378596 3.3541513265823677 0.46199448995674536
567 -11.532871806345788 -2.9663656407248395 -2.9482637095669646
2062 9.458284793909863 8.125158737126437 6.002915605911249
1611 -1.6357661449210856 2.744914551373331 5.122235695305053
1598 1.0509607395528178 -11.771866294385369 -11.184116997331033
1460 -9.084001411699933 2.812488785997983 -15.071342742537128
1430 3.4744220823284784 6.431360982364114 -7.909077432533786
594 -6.994066858720277 11.707188060545617 -3.2295777972035156
1422 -4.613071565903008 10.763185950092124 13.965101047822918
1626 2.9772935030613614 -9.947975880542584 -0.5578317257213848
2113 9.89562019048572 -1.5195086195854017 5.61605899753063
153 5.751052738310449 5.719293374957565 -16.481784049079888
1222 3.645602445162636 -10.434348076275898 13.655987447667897
141 6.129449441863552 -2.7549189846827526 19.33471476701193
449 -6.030499344526703 -3.898377576813539 -7.300549218199597
1526 15.37245181355465 -7.130811106211256 8.06693514379165
1566 -4.184812882932436 -1.451064298537005 -0.575976847311467
1920 0.7456259802595883 -2.487489185539158 9.158139950428003
1372 -3.955180302119022 -0.5145281407765274 1.2532223531401296
667 -6.442690166452451 -30.037789712725576 -21.712653414339318
2145 -6.901740716266548 -2.058493979261449 11.535613967986686
985 -14.348630588756263 11.817259460144632 -0.345984558211342
1115 15.599579804837855 -8.650812213995914 -6.805209485637322
1803 7.935577116555962 1.2539333714670926 4.226588465033861
414 -6.9791064342331355 18.0312875656809 -21.796536941259678
407 -0.2416219125742662 14.715969934988815 -5.171793859376331
1214 3.210426954646046 0.7703202259512912 -14.743264673261969
670 -4.686705655862163 8.355580539696252 -0.35008345171570654
1374 5.289521674558776 -0.9792301152806758 -7.655824420325184
1065 3.414258099807957 7.785009305326922 2.9191726138219103
866 -2.7352290863833564 -0.653876704281944 3.224591164626901
663 10.365267100423091 -10.382260895840757 0.05136133619038607
190 -3.21669694099334 4.041995322005578 11.124047143648063
1089 -7.205158578678578 13.480054830003295 0.23563282530347635
1524 -0.9775231626270375 3.366391776680473 -8.10847385256888
41 0.2660521470389539 -14.283296069595826 2.8307454363543094
9 1.2721202710171577 -10.688290494041993 1.8302353232118391
644 -12.716715165204663 5.0367192465041315 3.4516359601736166
399 -6.389476539298592 -8.660812453595618 -6.764367527560247
524 -10.388003415212735 -0.8548870097495641 1.641041888903983
290 3.761036486902125 6.1860057928770456 8.953933526325544
139 -10.392474521576897 4.095244432963045 12.563175637382564
1337 19.472605507814922 -2.5065663493005257 3.9644395062881075
817 -3.2040849249656644 -7.977552679305582 4.4345638920486605
660 -7.301587042523625 -6.81116173307587 -24.78385272549431
481 -10.837903823276264 -10.730363051740671 5.68278758940536
77 15.186707112578562 9.795906412913425 8.399659673257844
144 -9.811463560839446 -9.778964680973758 -17.558170490739652
503 1.6711605533269644 7.122908517341837 17.278754137396714
2116 0.17026912101487213 9.792070425652224 0.6421619072214225
834 -10.185580704525867 -16.320977792491526 10.344230600754537
184 -5.648240307688421 2.6106642353202405 -6.470256959505961
979 13.35931310222379 -4.665882786528341 -1.2760338459638942
1097 4.401803429424404 8.468382197549975 -24.30134662904527
1681 -5.757152316843677 -7.257394556467673 4.016218552879939
1133 -27.294339361443818 1.6635630455799633 1.6959623354974018
52 2.8218164092067983 8.243884569969724 -3.9699507081769383
785 4.233852398983765 7.458255054537451 5.963253761697697
327 7.209715244744222 -1.2551434897382552 8.097816910802942
1318 -1.8413881715597507 7.197902630289497 11.77831419529206
195 17.934251063734468 -10.332999017314073 -7.4607559109059975
150 -4.8047787172909855 9.319420667462083 -6.440466098432183
1383 1.6420139791690764 -8.959068510571576 -9.13339113648021
2063 0.1932503855057992 -8.441415549455723 -6.948447872529657
1243 10.40647188003664 7.478444465660067 -0.4679371591093313
2002 8.172955424104991 -1.4696934677250695 8.1564773954297
1753 -17.822272444763165 9.00224494399513 2.562236883372585
2087 0.6426774075561943 -8.873868470483883 -3.1805131535695836
147 0.4575450927650719 2.8284538150502603 1.0966748505615616
912 -4.5666808297877814 5.348268547035304 0.9756244601007812
1061 1.156956152080757 -11.848330363367298 -6.87446122474411
807 8.484551007911204 0.5256996176515838 -2.5007989226268
1649 9.841600657309735 -9.403395762608188 -3.7953312104291643
1248 -3.6859899523307766 -0.5861860238603641 17.989414600335568
409 9.249877692321139 -4.813783070848312 -12.20795364862335
945 5.83976354889238 -5.679349188557571 1.3707828009336323
423 -12.068850497489521 -6.988476571096715 3.484398261615728
552 8.682889295841015 -10.113498130153822 12.356664394473299
1373 -13.288562470006795 -0.9723712718907308 -1.7669346908320898
1981 -5.233439101821875 7.51272705860766 1.0364568019601805
2123 -9.791257076982816 -0.6048894465040705 -0.7313356370729597
1757 10.11756989571179 -13.06235132811728 18.211442669192937
806 4.060841118056024 -7.110229073834807 -5.282465595062374
1545 -8.423677468471944 3.8294115346267876 5.755578046100808
1104 -6.05806052928468 -8.634039097136407 -6.464893321905528
1730 6.466962240158639 -8.353833913522704 -2.234867723693713
56 -12.74450368074069 3.0827118365026345 -8.28937460672825
561 2.346823915159723 -12.117479186670263 -7.083753295390896
1362 -1.9735173872252745 1.6330807320109437 -0.2004478090723632
136 0.9820878489941379 2.0178349880990325 -16.12180900961752
950 13.352448195240534 -16.9825997108612 0.8576533303201156
954 1.2735887581127276 -21.78905049518185 -3.410828856554408
1555 -0.45966849387747044 11.485494912054763 5.918291879964347
1861 15.696433533979992 -7.24602536096835 5.33375203157123
210 1.9632314625119744 -8.90428511359512 -13.707266981460737
791 0.492051041183742 8.37224829592112 8.64832771932247
1343 16.462920866940355 0.8430124574624611 6.017979847030519
908 8.21811121954623 0.942848042124792 -2.623902793114051
308 -0.8621152451807765 -2.1518842312500515 -3.2232484766841227
751 -2.452147808121271 2.052457652314321 10.77531668828007
2046 -12.60004013955667 2.4653506241679297 5.348074126927946
466 -8.351621471612546 -0.6528024123676663 0.44972695359314885
1254 -13.34577785068968 2.516725896063232 -1.9947793665093652
1095 8.323529466637211 -3.3564675638569987 14.352180257588568
1997 10.906156329616687 -4.575133627287161 17.95437705075991
2005 -7.165713884154123 15.408909350438748 -2.4306087900527626
1244 -10.232407792005526 4.397831300769976 -7.36797708425303
1039 -5.547397608263509 2.4388004818396447 -12.0474773871097
588 -15.139152064756313 1.0879264539347357 -16.039941721832864
849 -9.97322660122328 7.052406316743623 -7.253690896644168
1967 6.513674533848346 21.912325649271455 -6.815360047984011
752 -19.421126476047657 -11.598778078583162 -5.580165622952924
1762 -7.87088604027796 -5.416651199013834 8.991456920895875
759 -5.019635484779388 5.01333289386449 10.976455343610409
1608 -6.857860163191042 5.309118464889157 -2.4220070404295093
876 9.257438971759862 9.202516324071457 8.503484160175915
1715 7.575804959918072 6.447371575095095 4.6834312282276205
500 -6.615046861958348 -9.260333323063453 -8.492853854103371
578 -6.613110744914831 -2.400172348228435 5.533415984791884
1877 6.408374744424605 6.607767976227423 3.5210622486866163
231 3.803013694523453 -4.451599812435808 -6.1123466294979405
907 12.791388669959236 -2.623118382977443 -6.5670391782655235
693 1.8015368324322507 5.3445520403258175 -6.739593253619542
1502 -1.4121819064363625 -5.307237421602125 -1.4936543442555827
238 8.703846068186909 -5.688865952080784 4.614512830833749
282 -4.789165308478334 -4.973220364685514 15.074724025166462
1755 -10.298674898855355 -12.73595613699204 -5.538498805338458
2147 -2.29581520326057 -14.761284400656749 -3.1100940523609326
1326 3.782075195486599 1.8657609287566495 9.119490171737127
927 0.5951868202459558 -9.976218216408515 -7.894781758683953
852 3.610788735221421 -1.545797959921684 17.357268979845777
123 5.831911766643768 -3.8162939289770073 5.543460514640959
1339 6.07537655826392 15.623502633160486 -1.5441899378613708
952 -8.39653241954874 9.723578163969268 0.1932741837405341
2155 8.800566874657264 2.9444822469344456 0.7117322150165692
512 -0.08900676400702531 8.312691195271865 2.63917884624292
1853 -0.051318312812788425 14.603585762481586 11.726077354204424
208 1.8988116176455334 -2.8730920973440512 -1.3259511943699975
539 -5.874636505577758 1.3042823780238433 -14.3856397507256
76 -2.957682638695179 12.634051594471392 0.7248868013270408
187 -2.4971223726098835 4.797146326583104 -0.9527775045843682
174 1.94600742533301 -20.13631472906274 -7.484763518061285
122 -0.4859725820850368 -8.21691695716723 -0.6989525240957289
1033 -1.6763043350703895 -1.5327604124310383 3.9448109201958697
1894 -4.452799973410675 8.707324248922983 -0.4081715307740065
1897 10.254232146836095 1.851695992366939 -0.003586200586484449
1257 -12.028365386702863 24.193879690368068 -4.619079311126839
1360 -9.444461310215223 5.090817155380669 2.8698569631512196
1658 -5.977108002121578 -2.5174589788995303 -0.44683296400114286
2070 -0.6467404842909013 -4.122527982629251 -7.47533323629504
1289 -0.05526520666389921 -10.028978033734017 -3.6812732672617132
724 -5.092978055651329 7.686662025582778 -6.204640985432341
72 13.45200777399908 4.40349225245747 7.891402630215199
194 3.9843416774142737 3.710034026418455 -5.510910496546327
2076 -6.470329476010915 -0.11186703357976767 8.376851047344356
316 -3.6424490918989907 2.457074158201814 -5.847696726816723
1724 4.623476698374959 12.185951674059163 -20.603704169702194
20 -13.244676980182373 -7.037255687650245 -10.452284980686425
734 4.353586197069187 -8.792567030332833 5.295689332799778
138 -12.008862511814234 10.362152344752293 -15.536048955248983
226 -1.8328217067386399 -13.578566181785499 -6.889931461571752
2102 -4.428714350424513 -1.4742744068404703 2.6240310005515464
725 -10.722370923399225 -5.470996103923215 -7.288716930616744
267 6.499522916384875 3.575154738603495 -13.418060606290753
838 12.817542855795818 -20.257031430271667 -4.894923080734586
651 -5.930823700699253 3.3736105519081026 -1.727125363422594
413 6.481926940165824 1.8002495377258947 0.16771730756363065
1158 11.084439004742439 -14.51036900822603 -4.512423788351591
1233 11.940125259323406 10.036735076447837 14.658485762769834
1646 -7.017113875797435 0.8458432752925847 -14.057257524661503
737 -3.149906327952268 8.805779345894845 -12.973146729463583
1461 -5.721495614155949 -10.068769640369268 6.256668163785336
216 1.0603585851619235 -3.6203797041834087 15.864555765678563
677 -11.07713913986713 -9.846841539057031 8.30456935554193
967 -8.951782915633729 22.78296197156818 13.696155758238342
1957 10.098808897237003 1.4803456935234176 -7.417762680407208
1625 1.1313019164396487 -6.005782999121676 21.082383639836547
638 -4.650148127841977 -4.28504446970458 -10.256128327191787
502 -18.672602180245708 6.381166668616844 -9.325680000779972
1471 16.16682293846786 -13.834033570692537 -3.391924080579567
1919 5.046626211133446 4.080166896620263 -8.40653495480937
1407 0.7082305794090095 -9.650666436383744 -9.74090958053435
320 4.607897243355423 4.597081923944156 13.52469514530487
219 19.424123978297388 -0.709065473958684 -6.422363717280912
1445 -0.9760897057382293 7.718669891062439 -10.496070111577984
2160 6.408394072887789 5.295956637011789 -7.911963862729964
1256 -0.45464151468338393 -6.58339019703035 -1.1233612462600289
1224 6.313811680617245 4.346822159187637 -5.640203887674706
1084 3.282876751400671 -9.45930668396916 -1.1339494517466562
476 -1.7917319185775586 19.04529895797994 -4.929748887192344
1305 -0.5330268225787199 17.11614550153719 -21.708971815715973
233 0.3041396415680601 -8.487070237970395 2.4384443069649104
2131 -6.194637664995904 2.1761972370852867 -5.892920005918809
1563 4.8277432024301605 17.78515529698387 3.870592932000916
91 -1.1472549858303858 -10.390433385624878 2.1324773440109115
1193 -11.51842461220569 16.33520253588796 -2.849575788630027
1705 -1.5130834462703264 -5.874062921666084 11.049867691479175
1490 -18.79382303025159 16.691056212949828 -1.1038095049333103
720 -10.577567177183816 13.758365435768543 -12.869955647474569
2086 -3.157103757667407 2.933775041176266 13.885953882840976
1521 10.778262435510726 18.690485419347038 2.554551036598537
2047 -20.947017473115668 11.714470489957781 -9.218499651238044
188 8.574186864037584 -3.8710066334596984 -11.324026314029828
507 1.9486316767779903 9.738789837115538 -8.125527435305314
1162 -0.9843014965351728 -11.909505647398126 4.699448915902426
417 7.760519924897698 7.931972446207413 22.07130108042739
1690 -9.728258396813752 -12.561153411451567 -7.2472527282001025
1899 0.2094748518004789 5.03894339218669 -7.938272156299132
635 -13.595484861862126 12.572152452885204 3.2189803242217474
271 2.4041205636450607 8.324998578888344 -3.2553923053654077
4 6.723560215927605 1.3273491438682874 -3.5017513650487224
1567 5.723283511634364 -15.415151056674842 -6.739908494989343
2061 -8.815625458564371 -7.273560239512511 -3.9054345207335275
1292 -12.101251967931459 -9.026035583617245 14.711233140500765
1863 -8.374376796267612 -7.752821276272088 7.864803711027469
599 22.013878554907564 1.9415517293362134 2.4664907043920294
382 -14.568877049770178 -1.082968319914232 -3.435534299525438
1 -2.7339588448212466 5.0928955148449 -0.4059848812340845
767 -3.0738681305235067 -3.3810459641226895 -3.359187914791385
1887 1.3966356998303509 11.26676595397408 3.4020422839802062
1263 3.1694003331680265 -0.8322923676515964 8.319379296396463
533 17.140624320336638 -5.766881842860247 -8.520453143318363
1519 11.965818173659004 12.911773439274913 8.513489465518177
1963 28.06290095338742 7.911390325014194 -15.245185689715328
121 12.220158373061103 9.11128718331804 4.706216303844466
1236 11.080726432712511 -14.489880891383692 -0.24582430439658487
30 -10.726047940189186 7.727303549611272 1.9922205518589247
2033 5.341386351448685 -12.561674029359452 -5.651814842030166
1100 4.9440642489486395 -17.445225817220287 5.315657862277099
723 -5.654528902052501 -9.453637261636926 8.57375183418805
45 -0.5383549152155696 -7.974439194484103 18.347850861994214
2021 -10.684668867719939 -5.451936901646806 0.5251768484960578
247 -13.642040945531058 10.039814751758637 -9.654653195734532
1570 -13.856202330166452 -9.029529864459862 11.943081221925945
763 -26.624429895771613 5.060781571707607 -12.669065719025241
845 18.28373762555445 16.161735014952296 2.506177594850021
691 5.149339655425713 -2.2234001798959335 -11.283549870246597
1773 4.057919390900721 11.033829206875719 4.411276694723273
1014 -6.2580372233436545 11.567533371769256 2.182196775566966
792 5.536669057669782 -4.558233630447501 -11.105483380702026
1952 -11.206348771864235 -8.766920242939312 3.095324085763826
395 -9.24871568812508 2.1664965971410246 3.299904158825605
1804 9.202792526372486 -6.321385589403833 4.76623572238583
1185 -1.953392113993064 -8.102016171291934 -0.5133798504563185
352 6.649937313394808 15.467549759822731 6.625288723203594
1331 9.58079212623047 -17.814570687184126 0.7156608687935747
632 13.72190348362907 4.835652880798356 18.561629654595627
205 6.227949387770007 0.9550729311112991 2.5285295314395397
1368 13.861777188521895 -12.168941362245452 6.7861581533456725
1437 9.518006763165756 3.523163244689766 -3.9517060433805886
261 5.729967018855546 -0.8592547972425885 -8.776460753904741
592 -7.10384937603566 -1.6770901850667659 -12.38935451624465
1042 0.07646693224526059 -3.138308697500089 2.4660467131392423
1807 -24.139382734050624 0.31689918183425764 18.465171424724225
675 -7.113318019992108 8.846696458529577 -4.5567159025412804
278 -1.8791913495594748 0.05247966252498706 -2.0842041527272452
728 -11.379123825171025 3.6471071314911856 -5.749243899241027
1241 1.5950739034053418 -3.542439642299156 1.6470352331821791
1830 -17.013097351567627 -21.946943615331787 -7.964046990912768
1575 1.730751767348515 4.634384555085722 -10.254491166611501
28 7.11822167485877 0.44086528110034945 4.704134827717196
90 -0.8091996878528852 -4.842971499053044 -0.5932472904886215
1269 1.4460558578209048 -7.017288769435152 14.480378620113937
1183 -1.938448330255719 9.109176458350452 -26.446851679896717
462 1.8958246682257618 -15.245888602377452 -4.042006743755617
434 11.426936947364107 4.602120222640861 -11.829141409579846
1825 5.675275666359329 -8.012637271525819 0.8998186692447869
564 2.8743316108694597 -8.36292739591957 17.38073840812196
319 -8.018155634356214 11.578756659763867 5.059902799718341
949 -3.121169195241753 -3.800253799780519 -7.412196111120037
551 -12.489440338948176 3.6819347140352536 6.644479642920546
1226 6.25602641086623 -6.234232369535992 6.15761564251489
1451 -0.04598396825391639 12.027037907715387 14.321892923117868
305 4.305682193496459 -6.9252780077397915 1.2983433417638475
1612 -6.145938246325134 2.6805998306834136 6.314956421569702
1933 -4.292319583419202 -4.6538622925265125 3.9122819631750314
1572 13.726464490898566 -12.121280050772182 1.653832674793733
1714 16.580128486663643 -9.221239738798573 -22.127136824321283
1978 0.9651729000056946 12.052652101665439 -10.433225527558244
1514 5.7278557004191155 -4.176490467712787 -0.9356126023893385
884 0.2762417037649854 -14.682196954438865 10.355788488701332
71 1.8961969440644693 1.8302225822168743 -6.096824684256624
67 -14.335505209994365 -4.199645650168303 -10.338455059739168
1076 0.7059716437430871 22.832534410838186 1.2660543531446875
1511 -4.004515131589305 -0.72016775874124 6.484450401816892
1732 0.2820517341968681 -1.584332446818445 18.42682762713181
1794 4.013988763790683 8.81732592226123 -10.219325270155272
457 -14.890021973651104 7.745621677052642 1.8564717924368097
1009 -8.762868111976218 -2.207243679515181 -0.548521886993715
1790 14.876410945166153 8.54389256585182 4.4519332521732835
761 10.295430611568579 -13.72247643208283 -1.0114843676105874
1432 1.4289100627998483 -9.994043241686393 5.980173205210523
816 -3.17292569282064 -7.772700314455903 10.115630038418708
943 -4.520491454457552 -10.2293955087896 7.062778474517142
2079 14.565581529696836 0.49297845238715343 0.9786399873264208
259 6.578254828368243 -3.316923338042187 10.855958949702895
479 0.8028769992056426 11.036089396706231 23.982627815850048
815 14.188826203058268 -4.967483043735459 -5.168930601397904
986 -0.9946276522825733 4.739868933468655 -0.7538989091115612
1749 9.975419073344664 7.077999540558232 3.1701417824577867
1844 -14.21936418019564 -11.80149665246329 -11.055831027290056
1144 5.198600916063337 -2.9636112987656795 8.155288347049266
415 -6.644171726902171 5.839522567843353 -1.0043473036606532
1686 -7.690260604516414 -5.580381228203323 -0.15073899202433158
1964 5.856752041930912 -18.134888854043254 -5.602609262584281
1107 0.860432103912921 -4.118325644468082 -8.01709547097119
1172 11.670747817260766 -15.110839725649766 1.9276183009253454
1051 17.686748648074158 0.07650548182033494 1.7321250688517722
1027 1.308887268888293 -16.178967692709406 -10.127272620182037
649 4.844848570383321 2.91816455235524 3.8590770323945947
69 0.78671319128005 -29.98735629255531 -1.657376706787873
517 -0.32779076633864146 10.052473006527423 10.85618323890397
1995 -3.591344089717344 -2.3054802293636008 2.615258785622802
577 10.690254954935279 -2.948200589385226 3.751420292359754
348 -1.9597816647778712 19.878443870475465 -6.239806022039148
450 -1.639115049070927 20.321697225243117 6.155767033571042
116 -11.538790401371214 -8.943791898245127 -15.360915894759506
2091 13.998870206323508 -10.94060233758839 -5.393383714262769
253 0.1645111497651052 -16.909430213570012 -7.633565800666577
1925 0.06903005320192118 -15.667019802552822 1.1268025505521615
1327 1.3968775826588073 12.105807378257426 -3.7450472394430396
2121 -5.049404416862577 -0.05591754500741391 14.393702717021876
65 -7.46713904331898 -12.37363590127193 4.099438071179192
2066 10.93333321647715 0.1882034565563525 -1.669286549477084
1433 4.923348330758977 -7.340799161891105 14.335290792493035
1852 -8.819730571173999 5.760184310558549 -2.3833963861380227
1271 -15.072710114558733 -4.057540901190452 16.627604372270323
88 6.7386268180957 -6.996734834631929 -7.403345919479492
403 1.7007742709003624 -10.942590319226317 1.469832762184087
1645 11.476622643002166 -5.5660753691615446 7.430249126889109
1150 -4.383250434493218 3.565978259095213 -8.337784547476563
1092 4.863210695237237 10.928418124616732 5.746759485492342
1131 -6.643439988344698 3.732957729022549 -14.892149596184868
1258 7.835476236772844 -11.89786446708191 -3.243653087406128
439 -10.845784771421558 -9.808052426517346 15.891794701706134
895 -16.490061965774803 -15.604698974940055 7.295901931515539
859 1.9097208022673358 -12.189940824401395 -4.4320771944424635
1161 -10.136698266778831 -4.607272055590464 16.342711207340248
1178 -11.496810674931504 -3.032467292685291 -12.858679246502659
419 13.473341810145314 7.280805444256612 -6.121210560042562
1980 -7.825229885337856 -21.661446255503648 -2.67776770492952
1684 0.31350462259871476 -1.8356374463409004 7.01863979089046
1663 -15.408033580082543 4.918203002874607 -1.935958272173528
929 -2.813492931749565 -15.089858681256143 19.743476976670905
1426 -6.288136522418727 15.330607388165074 11.279561432425732
1478 -2.263119294335227 0.034803658994057164 -9.996045927698267
1783 -13.815832641291236 15.145077020963013 -8.706444865621709
518 8.293661002252112 -7.873143425272137 -1.8502513692560258
379 -24.128396929756345 -13.746576518494338 -4.129668247625386
605 -10.11020447105803 -6.853788166484626 -7.599457332557201
1987 -0.8057667989413794 4.329010047166885 -23.41076539778396
1370 -20.57870313721897 -3.5882071034054217 -0.35829750722363773
1223 -4.993849062566728 11.70669491011556 -2.956968260317666
166 7.6075687633025 12.158155333934472 -20.824396104617684
386 8.340274226184446 5.742098552748198 -4.709498889044129
498 3.2445813929530205 -2.4866884133565472 -5.926513205527461
1074 2.9592998995023603 -23.170305375236932 1.2480878151531656
2119 -12.747595814727473 -1.506656695398125 -15.924200111536432
2008 -0.5636207748882381 -7.583461631365752 -1.1510875708292148
186 4.258451049472361 3.873999983975459 -6.803941457979415
773 -9.89019827219579 -3.764618230185015 -7.509153269518508
880 -6.859644541547166 0.564231740290564 -2.317148471411278
22 -3.453303231595366 -5.228389005240208 -0.2501837518076164
170 -4.379296169958412 -2.2997436928708477 0.8721165838007868
771 -7.962855923631398 11.051113931064283 10.112772713466784
310 5.132831037808372 1.7994568781514795 7.600458932964003
1119 8.068838240581965 -6.4597827366618885 9.135203469339519
1536 9.830196311537396 13.626006869791237 5.511823145561205
1774 2.989746163973438 6.595956486474709 -13.054278786282106
201 8.034449487997545 24.8386374372313 1.1098740117614114
1455 -4.073336938922002 5.496567922702013 2.6004484480489634
2072 -12.350203371473473 -2.2260008743652255 7.0771462014082775
1210 -16.849493640084823 12.36763251827072 -6.333020522123178
1203 1.2939108152599552 -0.5673457724963543 -3.3436487680742477
1196 -6.540392805582385 -20.127253586301027 -14.876081860517164
947 5.267213829456717 -4.828196571660887 11.92923933142392
381 7.695312859260397 -12.657838243856887 -0.7924997872021179
1345 -10.040041980923002 -4.760372759572679 -6.217310612727584
2084 -13.10788521344296 -4.969622679468451 -5.014625683840324
448 8.357072900265408 4.073765199827674 0.8861939102612691
486 0.36564515388741187 -13.535210311429271 -2.3386475983369803
143 20.696157681072524 1.3953691204397136 18.355236598071468
1893 -16.09882893274512 1.875864635533927 -11.431661213895785
1996 -5.689190829916838 6.6776056809124995 5.693501299044632
930 15.246537378227927 1.9359169714774584 -12.892616964327203
1363 -14.981456669460067 0.5155814367164531 1.8442660064951286
769 -10.28843153056216 4.203832810650822 -6.526163355055185
1307 -20.125803779517483 5.48559717916236 -4.966035407793422
585 -4.902036319603295 9.706421697985617 8.62149940259759
631 -1.1374743946333694 15.930055877714429 5.846499725218839
1352 5.457544560454713 1.4737496520904652 -5.6933166737156755
148 -9.50591285141244 -14.1500359105739 1.6692726503738493
2089 11.823257955726628 10.179478983390707 11.605775069487764
1221 -12.418818294432503 8.345243430380993 7.140237037257123
334 -17.58290089656433 -20.11677303542748 11.124511452890097
1501 4.233077828966988 -0.9431557940273834 2.408117928809337
760 7.4912055124617565 7.272259626523759 6.2586998744835665
1727 12.62852040739438 6.712285074251679 -9.286558716353372
1290 7.750447930848533 -1.8540123722719535 15.478158907965762
1276 -9.013515755946468 4.714163812734513 0.6273713526357948
1821 1.199104185744404 -7.621868266150187 9.268881054078806
2117 -3.0393931743534157 16.32965867378956 0.39885631368534064
1316 7.750154746236316 -7.357785526325732 -8.448207593803538
579 -1.3772539522887655 -11.11328317514258 -1.246215828031747
933 -18.974321391020894 3.256228022275175 -20.661359199867537
1351 -2.939350826642317 -8.576147779840086 0.841861771384049
1314 2.2593482688095907 13.097724625621774 11.257050853694283
556 6.653446591349296 -1.415770548083422 4.831744648109112
1364 -5.7619271466376425 -7.923800153162228 4.0732518140488265
3 -9.64203675926777 0.1768961889237436 2.0700573587941107
1717 3.7242389836729606 -6.28049978440204 0.36928612896204366
1941 1.0468699302516362 0.9786668813289169 -1.7068152579584712
135 4.109239937758997 -2.332248012574838 1.485427410301877
1532 -6.557424980854653 -7.38896232334645 10.235123025875705
709 -2.694660582289034 -5.629610377248239 12.792837239640784
488 -1.093868388554228 1.8158430429005898 -2.166085608588123
2138 -5.63182611327912 -8.972726744705822 9.384089474586482
946 2.8650704123195685 -7.393535960129828 0.5804130852688965
490 -10.522353691651277 2.3960030737790756 22.035854833482443
1624 -14.761929467186928 6.2461585853553805 -12.143442829688913
355 3.0707175790530057 10.188741860677789 2.598472427629409
591 1.3842195595250317 -2.376239853962288 -3.0517628479741776
1841 8.271562224201363 5.156278344522544 6.250916412465477
639 -14.40066029001846 -0.5588461805766095 -8.279141530553916
1462 -11.19488439951082 9.462277560778016 -2.367646050794877
1751 -0.19046394689269563 0.9042447009395718 5.489428650710684
550 5.721581782495094 -12.660578533989 -0.4712003121140349
780 -7.7194322055623354 1.2076803321876437 32.673794622870325
892 2.014005838323798 6.348965809165393 0.570391170430726
2022 1.950968470985158 -5.311117866389826 -3.0486954140266973
828 3.955424185403142 -13.90688968902532 -10.461784708606169
33 -1.3807086226169194 12.961117189636289 14.836839112721888
1164 -4.365726214868433 -1.140713781940273 -1.1208243275623773
376 1.7487246375170997 2.0925610123627156 -3.296331775215583
19 12.187348998378566 17.533664707666084 -1.6375255799027977
277 -5.138281346944883 0.13237849260826712 0.5895870337091598
717 7.259986619688417 10.05773149645688 -0.7123741573296278
699 7.813867061939923 2.0600881970961615 9.629962442671067
1003 15.971824151691957 6.279353686929015 -7.407786032373224
1301 -5.521286311352033 -0.7405460187418383 -2.9650450802835384
1538 1.4080884539590726 1.9068631091845005 2.7606062637740845
1261 -2.2083096890451626 5.314156703651034 4.461508106014994
1279 -8.723135459016016 3.729586784266865 0.9092093146796467
808 4.883411353761057 -6.087361623688394 -2.4933498093233877
1313 12.464685526164144 20.345675116836805 0.09874506299744548
1127 -12.35786171092862 -14.825835959438875 -9.002429780008452
408 -0.23097324781315387 -4.718474793240077 22.556521859903178
1836 -0.3141756881569025 -0.8823857680736394 -0.5273634607868004
1515 -19.140354162996797 0.7084626913341376 -9.357529161448987
1393 10.46703704006794 -1.8861337818534385 -7.255317589313341
527 13.097645202287367 25.099589725322726 -7.649747994750059
281 10.982372085427965 -7.119477261900151 -9.68663494431103
1699 20.891394566513405 2.7553372829841356 -20.86419224037575
1829 5.292526248328588 -17.047024784678143 14.231515081997882
2044 -8.833390128402206 12.430532137306173 -18.016392785892535
1793 -13.32034568498562 -7.885634315145539 -3.485414378781979
196 -10.797468051914539 12.806624617592743 -2.2962674512370715
1835 3.030522534489741 9.814143849620418 7.757492072472081
62 -0.7946784757676595 0.10830109816674867 -3.664018599611726
911 -10.589487207802529 0.4757978880562409 -23.064106697524583
1442 -5.909451727972518 -5.076173749379732 -3.442118728854265
1412 -22.101717301386017 23.074608226036787 -1.8816679294412417
851 -11.403334708884929 -2.902053346193507 12.372905172418795
1167 8.657938664687798 -19.742010748807903 10.170874651253396
2146 -1.8293301190391151 6.7188650930268645 3.2287283774983115
159 -8.66014024719106 -4.718393745702917 -8.63673883160719
887 -19.792646889122555 6.157474557222435 14.117784018637627
218 9.859923057776378 2.2175939797748145 1.264310878261321
2016 8.895634441075293 1.6632281153690849 -25.315082466069413
1523 4.003182807104143 4.396409744867989 3.31389309177183
2158 26.36958758887351 -3.6872732489044764 -6.827456939326738
1293 4.113768612423098 -12.348665284310552 -3.9795318525782233
942 -3.9728221347730406 4.690371598845231 -4.4136972465519015
1489 -12.813211669698651 -5.106986130422762 8.659248201689493
460 1.2248960043910502 -4.39517771917506 2.957499319828964
1342 -8.112349441520164 -20.785987945241533 -13.1811440812816
1053 13.686670639177143 -1.7949152235445032 15.068410931443688
729 -10.375941433429317 15.907663374623162 14.001884562220503
865 5.309055192897864 6.140377367887338 3.701787762446164
1638 -0.01924491230617735 12.421448056721204 21.33474807819307
222 0.4570197162093368 -5.482028571600731 12.727246599596407
461 4.430115698215921 -2.7127835731080525 13.80691935481546
1481 -2.206163244045633 13.398020617666274 -2.576093260070927
499 -2.031222100373683 5.466081785471653 18.42066984605208
1346 -12.254523636435781 -4.964276242751118 -12.612255971720943
321 2.5753777262023023 -7.844876651920049 14.137421960367893
829 17.68768069168361 -1.6642508048063644 -0.36161342035794447
2036 31.524542938719623 -15.782168141727123 5.190863277428581
1533 -16.484859064466722 13.813221872809978 17.849832182397485
1731 0.9051821090987612 11.459754167685002 -2.6240082396139357
978 3.049534172124973 -0.6542770179600528 -4.288376207417187
535 -2.135744291761126 8.034384268455879 0.7484792979185614
306 -6.930363907445493 9.297439778535658 -16.726947331460394
565 -3.1669900128571276 10.439040518546737 2.156983211603005
1124 6.147395905325372 -0.4409804181474273 -13.878114775096469
340 -12.803207852271457 -4.260742889779618 7.858744846899796
1691 6.453012591008599 7.45435427382498 -27.495498082094446
915 -3.6113267583268573 -0.5218491055052688 1.185603070596378
690 1.4489164989547283 -13.746087412868086 0.16901118580300575
1589 -8.264295813202725 8.582198879637804 3.59182612483463
1413 -9.534190663239787 6.020307199878533 -5.998492105940399
687 12.532902915711528 1.5486933348725431 7.30756066735226
1721 -1.1390277965960347 -2.7770588104284557 -3.81266498250378
710 5.324954252149071 3.6795428004508266 13.324640412850982
103 25.785692118137828 9.744671202919884 4.9482067346101335
548 3.567820776390687 7.4457922876645055 22.34516347648462
1035 8.231840377448743 -13.132846889380634 -7.441278363653423
283 5.429434895021875 12.782629305078915 -19.92484843129125
388 17.53651891661474 -10.24825470106399 -8.22164713057775
1678 -11.240195407210956 15.671406930508589 -1.0351569583508955
489 -17.54172358930368 0.40169494558986335 6.713085084207515
733 -3.794992490165693 -2.074278731416619 -13.200124088087087
883 -10.099156012384231 -12.54858866035775 15.101462472346867
969 -4.310748762397023 12.000344771332228 -7.112105881193509
1093 6.246242857901049 2.0370927257434706 0.715998969838087
1664 9.081353686816358 -7.385148796235329 -6.992722515109027
595 -2.3464933205151026 2.167556522020562 -1.7472984086136811
608 14.516277433446794 -4.8557197617211445 8.002801367020282
1932 -9.168460068229203 -9.317255583904664 -12.257959660424966
436 -7.0314259100293555 3.2602113692271804 6.944146259014022
2141 -9.752988858913946 18.992876429370714 -17.250040381593823
433 5.406073226314172 9.747571804862918 0.9627169072254546
272 11.639794907561116 -15.02585331704626 -9.16180539393379
1483 0.5230101409013267 -1.193901970700936 14.705369998828122
162 -0.5820095453644183 -5.143241873840151 2.9741592470008484
1895 1.2228432001422997 -7.099037945612868 15.564048440512739
1037 0.6519619756957971 -4.181070839115863 -21.19317821552604
1954 11.815120984648562 3.907890463422928 2.402530256762946
169 -0.0004479269590305034 15.907686508922376 4.319150611380037
298 5.731228089572527 -2.1825195649957503 -17.989158485876843
1756 -8.652874166542798 1.301427829539144 1.1612697735439703
1067 -10.499294312404398 -2.774389105547563 -11.429557874323155
400 15.176975781447041 -3.0701757878515066 2.5955820814509485
1216 -0.8876575255866388 1.8591579166224192 -2.3426274799386513
1596 -7.341311145863042 -3.5759056501081146 8.544839971547914
1031 -7.539117413403677 -2.0720477410475575 12.453391990930296
2083 -3.580283608660824 -6.610480218793185 4.155483497364412
435 3.499878880863914 5.8957484512422464 6.521002261119898
1366 10.20238905373666 -8.143913327576586 -0.5897051013512663
331 5.8615959661705075 11.735759454336826 21.626300427301782
904 -7.819223231645903 7.524427248758694 -6.812213421589978
368 -2.7241503988853957 12.181345844541333 -1.318079058498036
544 -7.449066834025808 0.5930280105565745 -1.0549273659960232
607 7.543996172195866 -6.6494501557299355 -10.444458705877523
1761 5.451055092662786 5.881701096751526 -3.5683034137187692
1881 -7.746199971878703 0.9752564750154143 -17.98092297481738
1417 -2.7417375793105525 19.56268785970686 -0.91317354088659
1163 2.2523797218953763 6.392711318825599 0.6324130121990633
1927 -12.879023109425901 1.9009141125480835 -6.948208446826469
555 -11.148449211741783 12.744576063997686 -13.976893480823742
2110 -8.698144588632555 11.701313575575412 -15.680348357846931
2065 9.730987131508765 9.883311671148718 -1.4331051030357245
2048 11.362658526135487 -18.12403719522412 14.685189144310353
111 -2.849239614230796 -7.679165157457346 0.9121911026036289
234 7.488764121643964 -0.9359994273619873 -8.45213180231387
1530 9.600985947496289 -14.648761472534577 -11.200878260482005
1486 4.285862638102742 15.0253774384958 14.788702908388572
443 20.30693798561196 -10.857981951690455 12.121560228056886
1312 3.2089516377611766 -1.8602084090391577 -12.666565047900498
1332 0.37018597205962195 -7.712634245024423 5.573710509781608
1689 -0.5031639622616176 7.176010468917355 -8.91211421560579
700 -20.184692933225715 11.78093269102177 -3.7927184106365064
909 -26.093218027232485 -1.58214941338754 -10.166463715691721
655 -16.000523093150143 2.702635348431931 3.969901978147287
300 -2.9901135166588193 -17.56240426132757 5.27987137122541
1480 -2.1522944977921012 -0.6217564770364702 -1.2525810091071063
801 -6.20366522979584 11.465828590977024 1.7421315993579192
1792 10.018706611073716 2.659087453528483 8.208577701733534
2095 -6.79140435778925 8.479476265491753 2.7056032313993614
418 19.48636883502893 -14.82525295792076 14.663598789935534
984 -22.368655696238992 -0.9848792157446058 6.765929411602755
1780 14.912435465453001 -1.4519663216463068 0.024638171344444654
1823 1.8662383911689566 -7.734714791539362 -8.418597361420847
173 -9.394629149922753 12.735121796578962 -0.5901686749412812
1875 -2.543455663146664 2.8752621491100276 -1.7011162329354876
1977 -7.58297145132674 17.41349273129706 -4.160012194034217
864 -1.112250392556033 -8.210121913332914 -9.078103922391524
901 7.759625498442234 1.199406730489963 8.748308765678813
671 0.2853434191816302 5.830135937594765 -6.688610352781095
1414 1.26178186963299 12.409922081138513 5.909098343348473
264 -14.73458850643985 -8.768880216661547 -3.8450155080227693
584 -4.845902191658528 -11.275340775991214 -1.4940087164178206
940 0.5204638278211343 0.9194090829151647 0.8898086879126893
1041 -15.003826364483249 0.4122788734089263 3.9455659017886386
1347 20.232090254876297 0.8059726508326591 -0.9796588282913954
330 14.357139833722126 3.0417240765527094 19.97008195789438
469 6.483275650815625 7.798210208144847 -11.34181009657482
511 1.8256884257131945 15.377753410128948 -13.15489806507163
606 2.8217617496898457 9.265202356467379 -6.986305103375463
1423 4.3797873615106 -4.684774128724764 14.671174210080443
1159 2.020566355493318 7.821257971235049 -4.054011942396312
569 -24.370239939619978 12.005817520713158 -16.861845654523794
1000 1.9053516864839457 -9.740598718262289 -11.937639502442089
398 17.98292293041745 5.701546170828663 2.4178219685068396
1635 -4.3867893379848155 -0.3572810387594926 1.591022657124809
850 12.616822409968258 -4.284668134983573 -14.755886850011787
1550 2.392224288506156 -6.177918967712315 3.268497090014158
2026 5.309359487600092 -3.267775897528408 -0.9534526769772513
740 10.11438645299429 -0.5044446342196528 -5.895840681483448
482 5.427829757515044 -0.25764076457998575 1.1407131043578616
774 0.2292119307322787 -20.88601975705008 -12.117157213514469
1603 -2.078537178041541 19.767748822958843 -6.660848124644452
1669 -4.56879563793319 -1.4126331819660336 7.059702465624249
1582 -11.280602001577202 -4.520032930441894 6.498625192534224
467 5.128692694045797 27.09552006612632 -0.4010364330374999
941 -6.453556013718425 6.842172202312456 10.10034282826611
2114 -5.823893177141063 -1.7467429626894584 13.145094295212393
2130 5.192515336309048 16.010895896364723 17.247533415675736
2144 -2.592990224746057 -1.0228763427840926 5.208708003733615
1508 -0.6216914598162517 -14.69922874843924 1.7957527527302555
6 13.154344661078396 13.392639012431937 7.296149434963741
2017 -4.233334609323007 8.545476831148882 -5.70425624214339
1353 1.0639575039168607 0.2769073892261343 11.488592720121924
1106 -5.396680442282718 -9.627593877732922 -7.986749122168314
130 4.778947047109276 -9.862015599135727 -12.35556231832245
167 -2.310109143098895 10.449526868904588 9.746258989594152
2103 4.020669191232832 -0.39741901685390757 1.442391940163351
2098 6.105815614951682 -1.8912768413213612 -5.673294172918946
1071 0.46687316175962146 9.327209875644922 -5.149939955434774
1474 24.99983216484022 -11.025408732813904 9.786423679712613
1441 -13.462730822912153 4.523899373296025 -5.876091194278633
894 5.015699164835421 -3.6521957320022955 -0.0750464137909081
944 -10.034674327568682 -8.169189074474284 19.037061284831353
1099 -5.898159164973526 0.7416837810392988 -3.5062766597006507
447 -7.365692105667778 -12.506167595151158 -10.993586974991878
2108 -3.5389406683544284 -2.137536840328656 3.0789122109031726
5 6.057601143521947 2.7375840057091967 13.09924478544772
2015 6.047037357114007 -2.5204536457890567 29.193161765973777
224 5.778528335088935 -4.444361964341608 9.178849137147978
961 3.821952593675333 -3.7712650839030872 -13.100817129252478
473 -5.347728453664073 9.673947623270067 -2.4676460778320206
1554 -20.985963747984133 -5.769722688243539 -6.290833412496335
236 6.8933898521813965 9.441225188565818 15.383475935282288
1847 8.71272826886321 0.33156578378651075 -1.8512743500026216
619 -7.756550735653862 3.2071387624683014 4.2336311494907966
1434 0.18096606246162297 22.855710299301137 -9.372999690403224
938 -15.252329071061146 26.315517275674146 -9.926425846921296
429 -19.38700526204908 -6.34022895779862 4.059752853314839
1341 4.790908782152787 -12.412306846431802 -9.003686435981516
1983 2.155678710045581 -0.4792637135452797 -11.826116472001296
1775 14.205260098773056 -4.571325704501232 9.734533768189094
1128 -2.7575307585341755 17.672612586156433 -7.2007476190467
288 -3.418688348016879 8.775722057678404 -7.46770994438817
1285 15.73489768873823 1.7928038028356261 0.4831603394717371
1781 1.3268362530087945 7.214254626108324 -3.5109934566013723
1716 1.0111116922576302 17.530237818032305 -21.839841442138585
1052 0.39081357919666276 -4.082336536373412 2.002253430294988
770 -7.659000969223672 4.56465723304345 -6.029760700336502
2059 -10.806954721651598 7.80974534294277 3.0008109524679654
51 -7.756199784956915 14.103865183548292 -21.50845220173542
1602 -1.8823143422063686 -14.83829293849239 14.353380741321441
154 1.8340815275862672 -11.081039364875073 -5.95746610743009
916 -2.5105632471667962 -23.71894650750645 3.341446277440593
1063 7.462497629829032 2.9035665536238575 8.233420163471505
1722 -14.039498303865498 -1.4818507957048195 -4.719032462367074
263 -10.2168557516788 6.304734327790636 -0.48716162585656775
350 -0.6331663895169384 -8.404027099698395 2.5840259983793485
1733 -6.343212587566511 3.3084812534728805 0.0780160481345272
483 9.204483337608517 9.41793445454122 -8.606633298114007
1917 0.9434890401558865 7.530950386042214 5.159389682393137
756 -0.31049142386972595 16.163717723451608 -18.389745878703977
1334 -10.639377461072062 5.076084687402969 7.2779371838198355
1811 10.283424058744716 -0.9732000366753362 -4.452824831451101
1209 1.9860310393511238 -0.49335856158384533 -0.9652625585482567
458 4.22779515729567 0.05237418269452932 -7.334828869329834
648 -5.537376414066183 6.113798464100995 -10.567445314842045
1188 -7.946685405841931 -15.579793579983892 -15.710039201146582
1840 -6.683611343252107 8.893531770186549 -3.682336860852503
1217 13.021743225873534 -3.2228733114587795 -0.9472230089811402
1286 20.200455025994682 -1.187655612072274 -3.1436855632753655
1601 2.8818547434186743 -19.46214246671868 -14.42087977352224
1529 9.222391690676895 -5.408608482670813 -4.890039020421067
1670 -3.536540673650407 0.1795246173285632 10.228222962260189
2013 0.8291613892283345 4.889343449525547 7.773084759138714
758 -0.5109917497114721 0.2267938961839904 -3.027799670714206
521 6.905546711168516 -1.1858827998014825 -6.283177399610216
571 9.584756566406332 1.9189970524049145 -3.264514707660706
1324 2.86767317428549 4.601511525358681 8.516224951134808
1470 -0.06604473535507438 -7.617641297055699 4.307139901030584
646 -3.688483959681006 -8.498350710358151 0.41633692059616473
814 -2.4093769425241263 -1.3441422421915492 11.014784237443115
1296 -9.735885048281428 2.96960373220429 3.4687572524422357
1548 -16.662124217333655 11.978609659217138 -6.130602816613475
472 5.604467060988149 -4.509347393315381 -13.425731115236427
109 0.8708065110572341 1.9894522207569532 1.1820416626770562
1629 -15.240807682493118 11.029018610861291 6.686043972591733
1064 -6.493968992719957 -15.632688075114418 -4.651733449315367
654 -6.699443779314762 -9.963698783083633 5.585058821543246
107 -0.9896125538396222 -1.6420557076839972 0.22476507097215886
576 -4.846812417626205 -16.54511912604933 -6.957913986096606
888 -2.248322084373156 -9.069709857080126 -9.920334768135257
1876 1.375707115621145 -7.8669390279665095 3.9693516918489857
1126 -3.4661438162930605 12.49805015098471 -4.399582746508231
1242 -0.3235142295048484 6.5630294647054175 14.065993104091815
252 -7.319363830134822 9.311742119862034 -2.8923318714454243
580 1.2444536609179289 -7.751979475195967 1.3222461264713126
1764 -9.416469436272756 15.247169812317594 6.128446429259952
378 -8.822169325343244 15.808578161691075 16.003107338096598
590 -5.7038396531566535 -5.316781686465788 7.836605324903876
1642 -5.812616637419642 0.6665613419397265 -17.081167592027196
337 1.8649856684061281 10.434093280424928 7.855752359705567
1148 0.5400617964944876 3.622735186476432 7.698927645361766
999 0.6938338027299704 3.12316997791434 0.7494777467479498
1375 12.447390384018373 7.326764250976624 7.600508532746223
523 20.846176426709107 -5.504001315013532 -0.6882308535040748
506 -1.164100593306886 10.993231847956555 -0.03203368713508544
1240 -4.677976405106685 8.25713814261536 5.735106626910988
1101 18.693893416184775 3.101761417409218 -12.987297319071759
824 11.504513477618739 0.7015779008419764 14.251041433768586
665 3.1121302384600322 6.459118026104858 0.5185866943180063
2118 -3.610877284713602 -6.960719464522145 -7.031946948330922
2115 1.2895839322226932 8.1277462719263 -4.258091363150382
24 -8.138712687055222 3.9812566965664122 -10.291197016698193
1029 8.907611632675989 -6.8252502082054365 1.0285218298921426
1278 11.776678956768553 5.821748152324642 6.823672680333815
1994 4.036917887823696 -0.9711474284391624 -3.024945411622349
906 3.829462584870667 9.292432739056625 3.918242449404737
1695 -1.5550767952944506 -0.015400663243724494 19.035691292695475
1173 14.471664120405974 1.8386546766655016 5.1068218240898355
698 -7.884184269031538 1.1000334670913645 -1.034842234516075
1389 -3.721929719482369 -9.616643573698555 3.35164329779152
1130 2.6176027771986856 -1.049077961410335 8.322388469541742
1662 -1.3925758455430004 -6.690002593498565 -12.388343303754692
402 -0.2473624363795258 3.9845964698291434 3.9809433383557415
158 -8.95040836076885 10.392457967259478 14.175326387051761
357 0.4053612455912641 -9.475607566527383 -10.746787860471839
156 -5.413192962574857 3.1308249704818096 -3.91043702429011
1610 8.10746282162104 0.13982294120014357 -3.7180691658036107
647 13.874583878771785 -4.852179352088057 -6.631849141519439
1299 -4.042148763097924 -1.661451973082075 3.5295269154246696
1675 -7.648539394835347 -6.465976493147755 1.4153865597088469
1989 7.9554598869270965 5.427454461457438 5.5463431607448355
988 0.7638350854447087 2.6154091029354594 -6.072459465757249
1109 13.708135706196265 -0.7034830036999279 0.9575115057569542
1416 -12.909570943617355 -4.374881447901403 5.810726195616494
363 3.367937420854538 3.2259840506332877 -5.465111198486893
918 -0.0957745442989564 -6.342212024197703 -21.360747216883773
1542 9.421054287227168 10.85102974617449 -1.5470618772707083
1701 -11.55512658983573 -14.773706940165924 -1.8298690146535823
102 -9.629800909854279 13.647331753736934 11.797002118923436
84 14.702494828401393 -13.856260790237208 3.9493612234239395
890 3.457098659543286 -11.25829284997427 2.332861348538266
2020 6.632855506759572 -13.14337072341235 24.607044652304683
168 -13.13106645777578 -2.0931453840657364 7.845340197722286
2010 -14.520774413422208 4.255023134679735 0.9170991536772156
477 -4.6645111117980385 2.438677092283186 13.151707080092516
960 -4.17924006625464 10.433463466541975 -15.444613698679463
531 1.4022841664371872 3.40016401485335 12.25995076939745
1320 -20.061296365201276 -14.600336808677202 -2.1054996699749817
837 12.610778197472825 2.748468007155805 7.259417607195919
1340 -5.682963044016436 6.623841188402372 -4.02119646162271
841 4.353477960054916 -1.0795466762595411 -3.204857611495851
2082 3.63785189193228 -6.821343670071813 9.221896913690273
784 -13.141293456885453 -5.936094785162481 -6.805225633944734
1796 4.445202623482696 -5.371013116142097 -7.410509703238324
1820 1.5125168859081597 -18.33637995976003 -1.0279190597591414
64 1.5951619540920363 -6.567878832412206 3.610923283582448
1090 -1.134486745394968 15.440355928176741 2.1153185392273186
1619 13.140010339569194 4.428135881756499 0.9416817297216037
2039 -2.5010102745666267 -5.1220663421628245 2.4016610125673807
1179 -11.65952274825873 -12.146119050500378 -0.2547036542390689
185 -4.456242951747125 16.451917682999394 4.58431754335452
1001 -1.5142777474169324 19.329308504296232 6.211727038867054
1868 -5.494710164753033 13.811573521270185 -5.775602037390466
686 -7.76980180571362 -18.54719957209346 12.06060403064556
788 -3.7533887579941134 -12.049626616113297 5.67403538674784
762 -6.285955885783628 -11.933439399642365 1.234978946022158
293 1.7020076358656167 -22.85449033308855 2.1641627713402176
566 3.394515835248338 -12.453117497213588 -25.495053157405334
119 6.754830405056727 -0.12669271402253704 1.003062738415182
1791 6.900247928308137 11.068909964425862 -6.052972113206093
1556 4.7984654471402335 -3.4622430474374957 7.657159922515396
1030 -2.0391023371165433 -13.71575598359018 12.635625417286715
836 -11.05316036659124 -10.711271318630091 10.539084540093063
1007 -13.868796611711298 5.892410502675018 -5.2413555401555625
1472 4.105668413389508 13.264215460393475 4.618597932175719
2019 8.548224435370026 -8.3715569153043 4.10897724056362
1544 3.8976160789012058 -6.8761660897857455 5.559405886746682
1026 -7.160430177672603 0.04909831732410198 4.856227384451685
597 -7.047377577074503 -20.188675424228173 3.329384518116824
203 1.2355901335809114 -7.993254877854152 -0.4587510966420937
1142 -8.509342459343175 -1.5994066711668145 -0.968885215667173
1013 -7.55001656716241 9.998467718482495 -2.235176380642251
451 -3.105223263494748 3.7545917459921756 -0.49585705756273724
1175 -11.066161780837348 -7.496241073632558 -6.025120046853618
1310 -9.252204902894292 -10.730275538684968 1.721850330205842
572 -1.674128882337894 -18.164206542806962 -12.626096942004562
2037 -5.897972758076211 -8.932924417193032 -3.1880225525647976
747 -15.815711340137423 14.62560099734028 -1.1940997904025952
620 9.559102843348478 -7.598246889088133 0.7068175501790745
1640 -4.906464668593963 -27.718535948547796 -3.5085893144808797
1974 -3.5917725341876166 3.539317404154771 28.759433886825814
858 -3.3056898693459873 -26.04764880071716 1.432574775264174
268 8.710806999591531 5.325715699399915 18.838204121621693
669 -4.1450219356820694 -10.652422544753973 -10.939317321347994
1564 7.224374516646644 -6.579188039533187 9.639786824334983
1004 6.897399542905859 -4.3292882573843645 3.6686153195130133
529 3.063689745588304 -18.031350583427688 -9.016347094033854
1207 -0.2816807401943323 -17.192777501947205 3.843016539694222
1970 3.01423281270558 3.5501892551817664 -5.259858886575672
1600 2.5061153223615493 0.8133964423204404 3.610433341976471
1325 -12.286543416599113 10.057994560657372 2.905578614253683
1707 -11.258066794667478 3.5279211699835953 -9.805359019834908
715 -4.314754155438154 -16.700756086992925 3.553092755949063
1522 -10.604469753264173 4.835815632226645 -6.945751987106298
424 0.021911900349026157 -14.484002126334518 10.196237503936032
2069 4.466258006136276 -11.863639666848453 5.703711751048427
601 8.276454358438986 1.4992586097919345 4.151234459146949
322 20.293535851308075 -5.135131397235651 -7.653863912837153
454 -26.611670658429496 -9.311980910935885 -4.2460102229540135
1198 4.563287979832187 -2.64772271813742 8.05414695587144
1190 -4.582429519050052 -2.6040053103132412 -7.878685262775033
1913 3.700384166525445 -0.46564723430658406 -14.821549434517454
1302 6.591540067179978 -21.099743528462938 18.44301449553852
1398 -5.236708914203715 -16.55197783376453 6.7772083054368695
86 5.942218907393255 -3.7833482010555315 -6.925781404323746
2058 6.878783575809422 -0.8625075353438167 -0.7993772929616133
428 -3.950022098867784 19.580438934194426 -6.959913648727322
70 18.005625090812266 5.251781864593521 -8.332936242988914
604 2.780963811961944 2.359728814234932 4.420190083310106
1322 1.6681987684037944 18.73115665988483 -7.918112817549531
1966 4.287409694329178 7.63770437034762 7.901822239381515
1463 -2.797264123349361 -1.2681040575408429 0.5697939322925017
520 -4.863346599776416 16.331094312005224 -4.657615690497091
1227 0.22236290403762884 5.4627301679482425 5.169592306583856
754 -3.491134254826471 -8.689844653191065 -3.539869621690701
325 5.950457602904295 -13.300393908411976 -25.013559516185833
1951 20.327204295239767 -4.680610216670249 -3.970597689713305
802 7.501756241233685 1.1859705006294372 -4.513813678778666
935 -3.0289744659385462 -24.573106354469513 -10.285064214109262
1630 -1.4470441252102824 8.764472504728293 8.27739679197702
1012 13.66631331934759 14.968089175492997 -1.4896690800958179
1401 27.416380632635267 0.12468591891185775 4.883102674750677
1498 9.04875366899433 -2.2860879127938203 -2.519130388830911
2 -3.2958052015682684 4.078958426649958 12.082946287817531
127 0.7219476744707342 -5.4828682584303285 -4.526390963510224
993 -7.218320895402312 -7.316938598406031 -6.509826493403878
1798 -7.651690245359397 14.050342949385431 -10.243122156533758
1369 2.8314169534102045 5.945182990710709 1.7870641231198057
2064 3.8644805728733953 -5.401582130791255 -0.8678229907946751
713 5.694130173064215 0.23159405517573903 1.5388451843586495
805 -9.221939121601453 -5.574838748746169 -4.700937900075865
318 0.04749234859183512 7.313073101155073 5.12740905450623
1245 -6.602063184410618 1.292190089478519 1.4765556322141944
992 7.2732820760231425 -25.94538768778006 13.36560886691631
2006 -4.730401415935921 11.476517396053778 1.8840412078403406
1979 10.211101305639682 13.800117798217059 16.134124147229404
1882 -3.985613256962767 7.995136961260091 -2.0954648253167782
1525 -8.762050952311078 11.061527768621984 -0.3119290168190373
1206 18.15660126073263 0.347993370107925 -8.835869401876993
688 12.941968896333295 -3.5620814077471588 10.727546406780862
452 -11.294676024043076 -4.505304474466027 1.4762049582426948
1477 5.953114967644019 10.128886923726789 -4.840977059743067
1277 -7.380078576255236 -12.543865395364026 -8.07728248782682
1747 -5.81984809412717 6.226337124460011 -13.89127951517867
1191 -3.3376800796794814 22.957518917361476 13.17431054084793
538 2.767617750035294 7.988868170213849 -16.860659043131157
1355 3.3552688367874026 -3.597229163601501 -5.771904405834306
2133 -15.072425887909679 26.515200724446938 8.104959208696647
1176 20.261020257312303 -13.393319664413585 6.05300987585768
928 2.1361253749724387 -3.96854402407426 -5.938580844316318
1580 14.372670711119522 9.317865152093585 8.667015942210726
1789 5.887223125228595 -6.683043364324379 1.2621654795127
1113 11.174102019087327 -0.15045932462884307 -6.593728900659847
1102 1.8411544246457197 -9.539088859011521 18.144138992808863
2097 4.557278491984239 4.068255813044285 2.456321966026058
1080 17.097933804260908 15.344647248862508 0.5987708130870895
966 -7.022139249402923 -1.2624066015515705 -8.463134216405132
614 2.3282358003327572 15.142186565790823 2.8801456671098484
1971 -5.668635411623906 -18.24763051833291 -10.622958285385653
1931 -3.9793480654531965 5.5030744233320394 14.827869018727554
1541 -2.694477452729586 4.024288279967287 6.441426234319836
1962 7.808225803559566 -0.5201683236233736 -1.688731660329433
721 -11.530210730351936 -1.6205971771731762 2.22358470994641
896 -15.573981411656717 -0.5375131392936712 4.1623174340811895
1694 12.368450720522999 10.186583750674373 5.0826699600255285
1152 -7.233515486034023 -11.643757009172171 2.917534071050839
965 -0.7972034179015156 -11.704296735376031 10.539567092259594
628 -1.7827178107716453 -3.1406603112326708 -0.6703210575553753
1617 8.60647746635487 5.312677275228307 18.60245020223639
1077 -11.953370076961892 12.583309650988017 -21.179765957078082
830 -6.710088322945633 -4.72843969174412 8.505835490077517
1467 5.93858976300465 -0.18233795462847335 -2.0808623804192816
704 9.426075677535858 -1.1158838848459698 -8.279726827240843
846 -4.239389750108996 -6.7113834924671085 -6.4914330402235745
640 -0.8129707071572898 -2.7082352886212986 -4.163057917055021
1049 -8.13322023500727 2.1063859111327377 4.138544530746871
1247 -0.7433599253734254 1.2274186171045416 -5.211114821797295
1246 -9.5421124805805 -3.7835938206234077 13.48510914452359
1907 5.18516435758808 9.086824143760762 -18.685362239228393
1273 1.1993003252082952 -12.987499725350917 13.843996683914655
844 8.468610321584118 -3.4622805925019415 3.236171533586392
679 -8.63221112510091 7.350454006804194 -6.817676334975973
1616 -2.205140139180335 -8.009163254462056 -0.10067824903491195
764 -4.807835793622174 -0.28526984257638505 2.529054211104151
871 -0.14714695853555657 -20.884459907635275 -11.758186288489691
329 15.448144204189946 -18.189350436562357 -8.803908599428262
998 5.416290285253935 4.70173756636396 -11.105040482557532
1622 2.9289002877086436 -9.387992823118996 -6.789813489111664
672 23.244086736340446 10.637515556710559 5.019396581313789
1473 -17.434510013932417 -6.5913820589821475 4.6444924522286755
270 9.582233402177838 -2.672441358804862 6.46682034707859
1718 -6.92699935961051 11.97794349087983 9.5448762534019
1805 -1.825092999170024 -20.262740928623508 -16.127737941785032
1396 -4.221017123244412 -2.7613687287125397 1.6194384508593185
1739 -18.772945963040225 12.995691189133673 -1.9631514173590534
554 6.295425976729898 10.288803662679303 8.112017316640868
389 -11.533814612820047 -9.121453547747011 17.182348966292572
164 1.4194049874219585 -7.095144678194932 -8.585634474167696
1505 13.465808396482613 15.17323574404678 -10.814765379664866
1291 19.079788594078867 -8.609778697220545 0.8825553135790135
1239 5.838344436741156 2.9182174607104745 1.0511354902526795
1005 -13.95617535522053 0.7288571066700102 -0.27337865949500995
39 2.4975296877813356 -3.0291949350918785 -12.257908806299067
953 3.1454647096321104 15.554102672838388 -3.565358168954407
1112 0.41608790842415033 12.183090797492817 8.777371625402017
1143 8.109338195302612 -2.610707275245932 -2.655487923286346
478 14.767521358717568 4.069935622720587 -1.0243597775881836
491 -20.94480695673095 12.675465289519597 -8.427831635122045
1371 5.850771206640758 2.434040250129933 5.9857131815347495
1410 -7.207481160629403 -5.565344393191554 -7.188268672773828
532 -0.3816950468159686 -9.044334319317816 -3.2382227483979777
47 -23.750310124207314 -0.9776909341529527 4.489665982670765
1025 -15.093055870255053 6.827034507364896 -7.128226199086152
1409 -15.059390525492503 -11.138586055396114 -1.304624564959376
1499 -2.2391983835259213 -0.8183570972291846 -2.7510774715514237
1911 11.191094295984891 -0.07895458079718523 -2.5812162746052345
1184 -1.5944434488392132 -6.084880294360753 -16.336877441376515
176 -7.274980119638436 1.9873946299110117 -8.892213821378016
1777 3.5226547082292945 -4.0690350998515274 8.334190166091238
2154 -6.283074029127236 -0.9269803558224575 -11.48390399820736
2080 -1.9086708725150046 10.591825656170142 -2.8908034674388046
2096 23.566901011073696 15.296030383983895 -3.3255549538707947
1110 7.796428379619946 1.9723673527659966 15.759793268775427
962 8.579898017729066 6.164890402582096 5.813433550083585
1942 4.762922285605276 10.534688403511254 -0.8431856616061215
53 0.3575258176886305 -4.542409783213696 -14.247960104365934
57 8.076108301034854 -8.700515412314305 8.791029499194687
925 6.9686836135593735 -3.869324993686535 -7.222356354685205
2045 3.4799426173404773 14.965664224003206 3.099832978546907
823 2.0574369739514546 2.481683087889293 16.457060094135212
913 7.907615218593258 10.089727213701883 14.416044266274826
1365 -2.811288754856667 -17.596313787416655 12.565325432152855
914 -10.705225248354141 -11.305969320792558 -9.548141715398053
1019 -1.5212027357149709 6.975034749620896 3.2570451349928304
23 -8.37096437146183 -14.937277299384808 -0.09287399478090948
1213 2.2434069276186133 -0.4207409837739793 -14.382962059884063
695 -5.079216189527279 -0.3990735614260802 -2.8865803441122693
496 -12.666636499554777 19.11582970501437 -6.078545836100447
1349 -2.562119766163364 -5.600057483642593 4.6822552965757955
970 -27.462339625516517 7.069385637811669 2.2400747796396425
1587 6.617379622663627 -7.890189176586606 -9.610703540537232
1998 -3.2593815798617958 -6.44362746359165 -1.7097669631272694
1655 12.71221442075265 6.028287849467621 9.716571811461154
863 2.897564933365379 -9.695074477408674 6.3435938117341095
637 -4.678667887652816 2.498271626343902 1.8791355413527968
657 -3.6161615175132797 13.031309208740758 -7.560220044471215
361 -5.3993237410896695 -3.0447201553960657 -4.266565577468756
1121 12.549378130890771 13.249268557674878 3.971425674807551
32 -2.053897960708209 -1.131527550476483 6.415685813329902
1788 4.259603531389771 22.51391493196836 22.794515570077635
1659 4.2200848763131065 -1.262950239944761 1.927585378802931
860 -16.10915602627977 0.4474278299014268 0.6737326933439871
2073 3.352120070421928 -6.375448619794389 -2.834956791656868
653 -6.932399495981449 -0.287965510911383 -10.429000289762081
1822 7.500504794714193 -11.86759541638607 9.107510913301168
973 3.3071101605981714 1.0876544437024058 8.379168742990265
1692 2.1976073701568164 -18.717426861827548 0.12553714858621692
1149 23.191029610483007 -1.5240220203753374 8.782647264315637
1769 -9.413952437800829 -11.099541743898818 4.802386372666618
1910 4.431397124004709 -3.307766822602691 9.638158221409194
621 -4.320183310077852 -8.946927653587593 -21.469256137796528
1208 -11.305487455908231 -4.960410287157374 -13.988924993388467
1637 -0.12267134371238185 7.08474046281568 5.808810228035905
1656 2.8458018567039325 -12.747934343068756 6.698330603011519
1066 15.107671326376805 -13.932289703807598 11.23236728148342
285 27.75851643303206 2.8827998814022573 6.343753671983861
1765 5.021844873682997 -5.915179799393468 -8.867940166076396
778 -10.555246811634342 20.94413110708906 6.727859387751824
777 -17.359780656065123 12.955467024168604 7.03485203173905
1082 -7.26772167481151 6.733159180583743 -9.959103590128507
1535 -6.952266499058905 7.111867643261447 -25.204704302545323
1627 -6.752464537432257 1.698703703808343 -13.752828090615989
1168 -9.898533494120368 1.516466437523102 -0.8182671491290767
1771 20.32130429153309 -2.1394964216202825 -19.64903017133727
1406 3.532643211355286 -7.86364674680247 -7.642660701803666
1929 -3.3516761682462652 -14.49815950813689 -12.785626943320933
465 1.2551746553080174 -1.6117840661293585 -7.2510217104640065
611 2.2281665007840195 3.1529345358289826 5.377268010184737
843 -3.007758335568059 -6.619895661828462 4.002850370864424
641 -27.581584536579324 1.6117613804090378 14.517039831248194
1597 7.8553468283707675 2.5034760289569076 12.971960582920522
1973 -2.990279559321098 -10.268104639577343 1.170426181915693
1934 6.89444563491932 -0.9737407545649618 3.5895638068976154
926 0.2121494999652739 -6.378396031321598 -0.02061394848737608
885 -7.759058656827594 -2.5526087167424176 -9.033417081657813
1487 -5.9716220428461675 10.394892838969136 -14.49078682216835
1651 2.1901641865938006 -0.8492295949760633 0.6186742776702383
1493 17.29673186818505 -9.449762083436989 1.3864427899496286
1458 -14.616779871222295 -11.134704458445295 21.332395037268306
1378 9.552485538106733 14.013708576760092 -7.716352871197525
385 1.8911880624400768 5.969233436808494 -2.337780703820485
371 -10.310917844586346 2.2291158935979816 -5.03954894554967
367 -22.673926834173393 0.7453407079594443 -5.843583955953878
1623 0.8958073477636422 -2.9731287887221707 -3.9534542789908222
1986 -21.0874412096177 9.303890332165032 5.277170435539894
124 3.327910418539588 -3.351406018721036 -7.054826444296428
2156 13.14851385718497 1.6590133492055503 10.490939209219954
1103 9.72184355179246 7.760011891798339 -2.2822352517893583
736 -9.882476932773848 6.715563070161171 -1.1727288156126237
1294 -18.719001511263908 -7.337035458371976 -0.3725785934406832
1494 -3.2597504082548654 -0.21947721404170384 -7.933698819543431
202 -16.719374658308773 15.926366981691926 0.74329710461613
1594 -8.013935942842883 4.6993405457642305 -2.394423137047055
508 7.265430092438845 -8.302054808592105 -1.8504183870015203
732 11.745449156252967 0.5543465321447129 -4.747649916334622
1734 -10.571557505757298 10.262667068487534 -7.181057517445878
74 24.76208450491223 -1.4559883798929372 -13.379776899832619
2003 5.402482583498121 6.823757683280643 24.398798264882195
937 8.838362609296832 -10.960373621607763 -1.3533090174411686
7 20.43623561892948 -17.49606329015971 -11.966778062941255
1736 -5.905050541171534 -3.088792283332157 -9.35243748995979
1060 0.7045707168627268 -2.6955343505998894 -11.914405661231129
360 -1.657624524423101 -12.873648715283311 -8.08047367106608
1212 12.785156803599472 3.020278605079141 -13.161620590023665
853 8.246038850476754 1.8955279036354382 -12.326130408118544
674 7.625067785592722 3.135122949568313 -7.299890606332811
1854 0.8956602597497233 9.475156823411728 -15.788223920588639
2129 -5.213640665520794 -10.69980370736663 -4.0206867126192565
1036 3.866403813589143 -2.698992317508623 -9.93650420844251
1759 -11.268303672280245 5.697454578441496 2.6148593242882257
1385 6.076600346606528 -0.24328946406902113 5.890131589994063
1448 -9.119813798480608 -4.206222269782417 -1.096177311521278
49 -5.899171222721458 -12.053659218551402 -6.354965882702571
714 -17.582318145803807 -2.132303265759229 4.421945756601454
1404 8.513531066996594 -7.714522141460103 -14.010722559092246
1205 7.116264901675298 -3.865664845232275 -10.602473522958114
976 3.474944469081475 -5.828005455238552 -8.96524378038666
1953 -12.654966300671628 -0.7736611856761685 2.051423477119374
878 7.5614914841659795 -2.2064575492820233 12.858131082647395
359 13.681591634706889 13.226447991888834 -7.50173387479357
1507 -8.208499913310105 -5.066797528074498 9.335851360092672
1697 0.8210650979840235 -14.27141592150805 -0.19766988406383892
1155 -12.750505582989488 -3.97341509778632 -6.317182296935753
617 10.818075773507623 14.491973838970518 -10.159533809740124
2128 1.0750090513573487 5.148727437866708 -12.51713533972828
1356 -10.409456369656677 -8.170374316535497 -4.095916440100901
1614 8.992728322760389 -34.2042485925017 4.660885238346261
416 10.294824332628034 -1.9475301037140653 1.1592242862229771
1283 -2.8550169729849917 -11.66297570088309 8.980279219681346
1443 -2.812591500059452 5.932685791708273 -7.196483837619206
1613 7.313004870705248 16.201626506006274 0.4301330175204349
54 -6.639422923523598 15.863786806939071 -8.588339534303573
1800 4.186689321163024 -6.151546137766167 -3.852747215473248
613 2.1832780240971235 2.190251734586943 1.8083303026914581
142 -1.3647071412728604 -11.601293862883635 -3.496933099609887
541 -4.643834876835367 -0.26645153072792044 -4.324087857851566
1335 1.3405573508506137 -10.671754209402092 -4.0082092036152295
659 -6.281050001852031 -13.62949496004925 9.361318889878298
664 -0.4440287419836327 11.055683412769431 -7.2994124312478315
1869 -9.081955345362822 -19.37096638040789 -18.777686613738584
214 -7.7614023258929645 2.9392573941139433 -4.629946268939655
1958 -18.04698336299738 1.6894839772059325 -15.907498111531824
1044 1.8292600402887182 3.9116587814836783 9.39338401266317
1153 10.800611714286335 -0.08514492598075489 13.865363987501633
509 3.6413267444249926 -0.8282568678729519 -3.524395690451822
1238 8.776218532078259 4.000585545304251 7.443744477338098
101 -8.51223876880641 0.0014832159278530231 10.720332600067849
1676 4.326867034057037 -0.14422312562209266 21.075607572796073
2122 -16.417298290564226 30.016414666897564 17.68212280475164
1562 -6.336152501931762 5.270951450265619 8.172712488470829
1282 -7.3396916806443615 -1.5530758437703207 -4.930635166440309
1180 -6.0617394504622775 8.68555419699616 3.628975659921126
696 -11.584157647482067 -12.531687242190397 -4.713052016978971
2152 1.8261705818547007 -0.30641870918729547 9.27677579962144
735 -7.5083242251285025 -3.5501646136996494 -27.94024237817281
1017 8.959726573235441 -6.83490819866882 11.952410208160966
1135 8.010703572219949 3.0578609977158955 -12.187469334027584
160 8.259278240674325 -2.691975093767188 -10.374483100959743
932 23.446295415158488 0.3432879541793254 -3.1731298056127883
1428 -3.5219036149794225 -2.796283176614137 4.405725997362462
1315 -4.103832758401212 -0.045638779063696434 1.343422086423578
1459 -3.9158191544033283 3.9849611590168257 0.8425980468289429
1528 -4.643383606730562 -11.72295783968786 1.6059670979874348
237 -1.3357924693820695 10.709081076905862 -2.316174835405544
374 -9.505309790355767 -2.466959278345122 -12.016099987049024
776 -3.6302101971434575 13.867781275472534 -6.3531837843298655
825 25.508246484008463 2.9633462128294696 -16.578749573431736
118 11.400478442590437 10.64496675885714 -2.334059115976527
1784 2.7840364556967585 2.059768639485622 -8.347270942607656
193 4.243015485876877 11.457364063922121 -4.003828139031132
1838 6.950447100407897 7.073584694316767 10.317327590573402
743 3.637659333378188 3.0000849561764795 -4.260140739555065
474 -5.895991362310966 15.165309628150643 4.448784737754411
1969 -8.097984761033374 -8.423830927361434 0.06355653715394917
560 -0.39934522405708944 -0.27661584958892765 -13.54803064756563
15 -0.4004525368010181 10.147432854195362 -12.248145933953097
1858 12.236563196906232 -12.462778032261195 -3.716794764498246
1778 -8.276945661169089 -9.81389686008753 -7.664861625031008
1999 -2.4758980483391655 12.904116615823652 -14.33757595745653
344 -14.664122695476786 -5.242674455397529 -2.4108120229838708
811 -3.6248845083750543 -22.234190679342618 -10.446454435958366
1832 -9.447033761717176 -10.603510437123564 -12.203062710955598
304 7.826656703397482 8.318060578238013 -7.969876877121169
1939 9.016747760979117 7.94980575210603 13.930426123092639
209 17.119783692904594 -1.2678098256966412 21.220112475602022
855 9.061272922619613 -1.427363197697872 6.573695955687687
1022 6.9836250019568915 14.499426175199629 7.8558283896326335
1199 5.414910495771127 9.620819116952296 10.541840045869002
126 -12.306543485225943 -12.02571242011498 1.0268445784980607
2134 8.86649201773444 2.1734028701681276 -13.15663059123018
519 5.161774605909825 2.090835944830114 3.3027913160005657
1738 1.5325324360501247 -6.876797368369554 11.13292663853428
171 -8.284773114972479 7.209512868656085 3.813401971608827
2120 -4.3224136121258585 -1.9957859981772337 4.691563124925677
581 10.070366823925927 3.267484538990636 12.118118453452842
616 -10.444296611091252 0.2992580637677765 1.3161090681382674
1959 -0.5094732269703929 -10.25669278792559 3.9631714536771487
2051 -3.1341694531007125 -21.630789138697253 2.829048985470621
1073 10.454049407758498 -6.0397863820087885 23.499892414188928
1492 2.9224030371701364 -0.6282487141537961 4.52720624668353
235 -0.31412251136275576 12.04405213100845 3.7828855100044185
1905 11.276876378804426 -1.850592407280495 -10.122589476540302
1503 28.385915540986247 9.504402046925522 10.235740788295107
1834 11.26033274294246 0.007731428148261339 6.082419618577473
61 10.245691179271693 -8.54621391980038 15.702983931583432
459 2.774433940768516 6.8496772376063575 -2.538853114659497
668 -1.6622744254624073 -12.411122611716017 0.7334374297513454
1079 -2.3230834408753505 6.870767866328759 -14.05372257732582
217 2.2061705078893312 1.9372823168826836 3.905931596994875
1411 22.115526784936154 -6.44971340080234 -5.397833166196884
335 -10.199831795496749 -3.8702516348672305 11.225269907143469
370 -7.8004829740352415 4.291114173247433 2.4940535844489604
1139 -9.239829035027737 4.816525579727639 3.725769241515783
387 -12.491331495406392 6.564481305943385 -5.906736811825727
1745 10.947453502417776 -12.50247467999777 15.151742079003158
1141 19.022858189977157 1.226959837298217 15.683750248996764
1915 12.942737679298078 10.10821211277455 -0.6045318820027216
13 13.843489375434206 11.502491798834109 7.051150982696864
1908 1.7022447275457668 10.992507931791417 9.263169894904484
1709 1.6258872346275808 3.7635242335786736 -5.176349535566143
2032 6.617653549483146 10.016980350978601 -1.9431476614457994
99 2.6812189549899177 4.246896234225004 -0.9170183939924914
2057 1.1843280862668577 -9.768160462630231 3.382438663194359
251 -0.7426925805360447 -20.646736293782617 -4.257303037383187
1403 -20.081498449442172 5.762567323021433 -10.766995483784441
2126 4.542629456276317 -6.321729306298074 16.710156169570755
29 -3.461869848935174 -15.340108896161846 4.92081282868465
1839 6.148481469540606 5.0196208469531305 0.6360279881515326
1450 -11.639315392956906 0.2185810566201399 -8.617609348344889
1249 9.110552134650602 -6.84207094342399 6.360287906388869
2027 11.663079446694404 -0.5856095953045539 8.040478984125675
1938 -7.399105671280602 -7.036138083695151 2.38153700002975
1540 8.142473317804594 3.900451359356875 -14.207011457445907
827 19.326856612725724 -7.844102817971305 6.96993333519362
1308 2.134422533182407 -11.564732361928346 10.62437247954276
1816 5.411617005047798 5.569677545340738 -16.189978365791948
1880 -14.417743381273139 0.4396340999210884 6.844551581561747
1818 7.261715207330098 3.3681546220302465 13.460193476138656
623 9.214270288112976 -23.4889060249341 19.70904365279145
786 -2.4150273271515132 10.673578578492624 8.221487940964963
1491 8.031141558710999 2.599159211369399 -5.613757193566956
1923 -2.504565082507961 -2.6658301993218103 -2.015722470314662
1665 -3.721074173811947 5.937911373223433 -16.539514264190867
1960 5.914033822620136 6.997914977603487 6.261725999686096
1181 -14.830803927460616 2.1304291816695153 -5.451080611068444
951 9.26618650731154 0.9793650633817014 1.4115423603605532
189 -6.0646535173857306 7.517839518208645 4.155029366845104
1350 -6.031120723564563 22.54250239474615 6.577948557771971
1766 -18.83991740872275 11.584039085075862 2.963146163702933
1028 -6.7621749608799036 1.5960661712947513 17.341240759028203
2060 3.0847233501502673 -17.552457438918747 0.9214701197548938
924 6.926724007379278 -2.202771404145639 -6.621011348243613
707 -10.239838561649183 6.292434923857951 -3.6853795515357026
1083 -1.746280266342308 -12.581249932978295 -4.891867008311622
1842 16.532572440126174 7.545445627431686 0.9761778372440688
1265 -7.005239704180016 0.5632477014339881 3.1329548174143897
1768 -3.700593373017921 3.94004382669175 11.207440987511536
1926 1.8751373924435208 -15.828596272369431 -17.24937000906685
1321 5.9228627494663675 -13.660262222785722 10.365627163280116
68 -8.32136203118171 -1.6006807493793116 -5.529522703088504
55 -2.630920042261575 9.626342179630111 -9.577664944555691
1096 13.554394246999989 -8.244450535168511 -3.124565745551721
1819 12.23996805288371 -3.4726360940142027 -8.84526376774769
314 -4.72898596481465 -5.953522159927547 -5.5292835662252875
1809 8.89150724493755 -10.02072834417878 8.346986698512406
1808 19.78712937107328 -12.728448994619438 -2.8289220471437444
242 -2.5607105729767636 4.956869040438648 11.905617832521683
1440 -6.763236630766554 10.589694037382053 -12.86274765156292
1400 -6.921193924246384 -5.620032540914769 2.278431159545999
902 -10.611653726465097 9.009751019850201 1.6087924002051228
1712 0.37346300998601906 0.5508942458677001 11.235621966460043
2034 15.605166725171607 -0.048404764013188356 4.585040486004581
1479 11.170540314685647 2.32124936786125 -4.727295499364298
108 3.63046198222256 11.257054003420313 -1.7920818626362178
612 -22.304753761831076 -7.267146137981776 19.507152134727153
1648 -4.580437654389487 -2.7489639154728063 -7.595337351349929
609 -8.562280249696922 0.26338630096982646 9.27984335017634
1865 -1.052114185562278 10.336747682866834 3.6781675694053098
1903 -9.302534447230018 -1.7605902114671068 -1.7675186189138319
291 8.892803807857886 -0.48700213817415905 5.219281073994373
1581 7.999953448297229 -11.915688838162115 -25.82490902083023
207 -6.483138801418294 -3.600934650142814 3.9576588161145123
1904 0.9411755968087381 -12.37271210414693 -8.839072419716455
1680 23.158291944764702 -2.9388936883487227 -10.389576573893477
627 -7.829550544792052 7.874958306059454 3.9080897482520105
1485 8.331559663036971 -12.726562821306306 -8.14893157762427
1874 -7.444333756928491 -2.4724795103860164 4.211034926685936
893 -21.610216790849364 8.834244570611961 -2.3624577639799558
775 5.324806883285899 3.360049675107342 -19.010041724386394
1886 -1.2923343887727665 -0.19530471904108473 -4.944905302060969
643 14.483554434037659 5.253517928435376 -3.0261417381890143
537 10.763499073043382 -6.98904263796252 -5.635028418899602
1038 10.045542242232548 21.2798816699569 32.27399797464807
676 -2.111236674187263 -9.983391883132997 11.15649710784316
1866 -1.7140551736658687 4.792716066689981 -3.3553967238195455
178 -7.236046188895711 7.229328648597221 -7.072768013987316
1418 -12.020727374787638 0.7376664210532181 -3.292572000834876
2157 -0.3609925150911477 -4.775183698816113 -1.5407067835922992
1956 -8.679641104541847 15.977643553760222 15.495529496242082
105 9.404142171748635 15.237860274227199 13.923408869370066
757 4.862830628421582 1.0360018427013304 -7.8389666357152805
1468 -2.053460594436301 3.8012855536148566 16.32025510877575
1857 -5.654534099144954 16.92209602017266 -3.8454517133741133
833 8.352625185963106 -6.6147180274221835 -7.100030869545738
94 19.876217899651955 5.287271756077909 -14.883850511025738
589 5.348572575059443 2.3264326544311364 -0.0928010334295639
1520 -18.95741611806249 0.4834454141472735 -15.778517146659397
790 -5.416719538580731 2.57108818510427 -29.33729527546252
1873 -18.919983794830625 0.5611364293886038 11.968478604818152
738 7.107958943073265 13.159484464860826 22.053064484077687
273 12.968568170496745 -16.902960305731213 2.1707906086699906
246 8.267654832476596 -8.566402503336583 -14.66717785895735
401 -1.67581238235132 -5.739342283041042 -12.964262256761364
1309 0.41468911194779423 1.811930330677023 0.6712711212443071
995 -8.372733721741817 6.3565097178856504 -7.57813711728017
934 16.451102753045394 7.0389114555875505 6.765598165861546
1338 13.651708855659898 7.7268937612817 8.103015930104275
494 -11.09311381333779 20.508345258816437 3.7531494229765694
2132 -7.499009232107036 -6.96721989080962 -0.7410682451892014
1146 1.5378464078507932 -6.790410878087185 4.470414558985262
1513 -1.088295326857965 2.179836652263022 -2.125665989482842
131 12.742807694338865 11.995939416517365 -6.0301943118351256
840 -2.0805904325186995 2.3247280785326825 -5.349374469804954
1735 -7.696349181293381 0.22348215710803382 -10.569508781197943
1813 1.1828105847248642 -13.847477437324127 -14.296919066107371
296 15.872484073605511 -6.932603123614738 1.3876467439477258
81 -11.433259123169666 10.839545129311924 -9.815539305498286
2054 2.8324596494886665 17.488011546166206 10.099861628286535
971 -8.967584610853576 -16.548858106234455 -10.420317114305655
79 14.236917008085724 -9.114237368265613 -3.0039381748832303
375 0.6687920430548172 -2.8256609506246977 2.9449929629222686
810 -3.8799203697776274 -5.573661194719008 5.275879833338133
575 -5.223469167566373 6.286687850319791 9.710181198821324
14 -1.7210158078494375 0.7782432206191812 4.152586457190414
312 -0.6245190904310324 -4.5633728986553574 4.477848336386253
1546 -8.521563732876729 2.822884714013358 -11.802989671478635
1850 9.07225106367508 -15.741561051592265 2.101507686088095
835 -23.495673529911347 3.9079769260641517 21.523862186561498
602 1.6087047692117131 6.959857383587978 -5.703034530452635
431 -12.216954184931405 -4.579518860198611 14.367067919810326
1976 0.5651248941221099 -3.5491438559606543 -7.630252987073808
662 8.813736847317873 -3.6222806165028167 16.29323443668804
274 -13.93324669393664 -0.9961264345649787 -1.3332703008623288
1253 8.235775745633 5.014375004198593 -12.607638849835386
1947 -24.732031715885906 -2.6128268184813916 4.768542108067747
332 4.6140761993408095 -3.915840740463021 1.8834283073400493
1392 -12.01867435012988 -10.435554476564876 -0.16011806217469496
75 4.943400258862487 -1.3337398715293198 -4.050250167198939
1641 -3.423637841253176 7.726398242227116 -13.572068424957125
2088 16.321814435920594 -12.95723710232744 -12.99464308661724
2000 -14.485922794219082 -10.558758103666094 14.557284206289257
2106 1.1782800376181854 5.871785791146141 -0.7758170738301123
232 -0.8489575213576527 -7.343162230307668 5.198596316237702
1737 -16.962995438962952 13.57992547944721 15.291863318865067
1849 2.067061271936232 6.803774793884479 1.1422877122453001
1571 -1.5194786115843186 -4.462269298904491 0.42108418711589357
1856 -3.302751286691406 7.109572818921162 -5.175841669526756
1300 1.486498217994763 4.968710929683578 -4.576496217193684
303 3.831648557400637 -4.602834932814695 -5.555922371511199
1421 -13.429765577857102 14.782197506941687 6.300564800897159
1046 -2.1336044671315877 -6.5456524032183525 5.936999156632427
882 1.460834061415766 -12.983510239545883 4.344964673477708
1599 -4.578813894976313 -5.933887656353837 2.8030853360700805
179 1.8870216908996638 6.531332482865763 -1.8021838943176514
980 -2.9064024697552218 2.845355070214606 7.344469923062333
870 -6.537468810016727 -14.317837543722629 6.814100596770337
1859 7.275854553362754 1.2424621678087278 2.477366524030128
2068 5.019893891515161 -12.11270299407046 -11.478867654672264
1088 -13.728246711473785 20.860815325765998 13.145843517150043
1888 -17.1943429068108 0.6603203465765798 -4.261799658441985
922 12.08501474247497 -9.888460168480227 -9.210482578814117
445 -0.9815218028598025 -9.707211671280449 7.548697955490259
1268 -28.084577890914133 16.494682434742064 -8.56096985161025
1687 7.213507394500444 4.293198912209305 7.5498670663239
1323 2.333957974239943 -8.55720637366324 6.372833374773293
804 7.162239174168188 1.7808973839302438 8.218529387528367
1547 -2.536475182054782 -0.5140838377533116 -6.261951149036079
1215 6.334141514909861 8.614312053706541 -15.321830350086216
2135 -18.661938465515536 -0.4432283504929994 -17.79754475777334
213 2.3231910147986103 5.420401218421402 5.990009610311736
349 -6.9142813695435414 10.561670438388019 0.6896393599774109
873 18.039273558028786 22.732063581493673 -3.083254237215758
328 -13.580228126073905 -1.6861724618311649 -12.972458683697026
889 -7.201110522744666 6.801838615570616 -6.81525435991156
546 3.781613065729013 -4.7299107586961044 6.416368454360973
151 -12.576308025430992 2.09735095390902 -11.119963744601137
1729 -6.557908813762303 -0.03607071356242869 1.5929647271139138
1230 -2.8080899335857077 -8.680974746397139 4.014698208674437
133 3.0038920552794326 -5.943314789545163 4.247442842816679
1639 3.8095256691655854 12.837959028448246 -1.6440324089982032
726 0.16451321080351122 -8.52744619127407 -0.20671489126055262
955 -20.16886764792426 0.7670507697313613 0.8305876696566143
256 -16.936248412424757 -10.580745353854917 -0.3546190913610608
990 -9.594666411610875 11.117348237013822 -1.599697343827484
241 -6.192479271349104 5.94695132377242 10.54635639198734
1930 -1.7382601523725056 4.239899183374908 5.400293689685639
545 -3.8626845219975636 -18.946472331495315 23.51777778465401
266 -8.291418794772392 3.84521810673733 3.465189776601898
680 -15.768489518696938 20.77027136290275 15.439710638932581
1311 7.45582475739188 -11.735497429460363 0.5183366033443312
1650 -2.332721644629031 -5.090830130255727 9.827190870040758
1748 5.8444395669087825 -10.206513274238208 6.244503101558694
1517 0.3122716395616936 0.9303727810929243 -0.5220432486293026
11 -14.999829085346228 -9.620731295763646 -11.76784716369133
1287 1.2757156587760758 2.6022648349092448 0.4334197380172364
536 -4.927959887135798 9.307150350353572 -7.6008505166362035
1943 4.208143122190737 -0.037728952874140756 -6.5218988034097345
1814 7.854858559167662 -0.8572775701980045 12.584005152601346
1719 -0.4723687080656749 -4.135658725861007 -1.4671736432063611
2067 0.06752565849570961 3.8232245557124935 -8.912721072138094
1763 -1.482459572273538 -4.710642178526724 -7.1415792092564505
1918 -14.467644422062838 15.430987335923833 -7.133635465394531
1810 10.827800256350173 -7.64442009931687 -14.47869141206007
727 -1.5400269646659592 11.115633674518604 -2.7840143130513777
875 -1.1876831857785664 17.593829228233997 -4.715051684295616
1358 -8.094896917334605 7.680385237553643 -1.1073977108864943
2023 0.9049477609467005 5.298420122458365 1.600705474467003
1068 5.65130151232288 12.766169626635351 1.4925926040943571
146 -16.839862937401065 -7.745021171452285 15.2222770822467
1922 13.517177840672502 1.1876175917533136 6.903910312170931
1255 -19.256512171610733 3.7228801251631314 -14.187238601711734
525 7.985065278923441 -0.5641887653169663 13.816137489011572
856 15.937543870781584 -2.7801130694353877 5.48597450457178
1618 9.456753504460462 1.7452589726411754 -10.44629493719588
1376 -3.9121158935058493 3.8611350845681556 -10.765561898747704
1746 4.117237511195793 -13.269019060795403 17.506959284278103
897 -8.575656838257743 -17.925129772678865 9.509855925233738
1720 4.245851233255721 2.3688991477498527 -12.783547876201006
1059 -12.103640976035111 -6.596457132565703 4.323181325133149
480 2.0682409624392024 -11.128131744268106 -4.099569178939947
492 -1.3602109602090915 7.871376411641738 -1.8353895885822824
1872 13.105705769594648 8.271882783305049 1.4874417278913443
959 3.183028767133333 -10.447756742995969 -10.371640123922075
1348 -3.584762709847378 -10.954487340457357 -3.2067163355951167
1961 7.257506346829049 7.018923415148877 10.528723285786084
820 7.895856042483641 -3.5188917477263817 1.9883126778521305
390 -4.428716951467691 6.047397995463407 -4.782106730162997
501 -5.210015205678783 -1.862600949398483 -2.0788465127899114
753 -7.889311946750787 12.482565284642975 -1.7689229803738762
294 -22.868597197171695 -8.637717378728047 -3.197658341801371
1395 -4.538059048300636 -6.708204830715911 -1.233813043332139
1147 -4.605790164548709 26.163446234867838 3.159946891179737
1431 10.355617898543796 -8.785141967989208 -1.045051357267649
377 -8.630960790633653 -6.193954404438683 -3.243718311587677
543 9.32676370789491 6.2576713646959155 5.239070129304504
645 -14.342287889533244 0.18736562803010834 -2.5015097297084665
2035 5.780143840334265 26.742371195045184 6.950569464280013
1425 11.930932420484483 0.10499399687244297 9.056684973392953
1576 -1.2246521349711834 5.04217668405205 -0.15771146099601285
920 -13.421808375569208 -5.504980640964921 -7.592085121757391
697 10.205772392964025 -8.392027904587225 -7.479833113791349
1955 -3.342338138044926 -9.141241607802039 1.8367400257589632
1138 7.121626727197756 13.526136875351582 -5.714523355262786
1982 -1.3976820497200566 -3.7103687391955393 -10.814341982336131
1723 -5.55833453505218 -9.74825040021306 -4.042881197019579
475 1.4040570111428439 -4.594760396269244 -3.0287528914060227
1604 1.6265764908339724 21.90233127675077 19.94050599486025
182 -4.840400507720007 -11.112875063282305 -14.194500428299055
1559 14.426982770437231 8.890141272017432 8.046887412482798
438 7.925923747358538 -10.591539219609327 2.07619131046196
968 6.3841113303912325 -3.4140777747703126 13.100799569425853
626 5.885091078198745 -8.999150426638879 6.986927052359434
718 4.7652562379635 24.040653487091667 4.9786395969956
848 -6.118499101697342 12.801412849844045 -26.503378368955943
983 -26.316546875557542 -5.745935841001182 -6.658403467244064
1527 4.251266542823232 0.7941602368153777 -7.906975833022645
1137 6.6303440331616486 -2.289493763608018 -1.4940740971167423
921 -9.878560111219718 1.2676693162248118 -16.572623887764575
2050 3.0148889052906 19.757690081153225 7.668742848743101
1435 -6.801638099068205 5.142615234458239 -5.246497805484057
1280 3.629190550928529 5.290225265838945 10.94357685349899
1848 14.127682550238852 8.998458706626607 8.389806168416673
181 2.835783642545474 4.131532274991623 10.61151600348987
1045 5.0095757828003675 -1.1181503465515705 -1.097883636977676
1032 -1.7949618675446741 -6.648300902896217 6.786620586750508
1465 16.985982680837324 -6.362806518903096 -2.6510470343634553
2011 4.405123107523422 5.148450197013298 -23.776710037613537
165 2.395488094971774 -3.7330816879824793 2.199144644833822
748 -9.863685715614512 7.2342670403270075 2.7204368176818514
862 20.14853641610402 3.5455287909878934 -13.180311767889823
484 2.716945234790773 2.808156256301384 -5.626257597667473
1633 3.20509018987122 -2.531026894813662 -1.0083563342318689
1831 16.471630062159676 1.430546023013363 9.67583892922055
373 -1.8165852321491733 2.3526514119052266 -2.201365305398364
1058 4.7227353806902475 4.143689415592422 -7.901410037177339
323 9.45393270318039 6.227696531433663 14.97840529517674
821 -5.305460561479496 -6.8874728347336305 7.7488751813021315
798 8.316016556697628 -6.972262751337466 10.428191525671945
172 0.9517377395276574 -0.04750218262155113 16.59171321948944
1390 -0.6943249763549587 -0.5388937186612789 -17.944339080183962
872 -15.4683897677582 14.926326256485154 -10.411427378442914
313 -0.1699440606318584 2.383309860515616 -18.189569559522752
765 15.886678503965076 -4.219313691841814 9.972806888507161
369 -16.746991511216848 -3.8224548487097607 -14.808142433981228
2042 2.6474371216290513 1.414420054886984 -2.561026441769256
1303 0.33643919662304034 -16.13064837179141 -8.22009300996404
25 -7.439548080584825 -11.693586813625632 6.892358023899257
1891 -7.527798158357273 12.940241477383431 -1.1657557953736613
1008 -3.8383724329526956 -1.112830118332273 11.428724317859485
712 -8.79005099630586 -5.269798988448375 2.1128568015843743
2004 -2.1535794235838552 9.791350227106832 -1.0761589759502304
1679 -6.802458239470581 21.088866002308436 3.4577696677760934
1935 11.287274540626488 -6.242432737820657 -11.72711666122846
1495 3.8143655041342908 -0.49582567227641755 -5.41557104127903
17 -5.979129345065499 12.141114646004912 -19.781619549598584
347 -0.9349768895586591 -11.16318363471308 1.4343730293470989
2153 -3.6782972028654686 -2.3399292740337096 9.126056592023252
593 -9.211273737597988 7.32754812380757 -2.000254045002344
1584 -16.369888446235464 24.11003541236907 9.82592903812708
636 -15.5714571067875 -0.7940780886012341 20.072264398872882
563 -22.665864791645 0.4904688431186041 4.4589084793479525
573 13.54086829172482 -9.896427220425949 12.628019457798544
1776 9.369230780167415 1.7306460923712736 -11.721460450399306
455 -2.8719154662978625 3.0855055094053814 -19.183516207586884
175 3.228720678407081 10.162668061571807 8.759157802418581
2150 -8.763576455957915 3.4513520569995535 4.63902963438252
650 -11.975829274540951 5.7364851752313 -6.317652248110972
1211 -3.8739111350854545 9.249257625310394 3.1079146247648164
656 -6.075155677024856 10.562499656961903 4.508387017361883
279 0.7938396282254642 -12.290783006566885 -7.218858295255535
1108 -5.684833663078594 -0.3399047544685298 -3.039458879683524
1827 2.0933727198109966 -5.3927758806018 4.6484749233011735
113 10.162742075220176 -9.08490870240178 -0.24611777108156305
59 -2.0742541132483074 21.43902060695601 6.706029807071519
115 10.766976580270942 -8.969007215665032 3.172453740540694
1672 -1.3948595229259293 -8.780650242479703 -2.9126769726424384
1786 11.2140160545553 0.6409463015841572 1.3159861086515048
1634 6.644423346963041 3.63941754826509 6.5326509818529015
610 -6.382452077517095 4.49339103040794 -13.329414646769292
583 1.8076041898143982 1.8150875336120913 -17.71667354719551
276 -2.7941114070642534 -14.263725033078792 4.9010189130384
2137 5.456734768812572 15.558167298210746 -7.052154850668645
1136 5.994453430399613 -4.952062423651082 9.428776022293814
78 9.205333668787707 -0.07456824059666962 -1.0731208799703937
183 6.556739141735812 -2.2924454845920352 11.567192381696634
905 -13.492155924354266 6.4327253515869645 -3.563385583599137
1357 7.793082970060239 1.8305100089942474 15.199742610201344
31 -0.6505489347571415 -6.884668380001223 4.3637615374753755
1319 8.690307483826658 2.4015093731808714 -26.95469363492613
1192 -7.004474043462688 0.13421285292494037 -19.74818879660685
582 -9.935611590652716 -8.710980568290054 -16.07412059823604
1968 4.15905119751001 -2.2171194264714047 7.719395741305869
1949 -5.110064631096383 6.792591469754225 2.3383929519836086
1708 11.02770446033219 1.2281184348362626 2.842405586629986
177 -0.9730599381601143 -11.229576584652376 -1.48336602739647
249 4.909965931001422 1.667147442637513 12.377919953247012
1693 -1.5396945050303683 -17.037195391716537 -6.7656198074426825
1785 2.26487171479904 13.406826737804248 12.551498304289105
42 -4.513683064749584 -10.416261126776275 4.559293282577754
975 2.4782411954524624 13.704105379435168 -0.7509533757961898
441 0.27311563424638574 16.298067219871875 -9.53687908101057
1509 -7.569153448586766 12.528577655129094 18.688815634931558
446 0.32040380251842404 -1.5696418204824758 -2.0393460341484593
287 -12.71079740231575 -0.901897785252003 17.240046650362903
1688 4.601121681102085 -7.941736503303929 4.653189848086245
2099 22.82751499170717 3.96099782639514 0.26611712079015526
1195 -8.38889999805812 -10.155450553183172 -7.263229715466378
93 -17.053160078906057 -1.9954003365135176 4.967543111591917
95 -6.552214328759498 13.814375102957916 -4.484236502487499
1284 -3.9677342808415346 -6.7955170888317635 5.393661170251129
505 -7.970005566827341 -5.227321192755845 6.0760059642486475
1500 -17.38454449667986 -1.143990087784325 0.8142436077512394
557 -4.9870898044073355 12.659191283196144 8.368879314871064
1742 3.0364363985495473 -8.061314905503743 -5.231038063552773
1713 -5.714647997795489 -11.23938922778444 -2.301319196580718
510 12.36175893456809 1.5548651465057224 -5.367304270074301
440 -4.387084603951597 -10.696365693480358 -0.893069471474625
2071 8.185387277268793 23.861518041621917 -7.5339296717692275
1266 7.729770453585335 9.71159701004624 -1.8675730293214632
997 9.24948917129611 1.2345866005191528 2.4645289925609113
1543 -4.200442054045068 -8.381898570711282 6.448482506570701
442 -0.2995206874322493 10.64906888807184 -11.692734408415074
46 13.096771359654136 -8.073542174355675 -7.3501973245692955
110 9.016814141597534 -1.236029903985013 -13.772245737357593
781 7.431377534867001 13.465740490806635 -11.99984624972708
2159 -9.163640562809952 10.090665428104327 4.920218724110055
822 3.113648764958157 5.529961373542352 -2.8607920984499176
819 -2.3486557951620712 -9.486895869132221 -4.929183266192932
1054 -0.46675025554848254 -16.829070873467977 -2.374544042075667
464 -6.705243230446016 5.180917210857082 0.17932608260464317
1802 -4.148303228769791 -4.157994185776129 8.780440722584032
1833 -1.4671804966608528 9.994431026181399 2.1663769667494246
1047 -3.323694297632845 2.4959546901902834 4.856784160438894
744 11.185177119600652 -15.830430745524785 7.70821229986797
730 9.220363158877712 -11.619368697698722 7.767077407106486
1132 -2.730017760546591 14.630748293372902 6.771995044666018
692 1.1244131356072016 -10.833392150829859 17.168502105539634
324 1.2427099135471336 1.564709730494803 -8.129446359400244
1889 -1.595489289139246 5.495799068913054 -17.158239750363798
629 25.941451491511604 -16.86867665935792 4.518282330828043
1288 11.241554203273392 6.2763780808900265 -5.889661961298142
739 12.046371236968007 3.966329145906416 -4.914523655830851
132 -0.9957745721226146 -2.1162129043416766 -10.721794273427323
1504 2.49619466307037 4.254389358734877 7.436237038151228
1328 -8.13062836461469 -2.334311433368496 -2.264178734882076
1531 2.788220617247923 -8.820984193269979 2.062830699782029
244 9.199945051147681 -4.22994284984924 -0.9737014516091491
1078 -18.64181002856137 -4.207726655855521 22.966239876402174
1743 5.1568154378967455 5.024221274372956 -5.079075284036376
1673 6.069708609828328 4.271266107935078 3.9290277574522587
797 19.781485757921555 2.606858253401158 -6.586396936520516
1779 -11.095236006774963 -8.108142120592788 13.365044518395184
1666 -8.234713916017865 -11.97073325847042 -6.189720710835605
114 -2.481593006349306 -6.772899454233432 3.349444426694139
847 3.5581356729793963 0.7235442402029962 -7.083969604480346
1466 -13.093020013739917 -3.972689551472419 -1.7654418697699183
1565 -5.370955251868032 -12.16174376658472 -0.8015753417577323
1992 5.943611892138497 0.031098997572416284 6.708251278876939
2148 4.969511708408677 -7.631697274696871 14.999256774629401
87 0.018458248469569255 8.844619088499611 -1.3327867926740755
2024 8.807357651404482 -4.494343298885417 -8.319228502613505
1772 12.007537053273678 14.110543169845174 4.574288138783945
1157 -7.271813834405907 -7.186282849337934 -24.24842801929864
1628 -4.135792065342238 17.45089183275464 9.52980562183504
1202 -0.5983105918438917 14.0545577019559 -23.91882059908475
558 7.356890835197814 -12.321255954633681 -3.3481961565979894
2043 -1.8934272783605333 -7.917879595606462 -3.4057742342173616
1795 9.249251005467846 0.262382874612336 -5.241746432745705
362 5.094969767645444 6.8511547719982975 7.5609793884268806
1985 0.03242090022447076 -12.10111153479679 -13.129922896590912
1379 -8.461312273682635 -1.1396009491499064 -1.4700764402996416
289 5.251392474667761 -6.1922777528504245 1.2128475402853307
1750 -2.535613025378116 6.8853340187694885 9.345291105713795
497 -3.4761742866677157 22.67327339700998 2.1701112617177865
100 -0.8688833611546333 -6.696295499464269 -11.09489666833373
44 -6.991255576215778 6.180992178844788 -10.473759865022595
1916 -15.334842942402862 -10.848846946756037 -9.023324070454828
192 9.197756124437038 0.8522057789150602 -14.06193117579457
430 0.6385375497478709 6.637634256772014 -10.41623373780285
1588 -8.868316096167032 12.316703108394524 3.0539339293851913
964 -7.967904485562504 1.4593919721862127 6.0971765633259345
1232 3.0444321299765034 -7.271784060016143 16.281477323632483
1824 -4.612940233787721 18.718664313856088 20.731292609143953
1399 -1.7720570083622473 -7.582220439463353 -5.080641462440247
1682 -7.18067362466687 -7.570786293518107 17.56436844640143
82 20.638866158893574 -2.6229592994133744 -1.8807611716900494
1177 -5.172244397604465 -18.58013652003942 3.7081540977584293
936 3.049283737160751 6.510222555127615 -18.540677597631507
333 -12.714147923292774 -9.401399853527433 12.720836757743456
1901 4.704762796151842 -8.176790178374931 -13.323806070545771
1298 -0.0482528428306673 -2.173748044272449 10.902349358612819
2052 26.852306880798793 -5.345733943192285 2.9220192498034403
809 5.752578530664609 -8.571242178457945 -1.8924971298347386
534 -5.5891743275760914 13.556970305098963 3.1162394148610857
1367 12.81642351799763 8.860489925138012 -8.166660479065873
1812 10.955505608386915 4.177299817687719 -11.01429366296489
1476 -10.465740560727376 -5.662077467570032 2.5345847999056366
1909 -10.91132688166014 -20.746797090137072 -3.82068239323775
694 14.855780898273029 -8.162764149684747 0.9229060803766991
540 17.29047051827311 -9.053720696511311 12.310250022647509
772 6.193782757272945 19.137159685970683 4.33297101019665
1586 -0.3487473040092338 7.121648009166364 3.3462508389623418
199 -7.131148824405001 5.227431654552085 -13.944678164665204
1643 3.5800173112472606 0.26721754028351685 -8.425419644597763
1397 -27.458319286855108 3.116687398919465 4.221836338704643
420 -4.290019388748478 14.065455799611442 -2.112313339461596
1454 2.3036209642371435 -0.4552072224156116 -0.5515843191017873
406 4.67677833379941 0.7178340459439286 -7.4448352951396695
1946 -5.854498443627039 -0.9326341699343812 -10.670899708851094
258 3.7387749267163426 2.2124303306977686 -2.759761263810991
1496 -4.12596857723395 -10.433309799411555 -15.03168154954711
97 0.9754214824478395 -6.478291587428898 1.382309903690586
1595 -10.167710697816153 11.876665656689601 -5.178763863811353
1741 4.614251737351529 0.7308591359477545 10.88547667425122
204 7.566144841918773 16.90262270149164 -3.142834044905006
742 -10.499339090309796 3.7339086938662756 -18.207204748017134
832 -13.948120035141471 1.7563192331163406 -0.044391251728317496
1652 -7.4974182671273 4.180610951278105 24.498076407015905
1419 -3.420699682806593 -0.3358505317756406 -14.557928239297274
1075 3.831879243849582 -4.3279193856627005 -4.271345963473192
1021 -7.989320111931573 -3.4462530112585132 -3.915603359605968
48 -1.0639201701409104 0.5050576544893355 -10.481640631997308
861 -1.4318039699930647 -0.8979422313047122 0.41477298398104356
1661 -8.496100201382568 6.810493088728505 6.603137002439348
1609 12.374370692171238 10.139894902010269 6.869762777005818
974 7.404665140013514 -5.875545578408742 1.59914332025478
1510 -5.8476018809466614 0.750328461346448 0.03917802266067238
2056 3.2168877376990674 1.2358108088916913 15.972668635486254
1906 -12.643756406675202 2.8973906972918657 -10.976183001123182
793 7.390141124102362 -6.391685356577645 0.9036411895231131
211 0.3490030575660014 7.164827356511928 11.198922109572178
456 -16.559143732237022 1.715129653760117 16.031245934995816
1237 -5.322459695673046 9.45397181267773 -1.7136373056771055
345 -0.35691170233152303 4.803723801911909 -2.452162825464062
1797 -6.19045802574479 7.274097441443074 3.092788053738226
1359 -7.981218930687453 -3.4695498487650918 -5.45852193435049
570 -1.3244157132182393 9.511111407268256 22.652323896838304
269 7.2816412663148045 -8.575438189072315 -1.9184849877742403
411 8.120235797760941 -9.61195366108018 12.036416035538647
1817 3.0332392501200256 -20.173359025865594 10.085558058359371
716 -8.228685938156909 2.296207124081505 13.737077010766763
1174 12.663679682524153 5.085048296539896 -9.57051114451245
685 7.453982618767317 0.9647048642069393 2.0596493530951516
311 -12.25310483643793 20.028097023184728 -0.14317132390136503
351 16.78377761614181 -17.681040100055643 -3.8987369773299245
1402 -7.4938389866291955 -18.142896058595742 4.222797087423777
994 -13.869395936598185 2.947848127907791 2.698759434335103
2107 -11.470224652312087 -5.983023500385575 5.286691228385144
422 -2.5381798033354133 -16.029525462491335 -10.927431133151968
358 -20.90189781577164 3.5647860777178906 -0.35243906343931053
1674 9.486254071196855 31.590044625403948 -20.601009290202562
813 -3.462586543271877 0.617177438232109 2.7450918802895576
1549 2.004299305950717 0.7346523643507449 8.061842351335079
1170 -2.3628399786564964 -14.972820081977625 -10.79603259404565
900 -4.356099205856117 6.411489565949358 4.14613926732119
719 11.858464668043997 -11.373685411188944 -2.0497246213135547
397 -3.242361060262753 -2.0521649861747564 18.249064028518383
1568 11.357129081569653 -2.252142767092931 -11.56699830693517
356 5.729760798924923 2.8677022644794015 -20.115227716488278
427 12.417590955204302 7.360092408059094 0.2548165982590926
1204 -5.513389520114515 -6.981212977115484 -1.8426685920465637
1631 7.79622767055861 19.34220903324308 -2.668248236320386
1744 -7.587873278418995 -0.7792840468292587 -2.1388166043324364
317 -17.92730344650202 -8.83617441929213 23.81362141665913
689 11.782428079439546 -11.001170750228823 -18.41461127203969
2029 -5.845120880732789 11.187592770341533 -7.758403759754478
2049 6.17160576413511 7.466042338491912 12.912185359531358
339 -7.278147970912938 0.5327849684038517 -6.824716403026904
923 9.623113918745556 16.12269012719549 16.1217237515967
1574 10.799456401941262 11.71200380098146 -11.033554256887331
1579 -14.350552613732633 8.042056358388534 -2.3196444190227474
1862 -8.842181415360127 -5.345526541406984 -7.60336311001848
1950 1.0596093423360395 -8.215411254532132 -0.13223649989497752
1267 11.348306424675314 17.640798726654587 -2.584422178429302
227 6.490256720939101 2.7632389808132656 -8.453991914128766
1725 -4.402027463767371 -10.510129964318942 1.0101452729736529
128 6.16919718838507 -3.0689867869420833 -10.659891468774248
1591 11.876605288232755 15.59483781687909 -0.6802574989349721
1767 -8.158574235555442 -1.3127889894451938 -5.008135896570294
1871 8.42452516474339 -1.2534466512932196 -21.88540033113434
526 -14.217862029750563 1.9517777585710168 -5.305776430955965
404 -3.8392246973527366 10.385823859172827 7.269823576928453
85 -4.660652815135486 -2.1977968853786303 9.964408253460153
957 9.065387752141719 5.156581699635259 -19.01121911164282
2053 6.19095445068882 -7.402383792287923 -3.7527425233481146
1704 -1.6087452698353382 8.434670460647336 -1.1536438797486321
92 7.856200922295028 -9.710567943119953 -8.683881750331622
412 1.0747021265228338 -7.574600128127225 -5.673397503098794
1991 13.465992195836433 -2.923610081735009 4.090931609992308
36 -10.000052242096759 -4.9308690803028625 -32.01220301869809
705 2.236142744927597 5.585384711561161 3.2915617887914808
26 8.94030592225937 -10.956323652181428 -10.692677126052057
1605 -0.49022194729698143 4.184364716724462 -4.028051049458927
796 0.05712369803968737 -6.82750422474808 -5.887762183193116
1770 3.3405616096826414 -2.999820315919114 -11.125258239971009
1667 10.768589480198855 3.900656705119442 -9.278979835250913
307 -5.311520823739225 2.756855316357287 -9.04318008628028
1898 17.6321976080567 9.306103436196656 -6.353755171949105
1344 1.0543759649716582 -12.872386713516606 -1.0747298346330247
1539 4.067916906867812 -5.492729424861601 5.035131394848377
468 -10.960253012328915 6.2877312033073025 -16.344382017391744
2041 -6.807714541925284 -0.11458800378524192 2.3861886590364056
683 -5.649894816372504 -13.984755869334881 -8.369263912896761
1200 4.355625110520607 -2.389756634811132 31.771696718565906
1098 5.316610582695232 2.117260596840984 4.582629170114818
1034 -1.1880186349685267 4.7677869998975035 -6.702322924442523
2124 -10.307142105471693 -0.4189771032595683 17.17738085719093
996 3.3861939761498356 -17.33561637180445 0.3229423249936327
1552 11.360493408264363 8.344686982847925 1.9730964135640208
513 3.180667560467779 -1.8067962662280126 -6.29379129392102
831 -5.889180518415355 -12.757504382636965 -0.5599690201951661
661 1.6214840351820274 -6.88045648866971 12.856741426639072
977 25.295601011913707 -1.3438985005976438 14.257806689795
10 -16.702770189947316 -3.970164287550486 6.50251384304537
987 5.872837315604983 -2.2478092862911696 12.29875165802481
1235 6.098636615267221 9.24379426245364 -1.33435935104965
1125 1.921158460029981 -11.565382438249163 10.325954020539942
1123 2.849477946795312 18.43854482689622 12.477765990346692
603 14.96794249304548 -0.5306133329874768 1.2148750867637654
625 18.502263537502284 -14.35782772163193 14.47382665590882
1615 5.138465412364163 -23.71157274939967 -11.447791884887918
1512 -7.843984621828797 -13.306667451780008 -7.585388439357838
1469 -8.773453326578172 8.002224354809368 -5.847741840778328
1225 6.577208205116413 -5.66132772950029 3.4036008963562994
394 -3.8877764346996715 -0.09333136995658395 16.29206999146524
191 0.7262248122780174 -9.357080737137597 8.848659195452907
2139 -11.072295221471075 10.089282113183161 6.256900899942686
80 6.0963824710255246 3.2647065569192644 -0.9274290205985719
1330 -8.364378944063981 -13.265699503265239 -10.765781772145598
553 2.1392340603711895 -8.478981632725418 -0.848893092470728
487 1.8988178108130471 -23.90131147683814 11.724620868624568
2040 -17.239285043595746 3.6238247492146667 -7.100406381535906
40 5.857190104411596 12.119451158478038 4.9609388012385915
1260 12.060869411159915 -15.995729657775062 -3.736677525841869
58 21.416905713505635 -19.35655310923949 -3.263223630048237
1057 -6.8447118250657 -12.019739549559441 -0.7595144855256787
2025 1.786162009707518 9.35012156306712 4.859581603845425
495 -4.37796919432945 -1.3100031340345424 0.8722860296790407
1062 1.3111838277089025 16.605102544736138 -1.4656941133495898
225 -28.386896734519564 0.3550991237232347 15.362757696341575
1377 -0.8238787145683839 -13.830689829446255 -13.098956362532936
463 -8.602374522559364 -14.299941815715833 -0.18648951947350348
1297 0.6862198566450748 4.487241430859876 14.586458382880632
681 -24.438523698662852 -0.09597716144568916 4.464721874775898
1557 -5.180799069913524 13.811728174938848 -11.696875015557811
1551 -7.177463062523212 -3.600006553313624 -2.4941941931040557
624 -5.828822126002983 -2.902644174409676 -10.881896123786895
1011 -2.0231383425247773 2.080926220142093 9.85023806507447
1018 21.444748539591348 3.0838177748542894 -11.153534254992373
1091 -21.933117552751163 -9.452042682761945 6.382260660620442
839 3.024124932148783 -0.48927065012877113 11.082243532306054
1936 -10.822456055519213 -4.9340407646124955 7.158737883498813
336 -2.7836687941879603 -19.388162492410256 8.241681819949708
622 -8.208396318965395 -14.802776805748277 -7.683781306881709
1706 18.82893513811607 -3.422323223961735 4.495486061323002
1843 11.222803896335593 7.679645720064432 8.67802634934184
206 -7.385490850079739 7.117460220204108 -2.2168930470258417
1578 -2.1555869571987203 5.601955757460745 7.726765602559472
1087 7.8939437017476335 -22.97138933257151 -19.78046170487355
881 12.131507239755614 3.4759742039325214 17.168109431225353
1081 -11.318594171932888 0.2772549873249806 10.048639140669614
383 -25.863745946082027 -0.9634291108549744 5.184622812548239
1702 22.95833109656004 5.677754985723675 -8.89308964629075
18 -4.110173406327975 -0.5362589299753538 -10.406221961679782
1154 3.107803356410975 -11.413559013135528 15.409755412489766
2143 -20.342797672027437 8.368592534112286 -14.360953943172051
1117 9.766719674373899 1.5136265924703454 10.886390204312503
37 -15.658965660379861 -8.361390981868116 -4.640200459646929
215 19.675669378571445 -10.133264675779904 -0.20385812456215505
1259 -6.430766158487541 5.977570964389391 3.89374393797309
12 15.163196144906752 -6.868047111234753 -1.9419894976836891
2031 -7.976572406014028 -5.781367594610721 -4.174425308247277
1573 2.352064144403981 0.9276884455260614 6.898666805724557
799 7.7131978459240775 5.025152752997068 11.616183658565305
1815 4.344337633860903 -3.9118726326028095 -2.314737506411765
787 -4.931356389825361 -11.54415564609983 2.983953826416102
1050 -11.615170233896755 0.1942674897104138 -2.4243799213313397
393 20.842975458518783 -20.4011594152606 -4.976156459193841
842 6.497094657762764 1.826796341261845 12.09275842901588
1023 -2.9390761742209293 5.441947281295787 10.455282646699269
1380 3.4012808122380416 14.655056963912873 -6.287535877258442
749 17.783597706148086 3.7742891934740173 -3.6846871408590185
1069 8.307473532474303 11.573347125505624 -2.162862775898517
666 5.759698229281301 -10.348198589977118 -13.347167027499102
1264 -7.7025035690485355 12.464416746978399 1.024522238768108
1484 12.186181478405258 2.144411864039992 3.8095531857859735
2007 -2.85359901848157 -9.807510979614413 3.0003897720679134
1902 -1.5836589512159736 3.707000729606368 3.9583405214131537
137 -2.560761933623925 -5.6648646212931375 11.07309608172625
1436 -4.766040063151886 -2.5796406776699943 1.4505288494255917
1945 -1.698063595974214 14.112060747015864 4.944028552135035
2081 13.105445533111183 -3.957130579742508 22.604507728594104
1116 -1.515735206329865 -0.41402555073589936 -0.7975726011485701
779 11.70197328217787 -19.278764343494366 13.013145946153724
711 0.9382738744719584 0.27965533994280006 -4.537752182043392
1197 -10.22990004407001 -9.04921319153677 2.048787302697823
755 6.984352206640111 9.12402427339113 18.108252428134737
239 3.320439492986921 14.506245675287056 3.5752968262603666
230 4.601655805010109 17.66386868490226 1.1941477585100544
1016 1.2718026697647513 6.6351263622227075 9.563506914679753
514 -13.720922214543126 8.49511507591682 -6.585459106140389
547 -11.408496455371147 9.302464688548485 7.747279507384275
634 -6.691315973428414 1.6480690108901455 -7.922221712747038
1382 4.489828852552688 8.698018435518751 -4.663810238421617
1424 3.16739506216179 2.1310951274041496 11.76758803171959
1122 -7.2189127692815385 13.702466909778499 -1.6408403286120807
1394 -6.894475590181777 2.848754948000412 -17.665746480141554
1845 -7.066290483799549 6.717186154286128 11.739073274589957
346 10.331617813151967 1.8973288803460104 -0.8102145899644748
221 7.4702163323757755 -24.63627106061516 4.542512365732163
1252 2.2871110708542353 4.263810825174665 13.59536629028328
1439 6.41199878778214 11.574445044302793 7.35720464225388
1085 -5.207415117037477 -6.832421442736519 -7.00469097029354
1993 -7.276033883647069 -1.632478849698744 -4.198884197101994
250 0.5957286902588083 -3.2113212052555182 10.6522091962818
854 0.19324246703675838 6.742530850587388 -5.226898925490842
212 -14.351759975257387 0.565702745355185 -7.547507083306033
766 3.1089663279343553 -2.5708787970645877 8.748198944111893
1020 9.584085610607454 -4.622849688885384 8.373108968614694
2149 -13.937688948369775 6.096350728202163 5.9158355381835515
1621 7.391829539613351 6.16484372864738 12.328143968448321
1387 -10.008780630751302 26.101649299974074 -2.895806998199894
1890 -0.35890590475974854 5.994525489543406 10.408977843300644
125 -16.787691555090287 15.243948766281836 10.934217490600759
2078 -10.772048023559737 7.369772155352038 3.5285708983793147
1654 13.241179227770031 12.359480401723696 -1.7281326696262327
504 -17.42326682473137 18.56640511894504 -7.778381603541854
1585 -3.3727889914842155 -13.67557814210034 3.79212600913724
366 8.123096776926817 2.6698046906601323 -7.86439440468307
220 16.04135403556876 -16.81604084879006 0.1225964359303377
117 -13.044196453089825 -1.5029723621570819 12.004634889533534
1447 0.1942755846455365 2.8250566522254275 -7.568597752970552
265 9.037181170820906 -6.508425927225586 -12.390616894578914
391 1.2978433557656222 -12.950544981373108 16.156678609065292
1194 7.2139611064180675 -6.282287256049903 -8.768254189485521
958 -7.9221316281377785 -10.739975585124428 0.38546999107005636
1632 7.421642356822796 2.5379741479791096 -10.080368770997888
1801 3.7869828528033893 -5.012708433097881 -14.091404658890081
35 6.2075767443194 3.5655880716076855 10.101112069415633
198 1.6146482712375358 -1.5652073429153213 -9.700958773611502
826 27.465389980821385 -0.3511562846095908 -7.30411662126008
782 21.644267895158272 4.896349557686432 3.6098471194895563
919 -27.467822737932995 1.7924555546366543 5.277902126917496
326 -6.581981598338847 7.283804236241394 10.427826089282402
1275 5.831363316221238 8.1509135474449 -1.9884159961893182
1975 -2.0561167526391273 1.0454648866530916 -12.922654444959438
149 -11.871650847378701 3.318340366173229 -20.11504904694888
43 12.938564096276615 -10.343414013392323 -13.852322933363707
1644 7.8084674770668 2.186222389575498 10.041321316922232
1251 -9.384978697985265 5.308217956042062 8.03107426668797
1231 -2.795443242164719 -1.350262227504536 -6.7180858932874505
1072 -5.431107716256088 -5.371887727132669 5.0729001361251855
1988 1.1370536879395856 -13.348241044434038 -6.2731337248181145
104 -11.744272849939755 12.409073683547472 9.478079845607626
1086 8.296148340498751 2.38373016595049 7.803564352069542
1914 6.763780802938466 9.284103242130204 -3.8082424629288916
2077 12.177331362238096 13.866347715810894 -6.9766370269993665
1937 13.2437592892431 -10.924567357620113 7.254627004235726
562 14.180173897309652 7.366030047589289 -3.5643639108340968
2085 7.769351525877438 -6.7097133236513375 -14.121463486322716
1870 7.6153772419819745 14.719227128210669 -4.758917190773609
2127 10.121754632019325 7.873948639784339 -8.31495351785755
1488 -12.575316211180217 -0.7368078015142938 -7.34342257536602
783 -10.644818837352576 6.1964749930584375 -12.950583127571125
426 17.641744431191373 6.843620136675807 20.084030168243018
