LAMMPS data file via write_data, version 2 Aug 2023, timestep = 5000, units = metal

2160 atoms
2 atom types

-0.13095198564362853 30.269865365641856 xlo xhi
-0.13140961780978877 30.375648137808874 ylo yhi
-0.15165527673719126 35.055480726733364 zlo zhi

Masses

1 15.9994
2 28.0855

Atoms # charge

684 1 -1.2 4.725299180999415 1.329699769888713 1.0498308872148467 0 0 0
2018 2 2.4 4.966686464488609 -0.016452329712827618 0.19231244458242794 0 0 1
1864 2 2.4 4.877565949725611 2.421684242158006 2.2074102412532612 1 0 1
2009 1 -1.2 6.433233384227377 2.4284786572065036 2.806725895714284 1 1 1
1921 2 2.4 12.112290727027714 1.184390014276379 2.0731300695867954 1 0 1
425 1 -1.2 11.391016114976262 2.0487949127566547 0.8056148086869922 1 1 0
658 1 -1.2 13.62706039482882 1.784551433903436 2.0247915330339885 0 1 0
1140 1 -1.2 24.32871178515744 1.1527537597362667 1.2859024796315743 0 1 1
1657 2 2.4 24.616461102863425 2.5725981600828596 0.5387448978376355 -1 1 1
1134 1 -1.2 28.685780757155822 2.298719415349097 1.6994335479822944 0 0 0
678 1 -1.2 28.688465772169533 30.27511018466904 0.10147393063525324 0 0 0
485 1 -1.2 4.584091314252653 3.9834191205664906 1.6354864281951087 1 0 0
240 1 -1.2 10.753193760963198 4.066167112554577 2.3337556042122984 0 1 0
963 2 2.4 11.576581934807953 3.712233112222706 0.9843882559315775 0 0 1
2074 1 -1.2 13.138493551241499 4.185586673223796 0.9701613939133784 0 1 1
1677 1 -1.2 15.430312183799339 3.0039192815328186 0.48570184734084365 0 1 0
1828 2 2.4 14.269379633240144 3.265602317048676 1.6529420800170074 0 0 1
1972 2 2.4 19.03450080432687 3.943109734409928 35.05109016284758 0 1 0
380 1 -1.2 19.213625679250367 2.9922902161310376 1.167847831769873 -1 1 0
2028 1 -1.2 19.176717391835158 5.456791864671721 0.40116460595964115 0 1 0
1317 1 -1.2 23.41519073930214 3.580403719034697 0.822641532863009 0 0 1
1561 2 2.4 23.27697959023421 4.772437522411716 2.002871774390034 0 0 0
1867 1 -1.2 26.178798030087314 3.089107960693466 0.8722341742555532 0 1 1
66 1 -1.2 27.771074555685654 4.694592384573849 2.3731910415411765 0 0 0
1384 2 2.4 27.721034682559768 3.5341728905756655 1.1812225869912942 -1 0 1
1593 1 -1.2 0.8965256150091251 6.636158260815642 0.09310240632205485 0 0 1
1671 2 2.4 2.3781650281787825 7.3360761176571545 0.46585830342825324 0 0 1
134 2 2.4 4.796921390046695 5.585962949970624 1.4178885869755995 1 0 0
129 1 -1.2 3.3440361516253363 6.2610712933781665 1.1379623774673806 1 -1 1
1281 1 -1.2 5.843281939741069 6.061888394646696 0.33125910891858384 1 0 1
857 1 -1.2 5.5268007353539135 6.337682348796456 2.689472319630123 0 2 0
161 1 -1.2 18.11437676529123 7.880432051580012 0.49920701360377323 -1 0 0
1270 1 -1.2 19.39241153477787 6.92737287445089 2.6383037202483446 1 0 1
145 2 2.4 19.417756156767094 6.942259134416622 1.0161849470960496 0 1 0
180 1 -1.2 20.830545187913977 7.484640441181386 0.46519843052885035 0 0 0
1984 2 2.4 22.458872790915862 7.381098984395424 0.3943258780374081 0 0 1
2093 1 -1.2 23.171931257394007 6.280457440064588 1.3745046563869927 0 1 1
140 1 -1.2 27.91558338699286 6.6970736221711205 0.6392278560137125 0 0 0
280 2 2.4 27.885090596638346 6.310341532352113 2.234584028178999 0 0 1
1438 1 -1.2 2.218198462265349 8.598808282020059 1.453373974048289 1 0 1
432 1 -1.2 9.892348551513795 9.170613367256845 1.6819891967528 0 0 0
615 2 2.4 10.343592777758397 9.847452282044946 0.28899982567588306 0 0 1
515 1 -1.2 9.127302194930609 10.922441647749311 -0.13647601084604302 0 -1 -1
702 1 -1.2 11.751849109733813 10.7795478866772 0.24746726782792453 0 0 0
444 1 -1.2 16.347642746405093 9.712021908493572 0.5441080117970115 0 -1 1
1456 2 2.4 15.584337215658465 10.998601679284974 0.040200947259811916 0 0 1
1558 1 -1.2 23.025296150011346 8.882342826573902 0.6902507456031614 0 1 1
98 2 2.4 24.207142295637528 9.611240072606538 1.5010552856149413 0 0 0
384 1 -1.2 24.333400750681193 8.736217639665336 2.8810482571687825 0 1 0
120 1 -1.2 25.573860962096898 9.707909346273807 0.6026500984056182 0 -1 0
1660 2 2.4 27.07559981298554 10.206190732840312 0.45643666281806416 -1 0 1
516 1 -1.2 28.113506734875827 9.702421482427152 1.591804757334279 -1 0 0
879 2 2.4 1.6563455128855442 11.996351216615038 2.421917331635822 0 0 0
1752 1 -1.2 0.41279316748036815 13.019424992130356 2.113158707917218 1 0 1
1015 1 -1.2 2.534919410540345 11.573703473619736 1.1007375766629048 -1 1 1
991 1 -1.2 5.100624651058415 13.274446942281298 2.27812012758685 1 0 0
1010 2 2.4 6.446207401139187 12.87218619592228 1.4575527199686176 -1 0 1
284 1 -1.2 7.186780011892676 11.571436730791689 2.1594572509050294 1 0 0
839 1 -1.2 6.240887605720269 12.437117471093062 -0.08698554955419333 0 1 1
1129 2 2.4 12.788910217918671 11.785255903824893 1.0900086774018605 0 0 1
1577 1 -1.2 12.878204953999814 13.351358788179397 0.4958651450033872 0 0 1
1220 1 -1.2 12.14990523993273 11.903295708992887 2.6320077531889154 1 0 0
598 1 -1.2 14.243831357391917 11.112516157802212 0.9810553400921335 0 0 1
286 1 -1.2 16.56911964167784 12.315704331703836 0.28827378793359115 0 0 0
243 2 2.4 18.010871611836887 12.981099222124108 0.696757257820171 0 0 0
1169 1 -1.2 18.045516232531284 13.653856857826499 2.1012178106260553 0 0 1
1234 1 -1.2 19.181968905250628 11.874820065152532 0.6677014870768946 0 0 0
618 1 -1.2 21.192980671041052 11.227826237001068 2.357450681734295 1 0 0
2101 2 2.4 20.834561437381772 11.891732546347859 0.9281520278474005 -1 0 1
1928 1 -1.2 21.3692044380616 13.432619382776839 0.9033519772522768 0 0 1
1896 1 -1.2 23.998088120184843 11.206742288418233 1.82095640572841 -1 0 1
302 2 2.4 24.648646822645965 12.636751004295542 2.193348642790456 -1 0 0
1702 1 -1.2 27.192211683543654 11.880248815433905 0.5219474455594468 -1 1 1
574 1 -1.2 25.11664751249106 13.51136369488652 0.8814923129476753 1 0 1
1405 2 2.4 26.541661301556836 13.255879892503936 -0.007753119458989614 -1 0 1
701 1 -1.2 2.1067258279343433 15.873153663290145 0.8310982428589585 0 0 0
1186 1 -1.2 3.6633209369174877 15.433163177164547 2.704345374283961 1 1 0
152 1 -1.2 7.44042075090941 14.23065998097485 1.471290724133517 0 0 0
877 2 2.4 8.6783380992686 14.90504126248201 2.2381653400995796 0 -1 0
1055 1 -1.2 9.974966497431282 14.880379264895257 1.249108552772116 0 0 0
2038 1 -1.2 14.101634126025067 15.718002192594513 0.6364270485559993 0 0 1
1696 2 2.4 21.62801807463024 15.037718603159602 0.7096653318079531 0 1 1
1590 1 -1.2 20.328704446396145 15.788224797884185 0.1963067060472465 0 0 0
1760 1 -1.2 22.027077931308664 15.584363889083237 2.1752384264746096 0 0 1
587 1 -1.2 26.995007632858645 16.341227428413745 2.090694625460858 -1 0 0
1457 1 -1.2 27.586286341537235 14.406344636865244 0.44370459752051494 -1 1 1
542 2 2.4 27.961324690646826 15.13010847024634 1.7713191408690134 0 0 0
982 1 -1.2 29.548704768625775 15.408284882788404 2.0742034980977193 0 0 1
1700 1 -1.2 27.9633652572429 13.79561018505358 2.8750082475721035 -1 0 1
421 2 2.4 29.819040566321526 13.986213154916578 2.8897506236243435 0 0 0
1219 1 -1.2 2.4863164561416515 17.849180842957658 2.5734389393929633 1 0 1
1094 2 2.4 3.196689195185971 16.64809492174557 1.6901053326203224 -1 0 0
1295 1 -1.2 4.284569655446662 17.28681997804301 0.5496776325191621 0 1 0
1006 1 -1.2 6.56835581798264 17.33802995134921 1.7602340368209062 0 0 1
1754 2 2.4 5.827579819816049 17.785269432040383 0.4055243082658455 0 0 1
1118 2 2.4 7.724414934110876 17.69860893884416 2.7948446263515145 1 0 0
453 1 -1.2 8.487208859238718 18.990467025361667 2.1009607425672665 0 -1 0
1391 1 -1.2 10.99088038797686 19.149085525944624 1.2066478565920804 0 0 1
396 1 -1.2 13.392598090095023 18.169841317610036 0.8544453632731809 0 0 0
530 2 2.4 14.616110243454509 17.24866798676015 0.4164798745233023 0 0 0
874 1 -1.2 15.923323213849274 17.610773964100968 1.3511490707455318 0 -1 1
673 2 2.4 16.39218862816945 19.087460228586945 1.9701530146320245 0 0 0
1197 1 -1.2 25.06094582602744 16.49836561077144 0.24468482271054134 0 0 0
1683 2 2.4 25.4753270453638 16.88831615514152 1.7898614976466218 -1 0 1
200 1 -1.2 25.568074167490632 18.513842221689295 2.178625172010221 0 0 0
1449 1 -1.2 0.8426100509863456 20.11695354264548 0.2370086531559487 0 0 1
1024 2 2.4 2.296520542839335 20.799235227044818 0.38164762835226773 0 0 1
106 1 -1.2 3.169980898174813 20.276781471080223 1.6589782017282595 1 0 0
353 1 -1.2 6.211683455099188 21.784634203827014 1.6663108583657456 0 0 0
1885 2 2.4 6.070204805717804 21.025774778022647 0.16737721145938753 0 0 1
514 1 -1.2 5.701168598739029 19.48749505847079 0.21299910277625975 1 0 1
2104 2 2.4 9.964878349961285 19.640047214834123 2.381097462438173 0 0 1
1306 1 -1.2 9.862870251665457 21.285810017092604 2.4110198752935577 1 0 1
1070 2 2.4 12.413321692093476 19.393616189963296 0.46873672134922595 1 0 0
703 1 -1.2 12.989962571130146 20.721341742803943 1.117038162121387 1 0 0
2090 2 2.4 14.14281169404427 21.349939161727313 2.0219236800577214 0 0 1
1698 1 -1.2 15.30532884279685 20.299668680901373 1.7642096109357843 0 0 0
1607 1 -1.2 17.77750468759039 19.529407267035168 1.1449600558384865 0 0 1
1274 2 2.4 18.589531421896677 20.92655018294537 1.5286706832814445 1 1 0
372 1 -1.2 17.568567230845556 22.147059945745227 1.2041257579577704 -1 0 0
1846 1 -1.2 20.068445094934084 21.038672015251233 0.9409957588927368 0 -1 1
1560 1 -1.2 24.769831232981055 19.627685445752178 -0.04076614954297004 0 0 1
1189 2 2.4 25.712702134595073 19.908695852673567 1.289851629924603 0 -1 0
2001 1 -1.2 25.09575652203237 21.067899833450827 2.179193355520657 0 0 1
1583 1 -1.2 27.208557929961763 20.222654824569158 0.7724595194761416 0 0 1
338 2 2.4 1.5647440316787353 23.912229589752094 0.2434101517164834 1 0 0
1892 1 -1.2 2.0992214289712923 22.380902387382864 0.6270657732375416 0 -1 1
245 1 -1.2 0.7364879058940441 24.586154635729553 1.398801240198786 1 0 -1
2136 1 -1.2 2.8642270150587428 24.9621746999653 -0.07547769963713336 0 1 0
1250 2 2.4 6.7714471814329364 23.297290772082484 1.751993376004652 0 0 0
2112 1 -1.2 7.1342068396973435 23.889695633549877 0.32700350171632087 -1 0 1
1111 1 -1.2 5.865662822577363 24.32156392502374 2.504207395427775 0 0 0
1860 1 -1.2 8.132272632757145 23.24722773376729 2.7136892115945774 1 0 1
682 1 -1.2 10.395793987611857 23.61608373613051 1.4932544715188505 0 0 1
1105 2 2.4 9.70654859073906 22.863295680123763 2.71772209670584 0 0 1
2030 2 2.4 10.464974329392415 23.895177524298887 -0.13339744847337015 0 0 0
1151 1 -1.2 14.739328643467658 22.918397681112015 1.6442745305778619 0 0 0
939 2 2.4 15.194513682643422 24.182641116805904 2.5646454664237344 -1 0 0
1653 1 -1.2 16.79070022292751 24.41403769640749 2.5090107974426656 1 0 1
745 2 2.4 17.99479381309833 23.745555582320904 1.614104334351125 0 0 0
2014 1 -1.2 17.950990575421514 24.558002314660566 0.20873384034918557 0 0 1
1883 1 -1.2 19.424131634736224 23.815385117293165 2.3439134669495396 -1 0 1
1482 1 -1.2 21.873948124436705 22.830182850743494 0.00998802175032111 0 0 1
83 1 -1.2 24.220447357549055 23.284503435722947 1.1019500084567049 -1 -1 0
38 2 2.4 23.06217132628161 23.883177957567053 0.06396237258818445 0 -1 0
1228 2 2.4 24.561578529885697 22.52000293951948 2.4618496868644915 -1 1 1
1710 1 -1.2 5.009565198399831 26.543132917771988 0.6175914058638803 1 1 1
1361 1 -1.2 7.1460680343011695 27.4518976862138 2.0486805530219363 1 -1 1
1592 1 -1.2 12.078426804742485 26.406425889558168 0.9429282916813735 0 0 1
1851 2 2.4 13.703300611338536 26.613151635703787 1.1295435558408977 0 -1 1
708 1 -1.2 14.431057316182544 25.5514204137388 2.1787904539051497 0 0 0
149 1 -1.2 17.920228649423365 27.015054698509875 -0.06738672489006348 0 -1 0
63 2 2.4 21.43147068800514 26.11249741530777 1.1719998954350386 0 -1 0
1703 1 -1.2 20.241258522659898 25.749174337636784 0.20838917099629253 0 0 0
1145 1 -1.2 22.77980340435529 25.402472410056387 0.6339860842670293 1 0 0
365 1 -1.2 26.586486786198513 26.17472077588386 1.1626795327631843 -1 0 0
722 2 2.4 27.736314970750495 26.78824222544664 2.2221562910447696 -1 -1 0
295 1 -1.2 28.888085628230296 25.75618328797528 2.3953111859618446 -1 -1 0
1884 1 -1.2 2.1343948687011656 28.428095942091527 1.0473051609516448 0 -1 0
633 1 -1.2 5.36434355473756 29.18358100655995 1.0056696155488432 1 -1 0
1048 2 2.4 6.09039765447767 27.713937631800217 0.7703614849732346 0 -1 1
104 1 -1.2 9.699222578426218 27.83019027304778 0.19506857056568913 1 -1 0
262 1 -1.2 12.1122854930619 30.078393771088773 1.7705847455937895 0 -1 1
8 1 -1.2 13.778756285337689 28.080145653465483 1.8199480906300622 0 -1 0
1354 1 -1.2 17.034421608302534 28.955170766998123 1.3563612793459956 0 -1 0
568 2 2.4 17.931717358776968 28.607166722147856 0.052764779540527135 0 -1 0
2142 1 -1.2 21.44663168662207 27.686723794894966 1.3086019499467074 0 0 1
50 2 2.4 21.02284827181431 28.842725829752876 0.16960455705175678 0 -1 0
275 1 -1.2 21.83621998844088 30.316934777376517 0.0119432997268516 0 -1 0
956 1 -1.2 24.081013294287754 29.416381040813786 2.4217535461030337 0 -1 0
2125 2 2.4 24.7954698816346 30.098456811487257 1.0752880707830548 0 0 1
741 1 -1.2 26.296678908816133 29.70103939598134 1.2293126985380753 -2 -1 0
410 2 2.4 27.949702746471765 29.707049153229654 1.474020752981532 0 0 0
1668 1 -1.2 28.38179783531054 28.200770641217666 1.805591682550752 0 0 0
437 1 -1.2 2.2654913278101234 0.3859186731894649 4.740221318648566 0 0 0
1782 1 -1.2 0.03533043865587716 1.3617924684032856 3.475728941269836 1 1 1
2092 2 2.4 0.7796936052807096 0.12195553428378605 4.200123602716236 0 1 1
1912 2 2.4 3.6711096103294336 1.2420464144604417 4.737496174307969 1 0 1
898 1 -1.2 3.7407288680610282 2.183556553919213 3.3913662431518614 0 1 1
41 1 -1.2 4.9994530821797705 0.31378552969735723 4.751650637511967 1 0 0
1304 1 -1.2 8.946630884756477 2.4107796966016544 3.4746918561119324 0 0 1
1386 1 -1.2 11.333479942008916 1.6401184681552883 3.4001607854192737 0 1 1
1940 1 -1.2 15.016299260190603 1.160325962496135 5.257046766094362 0 1 1
1002 1 -1.2 18.945892471541132 1.786368791845524 3.568947437332244 1 1 1
229 2 2.4 20.0345284409387 1.644001817812091 4.814745182561917 0 1 0
972 1 -1.2 20.34561396294778 0.003038351838327182 5.052547915349939 0 0 0
2012 1 -1.2 21.375686011869377 2.5231781989477207 4.258265770362552 1 0 1
1262 2 2.4 24.16780630991459 1.391636938073881 5.341294324012592 -1 1 0
1065 1 -1.2 23.457668486971464 0.14616759779522978 4.681908949070237 0 0 0
2075 1 -1.2 24.392680607563744 2.6038647248138007 4.373099596331653 0 0 0
528 1 -1.2 28.233350741247595 0.0774286445986382 2.802572237219413 -1 0 0
471 2 2.4 28.90311610968591 1.5145470595721489 3.042496462102577 -1 0 1
1043 1 -1.2 28.098311246165455 2.288609819141167 4.257298977475185 -1 0 1
803 1 -1.2 7.663704925581231 4.803611154568206 3.1723450210904085 -1 1 0
1464 1 -1.2 7.155422881503034 3.25312962163028 5.228548959122939 0 0 1
1647 2 2.4 7.549536299753835 3.2533826270833277 3.6540674871529326 1 0 1
1453 2 2.4 10.440360214369761 3.0153156603627784 3.6214060592399364 0 0 0
60 1 -1.2 10.718815904895566 3.7892771280415825 4.936865099794489 0 0 0
768 1 -1.2 14.657425279269424 3.9676274767596014 3.031174371833901 0 1 0
1537 2 2.4 16.051443910907775 4.278515939692722 3.736886317812445 0 0 0
1534 1 -1.2 16.15482957707872 3.5646603934509016 5.201779451960267 0 0 1
549 1 -1.2 17.171120720013057 3.6206967980992606 2.773857893456065 0 1 0
1156 2 2.4 18.751650541179853 3.1609952193293513 2.6976929169099955 -1 0 0
2109 1 -1.2 19.597337730190723 4.3094037866475885 3.5260455510447235 0 1 1
795 2 2.4 21.118463998800515 4.142459807305891 4.186353674712947 -1 1 0
2063 1 -1.2 21.134142935506045 4.75463153394325 5.671682038095542 0 0 0
1606 1 -1.2 22.062469389601844 4.785131383890326 3.09097813708879 -1 1 1
642 1 -1.2 24.042920882852503 5.117627610140205 5.368840106436303 -1 1 0
34 1 -1.2 24.68943482391321 4.737756211756837 2.7952904087923685 0 0 0
364 2 2.4 24.85518919388731 4.218703411782708 4.347021688707822 -1 1 0
869 1 -1.2 26.39497334340173 4.305014047936578 4.729195931812992 -1 0 0
1837 2 2.4 27.775344029825774 3.5561868082486328 5.29103982968382 0 0 1
89 1 -1.2 28.961442676376286 4.6266159355474406 5.546355946711598 0 0 0
155 1 -1.2 1.2909578952996106 7.8838347025359 3.72629403883397 0 0 0
1711 1 -1.2 8.094656272871521 7.374590372291068 3.0130597855599417 0 1 0
1900 2 2.4 6.971674870820776 6.224222771429129 3.492341680123951 0 0 1
948 1 -1.2 6.6907007006446175 6.3962978418680665 5.069372619507684 0 0 0
1506 1 -1.2 10.52495515339961 8.057209139456297 4.055544359191417 0 0 1
255 2 2.4 10.387030381911085 7.750013650461234 5.672270231100529 0 1 0
1056 1 -1.2 16.294655918905832 5.9316444527275625 3.949015548186436 0 0 0
1636 2 2.4 16.62075441838907 7.088493882116837 4.987224381964828 1 1 0
989 1 -1.2 18.19659275501743 7.528396317042801 4.967019723174422 0 0 0
706 1 -1.2 20.940707614708586 7.281057514095533 4.909965218143739 0 0 0
1948 2 2.4 19.55058513351695 7.687780066512453 4.054176188185515 0 1 1
1475 1 -1.2 26.62632241949835 7.007776007937864 3.0184025817109656 -1 0 1
1040 1 -1.2 25.34977943760929 7.691812385139661 5.145102722061672 -1 0 1
493 2 2.4 25.724767404358477 8.208894501434575 3.679070875420461 0 0 1
931 1 -1.2 29.4275548436702 6.621602705942793 2.762429925846084 0 0 1
867 2 2.4 30.123156290373746 7.500542504968738 3.9586012777618227 -1 -1 0
981 1 -1.2 30.114040542623894 6.86213367821952 5.470949775815483 -1 0 0
292 2 2.4 1.9970410874952595 9.159358564125512 2.9715966774775757 0 1 0
163 1 -1.2 1.064248462101708 10.53182157493311 2.976079510355748 1 1 0
561 1 -1.2 4.57073900832873 8.041745386177817 5.126432149389047 1 0 0
1990 1 -1.2 3.277888806601472 9.728539091981775 3.7196507974522333 0 0 1
27 2 2.4 4.60280443379384 9.58710072566586 4.751617572284903 0 0 0
297 1 -1.2 5.943373596735444 10.168651966609008 4.0060440390038465 0 0 0
891 2 2.4 7.343769200096294 10.918508856796645 3.6911639275572754 0 0 0
1620 1 -1.2 8.614200913525218 9.930350219944525 3.7398815932189216 -1 0 1
1120 2 2.4 9.280723196706155 8.599493065639093 3.074753754516102 0 1 1
341 1 -1.2 13.6950450461159 9.599299515880492 5.835791931913845 0 1 0
596 1 -1.2 15.782083303673204 8.452430082735768 4.810396282935148 0 0 0
2111 1 -1.2 19.805090381742914 9.23953152717856 3.743496108467477 -1 1 1
1516 2 2.4 20.344285468575034 10.890226724479302 3.7607987309094812 0 0 0
228 1 -1.2 26.65162403385002 9.512733600483243 3.683853573516891 -1 0 0
1165 2 2.4 28.243011794297193 9.83519548566887 3.186968469208706 -1 0 0
1218 1 -1.2 29.226078591475957 8.837475156478593 3.912589425362421 0 0 0
1944 1 -1.2 2.648680039223526 12.930196985857378 3.3955620823648225 1 0 1
1182 1 -1.2 7.600894794136966 12.163643490930964 4.81928335670359 0 0 0
315 2 2.4 8.39224598221229 13.573248536183327 4.897085617596225 0 0 0
750 1 -1.2 11.953858705525368 11.346791897076903 5.340901323009126 0 1 0
1826 2 2.4 12.464789980940797 12.385220951042532 4.166582040154903 0 0 1
789 1 -1.2 11.799476112639772 13.874344975459374 4.3831719237167714 0 1 1
1497 1 -1.2 14.076706467593125 12.656744862752557 4.225462819494826 1 0 1
73 2 2.4 15.393730688921014 12.508342231943246 5.172123281586444 0 0 0
522 1 -1.2 15.751825998471134 11.0328644602799 5.769528592097313 1 1 0
1415 1 -1.2 16.65843225741561 12.940314110437042 4.159560565477362 0 0 0
2055 2 2.4 18.16575714659589 13.132030994729718 3.654600052336535 0 0 1
1799 1 -1.2 18.96421006192458 11.72837952122862 3.8306127907502927 0 0 0
1728 1 -1.2 21.454662144268333 11.124703021835348 4.925349825023866 0 1 1
197 1 -1.2 23.531641742154786 13.59728439459579 2.9293420471671157 0 -1 0
21 1 -1.2 25.8331905825018 12.399211162184358 3.328713041662262 -1 0 1
1924 2 2.4 27.30460053788413 12.5633338878967 3.8075466914760248 0 0 0
1967 1 -1.2 27.540853262345202 13.209854954893629 5.267885309621885 -1 0 1
731 1 -1.2 28.38713194433219 11.396385889600156 3.6550590526920668 -1 0 0
254 2 2.4 3.966793200593949 13.898035766370912 3.2253608793823205 1 0 0
1446 1 -1.2 4.504524454258174 14.091766876393265 4.770114544519071 0 -1 1
1201 2 2.4 5.6747799524360065 15.033016457620583 5.468630357464482 1 0 1
1726 1 -1.2 7.217251567340206 14.670423386843547 5.282805600353577 1 1 1
800 1 -1.2 9.08814955885926 13.7848333838134 3.389180881107009 0 1 0
1388 1 -1.2 10.52041493660248 15.899735765183419 5.601289065638754 0 0 0
2100 1 -1.2 8.573419829337267 16.311825558481804 3.002494667431403 0 0 1
1333 2 2.4 10.946443627538976 14.319926157509551 5.686833837521172 0 0 1
794 2 2.4 18.588514292140697 15.62373533853387 5.175760697983298 -1 1 0
2105 1 -1.2 19.06163764106707 14.255953816223577 4.404524479861704 -1 1 0
917 1 -1.2 19.77269912660549 16.54296345515883 5.759931141444246 0 -1 0
223 1 -1.2 24.619055431311043 16.010918449464597 2.857684806837998 -1 0 0
301 2 2.4 23.2512560192415 15.191283921853614 3.270432714064153 0 0 0
1518 1 -1.2 22.842080232785577 15.71843551222838 4.669808454341362 0 0 0
96 1 -1.2 30.012541211580007 13.991408028775826 4.455856164719006 -1 0 0
1755 2 2.4 28.880783492419713 14.053233078702982 5.684136806733528 -1 0 1
1329 1 -1.2 5.258461678944822 16.57919139231366 5.040611502238019 1 0 1
1272 1 -1.2 4.648081305381546 18.879752215878987 3.4700667444470694 1 1 1
1444 2 2.4 3.175862725126241 19.248980603749516 2.931915472894115 1 0 1
1429 2 2.4 5.553539713785704 18.099206840129703 4.608213251099115 1 0 0
1452 1 -1.2 7.089668859208693 18.200180395645976 4.178233052924098 0 -1 1
1427 1 -1.2 10.515233042985813 19.102441112814358 3.9101240308194547 0 0 0
257 1 -1.2 16.672595301658916 18.97475318261831 3.5586871255930026 0 1 0
600 1 -1.2 17.75857852644318 16.681541175763357 4.203873175150376 0 0 0
1408 2 2.4 17.727223315194014 18.28913424625176 4.538391551337729 0 0 0
1740 1 -1.2 19.219900707156384 18.85665216784628 4.229638996890071 -1 0 1
910 1 -1.2 27.62686050473749 18.965149347214542 4.693909566962197 -1 0 0
868 2 2.4 1.0264629191797168 20.602975450491307 4.9779267785282215 0 0 1
392 1 -1.2 2.245306429262826 20.12593971975689 4.008089497801228 0 1 0
194 2 2.4 10.690232841790404 19.579218396817907 5.498510023060458 0 0 0
2076 1 -1.2 12.053588463169353 20.515591850315055 5.562007163501788 0 0 0
309 1 -1.2 13.512978465493276 21.623698172279045 3.4718654811946847 0 0 0
1878 1 -1.2 18.64685333546083 21.069600623315637 3.166039241714366 0 0 1
818 2 2.4 19.724275598947557 20.469972421305062 4.228767182045053 0 0 0
1685 1 -1.2 21.285744874591014 20.71109426254471 3.926405835077782 0 1 1
2140 2 2.4 22.096125144827027 22.141479824231595 4.4698694925050555 0 1 1
354 1 -1.2 26.526012823588527 21.476415614488374 4.688763730060926 0 0 0
299 1 -1.2 0.3000026453155592 22.014893921609318 4.443012422042058 0 -1 0
2094 1 -1.2 0.08584532144031945 24.531516762377358 4.026916268034656 0 0 1
216 1 -1.2 5.791551397210832 23.713817575561634 4.970762831672512 0 0 0
1553 1 -1.2 10.252537652522662 23.33388167078725 4.132957894305508 0 0 1
1381 2 2.4 11.114288146765528 24.353626513960936 5.04247378807561 1 -1 0
899 1 -1.2 12.612651411995767 23.97509676980749 4.516568543978542 0 -1 0
1420 2 2.4 13.754196192810452 22.844993696213756 4.515768713791048 0 0 1
559 1 -1.2 15.02377337692897 23.740379100207555 4.103323464232674 0 -1 1
343 1 -1.2 21.03194698134826 23.497000627526297 4.395672435453544 0 -1 0
157 2 2.4 20.219593856258662 24.643603683939833 3.5772112766277333 0 -1 0
1569 1 -1.2 23.354203198899896 22.455702232693703 3.5830742627250123 0 0 1
812 1 -1.2 25.713313624300635 23.44918711637467 3.1217755706782895 -1 -1 0
1166 2 2.4 26.6493602137317 23.10619686939966 4.396174355856173 -1 0 0
2151 2 2.4 29.71365401546121 23.27453569621406 4.73869671430017 0 1 1
342 1 -1.2 28.224533652919202 23.228325647177023 3.981012412769053 1 0 0
16 2 2.4 0.00037393584453203853 25.371638836849115 2.6268615597209184 1 -1 0
1114 1 -1.2 0.6742855189909105 26.838062328138324 2.7057143759122013 0 0 1
1758 1 -1.2 4.369966999193179 25.848238245041816 4.357427075909998 1 -1 1
1336 2 2.4 3.5579568291563315 27.1254277870674 4.9515682153715925 1 -1 1
567 2 2.4 5.718569038715919 25.002456990940026 4.005316754836808 1 0 0
2062 1 -1.2 6.814214323538386 26.210516491014957 4.256058723195012 0 0 1
1611 2 2.4 7.5087024102083095 27.532013744554707 3.566745878015693 0 0 0
1598 2 2.4 10.50533192431245 27.50918905848808 4.593195385589561 0 0 1
1460 1 -1.2 10.842029805082339 25.88365313910221 4.67229631091811 0 0 1
1430 2 2.4 18.380667168199643 26.880556789892808 4.7382903073193905 0 -1 0
594 1 -1.2 17.549530470377018 27.278124856176373 3.3441212120375403 0 0 0
1626 1 -1.2 19.179063791540145 25.512191889682338 4.496459704407222 0 0 0
1422 1 -1.2 21.29325770817515 25.512138436684157 2.73914367949277 1 0 0
1222 1 -1.2 26.900324732782035 26.911675652019838 3.679728248197959 1 -1 0
663 2 2.4 27.11275561465673 27.360892332421002 5.250372574016622 0 -1 0
746 2 2.4 1.605119780264461 28.15889467479245 2.5859332066395253 1 0 0
141 1 -1.2 0.8266133583413919 29.47010096494453 3.02980837909589 1 0 0
1521 1 -1.2 30.22737924718403 30.030730321656183 5.386153351165062 -1 0 0
1806 1 -1.2 2.8611354407006293 27.8070783576397 3.6282061112537334 0 0 1
1566 1 -1.2 6.957677061813208 28.90454163734918 4.355098244644788 1 0 1
1526 2 2.4 5.715315712039292 29.431670226833152 5.273022626669636 0 -1 1
1920 1 -1.2 9.067737676505445 27.54257375601481 3.80943578107427 0 -1 1
1372 2 2.4 12.791213895991248 28.999827156773947 2.763535084321818 0 -1 1
667 1 -1.2 11.690292109999847 28.215999886936544 3.7223278665174044 0 0 0
2145 1 -1.2 13.770525940029431 29.88139288465061 3.7110270267342784 0 0 1
985 2 2.4 15.026742845917635 30.091034292397367 4.7554731304274025 1 -1 1
1115 1 -1.2 16.485011833730372 29.817771714224527 3.86575816118081 0 -1 1
1803 2 2.4 17.537569191376015 28.868218872924977 2.9451040932793258 0 -1 1
414 1 -1.2 19.055488867959845 29.534424585764643 2.960831152494333 1 0 0
407 1 -1.2 19.465020801048986 28.147874698785774 5.0968910704341575 0 0 0
1214 2 2.4 20.199405739258722 29.242613586697747 4.1203842475163635 0 0 1
670 1 -1.2 21.654619759386115 28.843036900316093 3.557009642980497 0 0 0
1374 1 -1.2 23.664461555831725 27.953262582445586 4.596704838104296 0 -1 0
866 2 2.4 23.235015479790924 29.265432137695996 3.7854640866940357 0 -1 0
1089 1 -1.2 28.30373686765529 28.365017610492263 5.146338294427904 -1 -1 1
1524 1 -1.2 1.947851267498233 1.7758860643178283 8.440775048144928 0 0 1
9 1 -1.2 3.5820688888587418 2.0056293972334767 6.172603638153071 0 0 0
1681 2 2.4 3.2273760570017527 2.5443808663376997 7.653786061633267 0 1 1
644 1 -1.2 8.56548343314437 1.8428584888047008 7.054205436233522 1 0 0
399 2 2.4 9.301856260852471 1.0754739240802718 8.243818359417947 0 1 0
524 1 -1.2 10.685470204689356 1.887226392688744 8.607373808006635 0 0 0
290 2 2.4 15.87636906049356 2.2930930926779665 6.096884272188707 0 1 0
139 1 -1.2 14.630045797476383 0.05922618738965036 8.368021007556745 1 -1 0
1337 1 -1.2 15.067466183153122 2.5439058729062243 7.5163831120493425 0 0 1
660 1 -1.2 17.19728167532695 1.5400765757020158 6.610149004341169 -1 1 0
481 2 2.4 18.642357255289845 1.520754932052027 7.333631476355334 0 0 0
144 1 -1.2 19.1460519529725 0.02139726789983223 7.565518225322557 0 0 0
77 1 -1.2 19.606176515264938 2.288327878242918 6.218241729331592 0 1 -1
503 1 -1.2 23.206794518061297 1.865179590290413 6.638080049636555 0 0 0
834 1 -1.2 25.599846565149587 0.9584492423852604 6.056862514901454 0 1 0
184 2 2.4 26.43485881781141 1.7651280233890148 7.219538134079685 0 0 0
979 1 -1.2 25.288865203422265 2.229052709943034 8.211654198301048 0 1 1
1097 1 -1.2 27.556647671610545 0.7697161640836699 7.890790784965043 -1 1 0
1133 1 -1.2 2.8787929989880956 4.170026814948132 7.516169906253373 1 1 0
1753 2 2.4 3.7564145008316876 5.4659443245104065 8.096857311014057 0 0 1
785 1 -1.2 6.681752985368754 3.6990561583655124 7.7613204283045745 1 0 0
52 2 2.4 7.842373337334728 3.291201193149482 6.72570969354591 1 0 0
1318 1 -1.2 8.972149073459647 4.516964693987122 6.7958579875526075 0 0 0
195 2 2.4 10.54782163067182 4.6956822086647465 6.325846418161574 0 0 0
150 1 -1.2 11.644655422685346 4.045767565055504 7.382641779219305 0 0 0
2116 2 2.4 23.749166636858334 2.696004620708469 7.900782717559344 0 1 1
1243 1 -1.2 23.587931750680898 4.309717420294984 7.856966815998899 -1 1 0
2002 1 -1.2 27.272624066059127 3.003105182091832 6.664629875686007 0 1 0
2087 1 -1.2 4.5193034427150875 6.296738251941135 6.911894126413947 1 0 0
147 2 2.4 5.608200340562856 7.144940900422905 6.079323651949253 0 1 0
912 1 -1.2 6.405886406084103 8.064417575173717 7.068643902148891 1 0 0
630 1 -1.2 10.89536089609966 6.215917916318195 5.935794143655912 1 0 0
1649 1 -1.2 13.967174254404464 6.7128730493448385 7.609241389485212 0 1 0
807 2 2.4 15.529032318208195 7.2272394919632985 7.670158813302596 -1 1 0
1248 1 -1.2 16.308470204508534 6.469446550889991 6.5034948700183985 0 0 0
409 2 2.4 21.215532830836427 6.310672389606071 6.200679858574489 0 1 0
945 1 -1.2 20.060391829955158 6.709344090377033 7.280958415333228 -1 -1 0
1825 2 2.4 20.096516870946743 7.578648415020365 8.65463744299261 0 0 1
423 2 2.4 23.92823689087658 5.591664680042429 6.8938836647991435 0 1 0
552 1 -1.2 22.63281334727604 6.597614865591906 6.826388488827337 0 0 0
1373 1 -1.2 25.302394159266424 6.308435238976788 7.340206638783226 -1 0 1
1981 2 2.4 26.147555405894472 7.5277001119912725 6.559416197238145 0 0 1
2123 1 -1.2 27.653395804016977 6.997188939803178 6.246271190476682 -1 0 1
1757 1 -1.2 29.59174466531799 5.792879903345166 7.810612522847927 -1 0 0
806 2 2.4 28.995826254676548 6.044723080344178 6.324590101371736 -1 0 0
1545 1 -1.2 2.7767762484981113 10.608546017424974 8.359773696340042 1 1 0
1104 1 -1.2 4.298089825375278 10.57947626292056 6.06078740488323 0 0 0
136 2 2.4 7.95687949349724 8.5824779816879 7.345282746895026 1 -1 -1
1362 1 -1.2 7.984075520121526 10.282777849135773 7.50303849895774 1 0 1
56 1 -1.2 5.543445949477816 10.59717492640369 8.37804813120444 0 0 0
1061 1 -1.2 8.808261211069924 7.9192028574906965 6.132453314347547 1 0 0
1229 1 -1.2 11.211069752243985 8.954396440295222 6.4557136720596935 0 0 0
950 2 2.4 12.296312093439301 10.205446688001414 6.476506075549778 0 0 0
751 1 -1.2 12.595819778965957 10.902949179798439 7.88382243420114 0 0 0
112 2 2.4 15.297586036706035 9.449504797693928 6.004726848232493 1 0 0
954 1 -1.2 15.751867153573238 8.823946663995153 7.462521233424149 0 0 0
1555 1 -1.2 20.642340316413495 9.01121478448606 8.103497462074229 0 0 0
1861 2 2.4 22.03578130692626 9.706284908767195 8.553940061785953 0 0 0
210 1 -1.2 22.63280386690292 10.402906187491276 7.21991945091891 0 0 0
791 1 -1.2 26.18757646520463 8.816155375709995 7.5024707992715705 0 1 0
1343 1 -1.2 1.4108685114226787 13.173462983397396 8.512877115094103 0 0 1
1730 2 2.4 4.197555205771329 11.035697554539539 7.582113821326359 0 0 1
908 1 -1.2 3.9293000017436706 12.639076234076576 7.866234213369293 1 0 1
308 1 -1.2 7.13243851189267 12.783102366351507 8.034609940268684 -1 0 0
1432 2 2.4 7.087632240324191 11.215906876324144 8.512511732033168 1 0 1
1171 1 -1.2 9.573902183836095 13.406195904024617 5.9105012228357054 0 1 0
2046 1 -1.2 15.303778266103656 13.544679470660043 6.437715610537364 0 0 1
466 1 -1.2 17.358340708914284 13.375046092955227 8.056488737343887 0 0 0
1254 1 -1.2 20.538217667920758 11.950777161540124 7.330951032903205 -1 0 0
2005 2 2.4 21.825037744859376 11.607556960594561 6.426119884003088 1 0 1
1244 1 -1.2 22.82848772533945 12.871859363338684 6.482650453223141 -1 1 0
588 1 -1.2 24.581981543193145 13.057707621593375 8.448077323715951 0 0 0
1009 2 2.4 30.19735216646319 13.052641463599075 8.392808805085139 -1 0 0
752 1 -1.2 29.652588825383223 13.354660468278986 6.9009697873296405 -1 1 1
1686 1 -1.2 29.785697784745842 11.46658287580742 8.584984881701526 0 1 1
1762 1 -1.2 5.4666520219680566 14.785575258233933 7.089196291419326 0 0 1
759 2 2.4 6.34512137013009 14.219534439244757 8.28895311224802 1 1 0
876 1 -1.2 10.591261736443919 16.153984782800098 8.323508989781963 0 -1 0
1715 1 -1.2 11.860043724826898 14.097398449938604 7.049913787925832 0 1 0
578 2 2.4 11.673210909950441 14.918962257490815 8.405991119194212 0 0 0
1877 1 -1.2 15.646349685664733 15.544871643887062 8.11684052629333 -1 0 1
231 2 2.4 16.488928453130566 14.467490865678702 7.204272274338047 0 0 -1
907 1 -1.2 17.432795885217445 15.279324122187777 6.245669029075989 0 0 0
1502 2 2.4 23.468495029345746 13.824788007170394 7.571969366547464 0 0 1
238 1 -1.2 24.089098791885238 15.15738460042794 6.864676678033464 -1 0 0
76 2 2.4 23.174932769481448 16.31893458671851 6.188482959844896 -1 -1 -1
2147 1 -1.2 28.534220896099104 15.632681336294773 5.7822262923817025 0 0 1
248 1 -1.2 -0.07481206122662203 19.41900484654881 5.1246701975997535 0 0 0
405 1 -1.2 5.218442993157638 18.95367358518091 6.003927607855385 1 0 0
852 1 -1.2 6.031053869244609 17.63867982267447 8.064311653808241 1 0 0
123 2 2.4 7.52396084699901 17.084255930293086 8.355377988312057 0 0 0
927 2 2.4 5.849641479940897 19.13714296406957 7.450881951379322 1 0 0
1339 1 -1.2 8.569631048001328 17.090716974176768 7.121673821610843 0 0 0
952 2 2.4 10.204572839166389 16.874449552817318 6.924269980606593 0 0 0
2155 1 -1.2 11.005779734773446 18.240346025477088 6.449314700489389 1 1 0
512 1 -1.2 17.08001046059453 18.616236458839023 5.986018434136273 0 0 0
1853 1 -1.2 21.902916345587467 16.83514289360627 7.042517184207306 0 -1 1
693 1 -1.2 19.271256645658713 16.674518228894947 8.234754675396175 0 0 0
208 2 2.4 20.306381493647947 17.23038376268902 7.10002778395654 0 0 0
539 1 -1.2 20.11666764701123 18.85020758312978 7.18339436120888 0 0 0
187 1 -1.2 24.115067400581847 17.60107974616236 5.974751027312001 0 0 0
1092 1 -1.2 25.00136501507664 18.182661972827663 8.46369190347169 -1 0 0
174 1 -1.2 26.57356928904288 17.152290892416055 6.6545778274641 0 0 0
122 2 2.4 25.336218543183286 18.144462877888508 6.910986603816107 0 0 0
1033 2 2.4 28.058539611509005 16.545471727525786 6.961384013090363 -1 0 0
1897 2 2.4 28.85942002808514 19.06649039936116 5.806558937127217 0 0 0
1894 1 -1.2 29.12237381104006 17.80518654168631 6.915223865777731 0 0 1
1257 1 -1.2 1.7885221579636907 20.882428238488377 6.405457335687977 0 0 0
1360 2 2.4 1.559767635985891 21.234800240959075 7.92987318222635 1 -1 1
439 1 -1.2 0.6887724954657096 19.99155065198122 8.47289964823121 0 -1 0
1658 2 2.4 4.54030504739925 21.545617052276313 8.365185625261782 0 0 1
737 1 -1.2 4.896179037575651 22.152396038476056 6.865019117853295 0 0 0
1461 1 -1.2 2.9383562674943815 21.47767957219892 8.74901688185336 0 0 0
1289 1 -1.2 7.364915857967105 19.800497711456675 7.432774902859476 1 0 0
72 1 -1.2 9.463069896971744 20.432391345094207 6.1283195232573044 1 0 0
724 2 2.4 8.312795761630193 21.024063717991638 7.145594300794146 0 0 1
859 1 -1.2 8.800597843482576 21.7579882661153 8.508572625797337 0 0 0
1724 1 -1.2 13.03630601646818 20.74390246528944 8.002612262194363 1 0 1
316 2 2.4 13.381445285966485 20.62049866497521 6.447013720866268 0 0 0
20 1 -1.2 14.428002532078045 19.428628965011843 5.9026002450111745 -1 0 0
734 2 2.4 16.027964362328 19.81078841696358 6.153051184309827 0 0 0
138 1 -1.2 15.986140031907492 20.561359093647287 7.710524587306216 0 0 0
226 1 -1.2 16.846546641800888 21.213672003548965 5.604032618364724 0 0 0
725 1 -1.2 18.397534112167055 20.80029397903627 7.95361592907905 0 0 0
2102 2 2.4 17.211767721231038 21.59911624596405 7.155623477910785 0 0 1
886 1 -1.2 19.586366341944508 21.054309361428945 5.690591140487257 0 -1 1
267 2 2.4 19.752021743670753 20.44088475647072 7.146732096933855 0 0 0
838 1 -1.2 20.915058979713102 21.30416508328036 7.874882782163207 0 0 1
586 1 -1.2 22.5369733698891 21.84785788048476 6.0071673755242925 -1 0 0
651 2 2.4 22.302568661758546 22.05572556536897 7.664725448820538 -1 0 0
903 2 2.4 26.808092273018048 20.23391969887173 5.657367341720541 0 -1 0
413 1 -1.2 25.556175617554217 19.640553069074752 6.421855239708715 0 1 0
1158 1 -1.2 28.171425526501675 20.347462063661045 6.58193158912394 -1 0 0
1233 1 -1.2 0.6247115244588897 22.5219235703671 8.132049814858117 0 0 0
1646 2 2.4 -0.10796706339924989 23.83283824013981 7.5788967618605 1 -1 1
677 1 -1.2 7.515214515055162 22.188220827483534 6.27308129618874 0 0 0
967 1 -1.2 6.355837011618611 24.240371922318047 7.588382713282046 0 -1 0
1957 2 2.4 6.1638403275895906 23.084698869709186 6.42020604421965 0 0 1
1625 1 -1.2 10.950906100815084 24.13459457249867 6.627182916929524 0 0 1
638 2 2.4 11.604084460180612 24.3801439102401 8.12438436334833 1 -1 0
502 1 -1.2 12.840429861366175 23.292000219294472 8.389932062358477 0 -1 0
1471 1 -1.2 14.053526655945445 22.02486435798389 5.942477836078757 0 0 1
1919 1 -1.2 17.515854238066773 23.228503799485914 7.261283349862651 0 -1 1
1407 2 2.4 18.112168884555327 24.321587959727353 8.39504071921544 0 0 1
320 1 -1.2 19.703919562706698 24.600313870056723 7.971470610145373 0 0 0
219 2 2.4 21.231643983247558 24.917743179309376 8.286083805565484 -1 0 0
1445 1 -1.2 22.23140933026332 23.628656663680847 7.862168509949911 -1 0 1
1787 1 -1.2 26.137247685866125 23.728064051667804 5.854737090768495 -1 -1 1
2160 1 -1.2 25.706064691890912 24.523419205480955 8.185500401604067 1 0 1
1256 1 -1.2 29.41752902715425 23.413101203527624 6.289244858549236 0 0 0
1224 1 -1.2 0.9791714060310797 24.82643186236119 6.873696375026327 1 0 0
1084 2 2.4 1.1708700133813956 26.498275987086604 6.906411195271147 0 -1 1
476 1 -1.2 0.770697963088766 26.863471600953158 8.391131126152555 1 -1 0
1305 1 -1.2 2.6433775438656895 26.891500734822987 6.224042297692638 -1 -1 0
233 1 -1.2 5.420135649449662 27.505336903093596 8.135609311073631 0 0 0
1774 1 -1.2 12.234412667896224 25.899990092840582 8.289953293364151 1 -2 1
2131 1 -1.2 17.411082549252104 26.889271001682797 6.053704992926385 0 1 0
1563 2 2.4 17.369982327258832 27.216889059042146 7.649263683246181 0 0 1
91 1 -1.2 17.23918810168692 25.738931778308437 8.308159418158567 0 -1 0
1193 1 -1.2 21.78162736659708 26.212159094125504 7.445749639574479 0 0 0
2113 2 2.4 24.420210974641275 27.63050340920838 6.006465801813758 -1 0 1
153 1 -1.2 24.706080002245205 25.93602201096324 6.129552129507374 -1 0 0
1490 2 2.4 25.961378203916283 25.123726443045832 6.694032214392087 0 0 0
720 1 -1.2 27.331178673631335 26.121276140819063 6.416913070578448 1 0 0
2047 1 -1.2 0.19451050067421644 27.41538176302743 5.966367149084987 1 0 1
449 1 -1.2 4.722321598240273 28.156328757181946 5.291646344544338 1 -1 0
188 1 -1.2 6.185697819940016 29.671196185570807 6.862396127536322 1 -1 0
507 2 2.4 6.636389668202796 28.551171505622424 8.014282988829855 0 0 0
1162 1 -1.2 8.154305657421284 27.876278052834056 7.716236591500909 1 0 0
1690 1 -1.2 9.48500648808862 30.078403695006074 7.769757529189872 1 0 0
417 1 -1.2 10.312964186355083 28.170655199715267 6.0691452106850035 0 0 0
1899 2 2.4 9.677919633681844 28.411233598808206 7.595229843952531 1 -1 1
1567 1 -1.2 13.392490935431974 28.27804783852472 7.946910705541824 0 0 1
2061 1 -1.2 16.146224692586895 28.12487839181688 8.111927816222058 0 -1 0
271 1 -1.2 14.948237340662333 29.103545063065955 6.102384006418246 1 0 0
4 2 2.4 14.806811545405628 29.07103970153119 7.7155972579348555 0 -1 0
1292 1 -1.2 18.74203869730797 27.925014253561265 8.08520923878512 0 0 0
599 1 -1.2 21.250113974468526 28.956279744362874 7.67646891283773 0 -1 0
1863 2 2.4 19.689183234842 29.2105698936764 8.281017673170139 0 -1 1
1705 2 2.4 22.267120946927097 27.7062112426877 8.054162872065522 0 0 0
382 1 -1.2 23.572814967084497 28.1833066494628 7.242557772881439 -1 0 0
190 1 -1.2 25.858098226422094 28.24871480105411 5.8342680313810975 0 0 0
1 2 2.4 29.568685482005574 28.749855856120288 6.096089216503934 0 -1 0
767 1 -1.2 29.00678921880108 29.06439944524739 7.506266493864437 -1 1 0
1263 2 2.4 0.9864205710287268 1.2353775744199338 9.60372933526989 1 0 0
533 1 -1.2 1.8737186036723539 0.1884219864110264 10.553196649279466 1 0 0
1963 1 -1.2 4.550570249319511 2.2540055868637636 8.593089761107693 0 1 1
1352 1 -1.2 4.325768515502074 0.2684853348638282 11.45822252114075 0 0 0
121 2 2.4 7.664483942775475 1.9934865454414648 10.834077550534332 1 0 0
30 1 -1.2 8.51669480781771 1.314553730260773 9.617402434090456 1 -1 0
2033 1 -1.2 13.079596705913636 2.372710172011118 9.083108106467888 0 1 1
817 2 2.4 14.550712323316453 1.6407882994046201 8.858237952560064 0 1 0
1100 1 -1.2 15.406768849840011 1.9387087176002478 10.226622799476576 0 0 1
45 1 -1.2 18.674324977468416 2.353492346620542 8.694137383025613 1 0 0
2021 1 -1.2 21.368547303278795 1.726826755238138 11.195791583965978 0 1 1
247 1 -1.2 22.768739890527854 2.079377822323294 9.082125577042369 -1 1 0
1570 1 -1.2 30.009306058973202 0.4872677280250982 8.984355121059597 0 1 1
763 1 -1.2 28.10338762917426 2.2408657983233384 11.400007687996931 0 0 0
1519 1 -1.2 0.3343480515873965 2.4275424374795946 10.621288635247454 1 0 0
845 1 -1.2 4.8283864008098405 4.790360054853946 9.193762459259046 1 1 0
691 1 -1.2 6.450610160208107 2.9399660929409692 10.239491294574417 0 0 0
327 2 2.4 5.669861665091589 3.429224465194797 8.973214797770924 1 1 0
1383 2 2.4 11.673015500507633 3.0897186082568817 8.756580022486677 0 0 0
1773 1 -1.2 11.051157455910259 4.085891632955433 9.908954005832129 0 1 1
792 1 -1.2 16.2264454383951 3.8085791241564246 11.654930003448559 0 0 0
1952 1 -1.2 18.382657492215426 4.893811228417229 9.04061429647379 0 1 1
395 1 -1.2 18.70308961523677 3.362471925185245 11.198407823797357 0 2 0
1804 2 2.4 19.22730331825716 3.6195371060199006 9.627135160601105 0 0 1
1185 1 -1.2 20.856528181056852 3.93840527445348 9.654480702799212 0 0 0
352 2 2.4 22.057039373273675 2.8980841873371728 10.256880365635801 0 1 0
1331 1 -1.2 23.095144136821755 3.906644758944833 10.965989746364752 -1 0 0
639 2 2.4 24.055276013943544 5.131133436676948 11.380109300414972 0 0 0
205 2 2.4 29.443589915449774 3.2313055458997084 11.051277116648459 0 0 0
632 1 -1.2 29.1252043724762 4.41259138042225 9.95330604652645 0 0 0
1368 1 -1.2 1.869380649578624 8.078156879390109 10.986751162012682 1 0 1
1933 2 2.4 0.27125061373027287 8.149114749421448 11.001873176464517 1 0 0
261 1 -1.2 2.6919755882862737 6.357303455567295 8.965810057211765 1 2 0
592 2 2.4 2.8361658915272385 6.842136267395606 10.563268526373696 0 1 0
1042 1 -1.2 4.381526354210545 7.261916424740606 10.776637088195397 0 1 0
1807 1 -1.2 6.942626017191274 7.404972260782639 10.761504044031986 0 0 1
278 2 2.4 8.39306846047362 7.606283014349961 10.208425889574423 1 0 0
728 1 -1.2 9.190908194904276 6.151195664268225 10.351583101241458 0 0 0
1241 1 -1.2 8.524697459843257 7.853585504444406 8.610180094098762 0 1 1
675 2 2.4 10.72903712931054 5.684631435487922 10.06284983402789 0 0 0
1830 1 -1.2 11.531479177635235 6.294457093074832 8.797974002881448 1 0 0
1575 2 2.4 12.988162184399393 7.008561644962065 8.876696777866696 0 0 1
828 1 -1.2 11.449172309161964 6.251196831555382 11.418604078750903 -1 1 0
90 1 -1.2 13.798438802166524 6.356904062473658 10.228764709505537 0 0 0
1269 1 -1.2 16.141786031642358 6.623726918274851 8.999263680987065 0 1 0
1183 1 -1.2 18.54558699152963 7.604297240926604 9.165703333938136 0 0 0
462 1 -1.2 17.55785488074884 6.037894294735572 11.215650185137777 0 0 0
434 2 2.4 17.68345344203691 6.286283385514876 9.569617862692606 0 0 0
564 1 -1.2 21.010302713660963 7.138114378670615 9.936340493159635 0 0 0
949 2 2.4 22.45157695892007 7.801381171955012 10.561277439512402 0 0 0
319 1 -1.2 23.240714712084593 6.6215842582281335 11.308993858157445 0 1 0
551 1 -1.2 25.361968413707324 5.402758653316017 10.384696829210414 -1 0 0
1226 2 2.4 26.310160876525998 6.74032882237768 10.55742649066937 -1 2 0
1451 1 -1.2 27.44175298838146 6.38674534575309 9.345745610656461 -1 0 0
305 1 -1.2 30.06400935837732 6.909824569265916 10.068083919629089 -1 0 -1
1612 2 2.4 29.00800119292151 5.871280753439441 9.35977884476677 0 1 1
1572 1 -1.2 -0.05037344033635438 9.691888975719003 10.512509737464956 0 0 1
1261 2 2.4 8.313341576412958 10.517030900867816 11.350158412975746 0 1 0
1279 1 -1.2 8.863306914690938 9.003129488448282 10.935208843740062 1 1 0
1514 2 2.4 12.772574272813873 10.240832151031501 9.457622719672937 -1 1 0
1978 1 -1.2 12.82179003439889 8.60901557959105 9.152479075134028 0 0 1
943 1 -1.2 11.400343960713034 10.567444162825621 10.169702709723559 -1 0 0
884 1 -1.2 14.076570247590452 10.693057147562179 10.234365478276725 0 0 0
67 1 -1.2 22.06881363502446 9.126183965177836 11.400113317260175 0 0 0
1076 1 -1.2 23.052406098214593 8.603488954823204 9.228960317506678 0 0 0
1511 1 -1.2 25.722593872028455 8.305057682888386 10.029154857237648 0 1 0
1732 2 2.4 26.519941855283644 9.2840923740814 9.007500961272891 -1 -1 1
849 1 -1.2 25.987267195163298 10.861314157570074 9.058881320768545 0 1 0
1794 1 -1.2 28.155647932518814 9.387565209592147 9.332744493347302 0 -1 1
457 2 2.4 29.201703342373193 10.572583400208043 9.803841323569182 0 0 0
1790 2 2.4 2.6533485110571107 12.278161843002398 8.79926327170844 1 0 0
761 1 -1.2 2.814421007637394 12.431830030219983 10.440440411588837 0 0 0
1714 1 -1.2 7.629747978706799 11.0961067763459 9.988951804962854 1 1 1
159 2 2.4 11.092787130345743 11.260246942843672 11.650015384506808 0 0 0
2079 2 2.4 15.531219975307204 11.004318052970246 10.890017679015877 0 0 0
259 1 -1.2 16.29304410647607 11.302052966568565 9.430430820876401 1 0 0
986 2 2.4 17.508625927191 12.405043786159132 9.397957951911463 0 0 0
1749 1 -1.2 17.473206182908335 13.408891517918477 10.608514489125406 -1 0 1
815 1 -1.2 18.826710144428073 11.417759097923804 9.203440474757647 -1 0 0
1095 2 2.4 20.339849664360486 11.949303368202653 8.98478744053062 -1 0 0
1844 1 -1.2 21.61853580599366 10.996162754858613 9.574708258153617 0 0 0
1997 1 -1.2 20.279134999341714 13.35599302113002 9.766504625078705 0 0 1
1039 1 -1.2 27.088085825390756 13.278273273948901 8.57623714010428 -1 0 0
1144 2 2.4 25.849025786177997 12.434672901752599 9.245717594863754 0 0 0
415 1 -1.2 25.75737872940342 12.746618036074265 10.841060617323555 0 0 0
1964 1 -1.2 28.52201297093048 11.597885751418579 10.848886371280337 -1 1 1
2121 1 -1.2 4.77072192430927 16.199332574583202 11.030032393578068 0 1 0
1172 1 -1.2 5.492832883748951 14.125972281215647 9.64071133476783 -1 1 0
1608 1 -1.2 7.370843007893821 15.546820977783733 8.746792681062633 0 0 0
1107 2 2.4 5.436439742220014 14.66637023201258 11.199545949990304 0 0 0
1051 1 -1.2 9.4920498552589 14.188798186045815 11.62688977265514 0 0 0
500 1 -1.2 13.150845086108925 15.52983951201216 8.687220699475892 0 0 0
1027 1 -1.2 11.060286778547725 13.896974287749465 9.534476021136173 0 0 0
649 2 2.4 11.033826943312802 14.105981348712348 11.168616695902958 0 0 0
222 1 -1.2 11.869095349261542 15.434215029498745 11.46095052208587 0 0 0
69 1 -1.2 15.03768380016425 14.464149164311841 10.314702103389854 0 0 0
517 2 2.4 14.651656096418385 15.734575600006627 9.320131656195802 -1 -1 0
1995 2 2.4 16.115993157034207 13.842069246391906 11.353475871954831 0 0 0
1271 1 -1.2 18.04754605324544 16.340743766487915 10.692279371618488 0 1 0
450 1 -1.2 22.304433723601953 14.27900238118431 11.329417682851682 -1 -1 0
577 2 2.4 21.410195987589045 14.572472082554434 9.973501043643086 -1 0 0
348 1 -1.2 20.647583807656808 15.920892472258792 10.260129587530727 0 0 0
282 1 -1.2 22.21216755244434 14.32406213468743 8.56275400505959 1 0 0
1326 1 -1.2 28.155648884594516 15.867312648878745 8.431245903296611 -1 0 1
116 1 -1.2 27.194346005403652 15.096660585136044 10.550485065148262 0 -1 0
1925 1 -1.2 29.51694238745163 14.053143214245956 9.479804330770477 0 0 1
253 2 2.4 27.95560880347796 14.521338719436551 9.242526326076653 0 0 0
1327 1 -1.2 0.5108411537219667 18.566238989967147 10.669238583929273 0 -1 0
306 1 -1.2 6.476663540033074 18.218760464525136 11.494960031828466 0 0 0
2066 2 2.4 8.007100624200808 18.19723147739025 11.058232755230192 1 0 1
65 1 -1.2 8.237530128821964 18.20539273902293 9.447757258782548 1 -1 -1
1124 1 -1.2 8.670758184052245 16.63944138980259 11.462540289288514 0 1 0
1433 1 -1.2 14.749348317229249 17.159959760941423 10.113706160154837 0 0 1
1852 2 2.4 14.743541677646796 18.033631493790896 11.525140144257776 0 0 1
88 2 2.4 19.34114246324573 16.88555571084358 9.84258930717368 0 0 0
403 1 -1.2 19.616274630549345 18.472634598997228 10.204275002192714 0 0 -1
1150 1 -1.2 24.398335017950604 16.85374242020001 10.790827464391564 0 0 0
1131 2 2.4 24.984022431747956 18.230344134122312 10.113719166149227 0 0 0
1258 1 -1.2 26.569095767240324 18.42668951894649 10.29041780710772 0 0 0
1035 2 2.4 27.821684000511002 19.149491417674128 11.10417668931604 -1 0 0
283 1 -1.2 28.754277770210606 18.055048088788578 11.997873432376345 0 0 -1
895 1 -1.2 0.3436436356640499 21.212179987081967 10.949292075987552 0 -1 1
518 2 2.4 -0.08035756627196648 19.903307342284027 9.929456960085824 1 -1 0
2070 1 -1.2 4.9327905486730135 19.957969407016428 8.404711863468009 1 0 1
1161 1 -1.2 11.155033198528264 21.710475502383613 9.603493847008158 0 0 0
419 1 -1.2 13.522055586164067 21.67135884150699 10.488994999568666 0 0 -1
1684 2 2.4 14.830622488781298 21.225852246675984 11.396866396356682 0 0 0
1980 1 -1.2 15.024190821670167 19.60212522515135 11.312096691145358 0 0 1
1645 2 2.4 20.20704080706364 19.30972974430831 11.501389076907817 0 0 1
929 1 -1.2 21.47551926088126 20.01843434051317 10.753125690362907 -1 -1 0
1426 1 -1.2 23.207082011699065 21.308029969605304 8.773651511815483 0 0 0
1478 2 2.4 22.93643106698663 20.675896071856528 10.332022778536276 0 0 1
1663 1 -1.2 24.081366306033814 19.518177676957315 10.443149062411138 -1 0 0
1783 1 -1.2 23.33596344223002 21.92073874878782 11.30371112812363 0 -1 0
379 1 -1.2 28.62396072386404 19.879677669041453 9.844684124803724 -1 0 0
605 1 -1.2 5.368274806409529 22.5389685246247 9.4641404590173 0 1 0
1370 2 2.4 5.924635809841962 24.038526861622554 9.164875820699596 -1 0 0
1223 1 -1.2 7.161284696910592 24.326555179406697 10.139647386593616 1 0 0
169 2 2.4 7.880125630678361 23.887310800642954 11.521645330238872 0 0 0
166 1 -1.2 10.340170701145666 24.119398756468136 9.132253251158268 0 -1 0
386 2 2.4 9.795590851303013 22.568900831392597 9.554884898857837 -1 1 0
498 1 -1.2 9.097393266938234 22.78955322031351 11.038406634614537 1 0 0
1178 2 2.4 12.666462586664478 21.855014971379735 9.119834476064042 0 0 0
1074 1 -1.2 16.0782542211527 22.272802971129874 10.838400792162544 0 0 0
2119 1 -1.2 18.180761791004187 23.63840594285365 9.887625155494346 0 0 1
2008 2 2.4 17.18741529519812 23.46815171496569 11.223213339595988 0 0 1
773 1 -1.2 25.513075637950323 23.518373474447785 10.78419880118597 -1 1 0
2086 1 -1.2 29.58887682404876 24.598481614525365 8.806129627747447 0 0 0
22 1 -1.2 1.2880235521731653 25.400050874827485 10.382018761526925 0 0 0
170 2 2.4 0.0038217173641886155 25.880214118939 9.461032356655094 0 0 0
771 2 2.4 2.3918147305236377 26.37066770853097 11.231729936895155 1 0 0
1987 1 -1.2 4.748185081324057 25.18245587572626 9.201945630424742 0 1 0
310 1 -1.2 3.496444596024171 27.07801537906727 10.238149495491843 0 0 0
1119 2 2.4 4.925583285571905 26.701007134631826 9.53445249833278 0 0 0
1536 1 -1.2 6.2439003142811815 27.009187878804713 10.530191612581243 0 0 0
1455 2 2.4 12.319657321816718 27.40249067208412 8.798990872937528 0 0 1
201 1 -1.2 12.952312886871132 27.559136372313972 10.326713560013374 0 0 -1
2072 1 -1.2 16.94315388334846 25.058109010261457 11.572017491002944 0 0 1
186 1 -1.2 21.449674987523593 25.25484240858529 9.822925881001531 0 -1 0
1210 1 -1.2 24.107750950991075 25.470014311000664 10.076642189883604 1 0 0
1203 2 2.4 22.62931883143503 26.16189590717927 10.43900858346892 0 0 0
1196 1 -1.2 22.593944354545037 27.64776613197494 9.739625942596009 0 0 0
880 2 2.4 25.565455870284843 24.749772441359113 9.793353912579276 0 -1 0
947 1 -1.2 26.733982666949284 25.737155755935348 10.212602519409621 -1 -1 1
381 1 -1.2 29.215677974383514 26.707915637740232 10.236904129211476 0 0 0
1345 2 2.4 27.892914777029212 26.461984310954886 11.069823698550087 0 -1 0
2084 1 -1.2 6.869649521186197 29.3375226134057 9.424049101366279 0 0 1
448 2 2.4 7.0014687394397335 28.429334785778998 10.817433521044295 0 -2 0
635 1 -1.2 10.756481081327612 27.951336704977695 8.77211892242537 0 0 0
486 1 -1.2 8.59611472292161 28.332076365795814 11.18815862367999 0 -1 0
143 1 -1.2 15.143052705088326 29.631216617101526 11.037849393907779 0 1 0
930 1 -1.2 19.831087232316396 29.364998561954412 9.892055670126815 1 -1 0
1996 2 2.4 19.18483277059108 29.026320879681013 11.375642325153391 0 0 1
769 2 2.4 27.08220242702847 29.375482346023695 11.246956981014852 0 0 0
1363 1 -1.2 25.46723555407123 29.731271489229616 11.387575004712758 0 -1 0
1887 2 2.4 28.616322119088995 30.24496748929833 8.553848365863631 -1 0 1
1307 1 -1.2 27.775657788384482 29.57997790221161 9.808230559677249 -1 -1 1
1875 2 2.4 1.9861833658611643 1.8153571289744144 14.35733187885881 0 0 0
631 1 -1.2 2.5329519290693 1.6001985920644126 12.881631031004403 0 0 0
148 2 2.4 2.790479090419016 0.28289376821157053 11.944025943540003 1 1 0
1221 1 -1.2 5.276754840699249 0.19937111061927235 13.92688956559397 1 0 0
1236 1 -1.2 6.929148065427049 0.9022967479003868 11.767538250829737 0 1 0
2089 2 2.4 5.688486204016801 0.004154545249649705 12.329147670696493 0 1 1
334 1 -1.2 8.47483892813319 1.7680925558166238 14.111596064077686 1 1 0
1501 2 2.4 8.985443577915888 0.31696159150082026 14.350168753653866 1 0 0
1727 1 -1.2 15.755747035795109 1.6822980070858016 13.105331453745581 0 1 0
760 2 2.4 16.218618701791396 0.6853322879010457 14.263733010135462 0 0 0
723 2 2.4 15.271172636023275 2.5635340664967354 11.795044082446607 -1 1 0
1276 2 2.4 21.462272890669386 0.562066254688396 12.372465107604636 1 1 0
1821 1 -1.2 21.032386324706433 1.3543756113772394 13.687269696067736 -1 0 1
984 1 -1.2 23.070298301582998 0.17568591208707318 12.237151937637702 1 0 0
1316 1 -1.2 26.686316617075402 2.0910483681342553 13.74439399036561 -1 0 0
2117 1 -1.2 25.113034400646825 0.07576559993812876 13.952064143266496 0 1 0
579 2 2.4 27.80886939937371 1.4264920241774481 12.808267691852679 -1 0 0
933 1 -1.2 29.19203441994747 1.3420395062334651 13.756241356187527 0 0 0
1635 2 2.4 30.014430065176615 0.024435163975882815 14.189423111946864 0 1 0
556 2 2.4 0.09755255223751014 4.2750808527623185 13.92228022291983 1 0 0
864 1 -1.2 0.8699789487040384 2.9782632009905257 14.513979811776718 1 1 0
1314 1 -1.2 1.2249147833732725 5.455818966250311 13.990560048351483 0 0 0
1364 1 -1.2 4.03552409132741 4.749714192729205 13.789536706323114 1 0 1
1717 2 2.4 5.743629291787844 4.950872018948863 13.84858876662093 1 1 0
1941 1 -1.2 6.604532469570946 3.6163295481157838 13.51976259582101 1 0 1
135 2 2.4 8.177283439690326 3.198308580726519 13.390948706234095 1 0 0
1014 1 -1.2 8.545091470995647 2.9693313453506462 11.746736952028654 0 0 0
1532 1 -1.2 9.256229051709697 4.330851462906809 13.980368337305606 0 2 0
488 1 -1.2 11.786595456908707 3.7044062807819222 13.709307047426407 1 0 1
2138 2 2.4 13.338433748838407 4.064166709491388 13.272242896031777 0 1 1
946 1 -1.2 13.73906602226182 2.949642065077389 12.079981654818019 0 1 0
1624 2 2.4 17.67892178914268 4.531162530534573 11.876199563296503 0 0 1
355 1 -1.2 17.915275126546412 4.571175065463508 13.453443562171747 0 1 -1
591 2 2.4 19.232318156794104 5.104254387509459 14.282050383976777 0 1 0
1841 1 -1.2 20.389442940708474 3.9913533123254203 14.025147789229479 0 0 0
1462 1 -1.2 24.463109351540613 4.953804784210658 12.99218930129216 0 1 0
1751 1 -1.2 29.854023728823645 3.9965105008698103 12.403458191269351 -1 0 0
1437 1 -1.2 2.5821691069450154 5.751606208125579 11.78770523649355 1 0 0
3 2 2.4 2.724084873466025 5.673189048909346 13.374877947948946 0 0 0
780 1 -1.2 2.9345776295595987 7.1906098759596535 14.048838689778494 2 1 0
892 2 2.4 5.669553266230171 7.311525599855435 11.75843438129153 0 1 0
2022 1 -1.2 6.038897672402023 6.021970150010898 12.710709601704503 0 0 1
28 2 2.4 13.052918880690706 6.562341983749671 11.671695004844377 0 0 0
619 1 -1.2 11.606185319141739 8.144634947746413 14.313200408029864 1 0 0
1127 1 -1.2 13.072612545084757 8.168967729773417 12.144187983384741 0 0 0
33 1 -1.2 13.645697241274615 5.562878131903319 12.765732001312276 0 0 0
1164 1 -1.2 19.740226188728528 6.444790754155865 13.539078107601156 -1 0 -1
19 1 -1.2 26.61972568796119 6.975790031818085 12.106504323622147 0 0 -1
277 2 2.4 25.062202621651462 5.529342730020767 14.399195668338344 0 1 0
699 2 2.4 29.835321906085106 7.997520405948048 14.077304118973682 -1 1 0
1003 1 -1.2 28.971631264607744 6.735736852063658 14.524516319275058 1 0 0
1301 1 -1.2 5.558274856670628 8.64201475906091 12.677171005220773 0 -1 1
1538 2 2.4 5.605515691595707 10.269873506119708 12.97475711614268 0 0 0
2146 1 -1.2 7.148236495582504 10.719059903519506 12.476529674728598 1 0 0
808 2 2.4 12.562667398923205 9.095259064410454 13.393815815108328 0 0 0
1313 1 -1.2 11.698664619019528 10.304228844537617 12.790740266516801 0 -1 0
1836 1 -1.2 13.722936606898271 9.883891783578061 14.270639115615161 0 0 0
408 1 -1.2 15.807316886828524 8.456820862229575 14.104339018005486 0 1 0
71 1 -1.2 16.235439302219145 9.851782871452345 11.754425813757875 0 0 -1
281 1 -1.2 16.471700886062877 10.654429550407942 14.2983165870152 1 0 0
1393 2 2.4 16.819742171555767 9.404797731709623 13.210691819825191 0 0 1
527 1 -1.2 18.32124397515636 8.794466181204127 13.201645665846383 0 0 -1
376 2 2.4 19.62217227856342 8.044730322410937 13.891043564280409 0 1 0
1699 1 -1.2 21.159657928453466 8.512879566102525 13.512549125197964 0 1 0
2044 2 2.4 22.193762710533047 9.571684237779523 12.942714164068052 0 1 1
1793 1 -1.2 23.782672282964953 9.207005262324753 13.417685483549892 1 0 0
1835 1 -1.2 26.328508523230475 9.26733221720014 14.182608047119304 0 0 0
196 2 2.4 24.81124596435583 8.69095033120461 14.54900835197077 0 0 -1
550 1 -1.2 30.13974261146849 8.123517276206407 12.529943682081575 0 0 0
942 1 -1.2 27.869590907079147 10.990624979266306 13.127284938217585 -1 0 1
62 2 2.4 27.636099294803493 10.108075196952946 14.505711908520473 0 -1 -1
1442 2 2.4 0.9599367143016179 13.164459801916433 13.496205995922542 0 0 0
1412 1 -1.2 2.3276053802990515 12.489585377522834 12.983352152749378 1 0 0
851 1 -1.2 4.349330049940482 10.924169465213538 12.147138561853835 0 1 0
1167 2 2.4 3.530666781930251 12.356801724507703 11.918387493260582 0 1 0
816 1 -1.2 9.48811369055586 11.374968694348604 11.84943995331377 0 0 0
887 1 -1.2 11.576863240112928 12.789356211480676 11.807809470911561 -1 -1 0
479 1 -1.2 15.471101134451441 12.41161638091233 11.83868524066644 0 0 0
1829 1 -1.2 21.699026099257864 11.063520515336915 13.243565037247775 0 -1 0
218 2 2.4 21.325189809620294 12.286729261634616 14.277280139729541 -1 0 0
2016 1 -1.2 19.748946650575984 12.543085540709917 14.164347885191038 0 0 0
1523 1 -1.2 22.174504430734064 13.604335938849548 13.874095150298102 0 0 0
2158 1 -1.2 27.688288383938364 13.463735317112738 12.470173989177667 -1 1 0
1293 1 -1.2 30.11220656455253 12.566082351405209 12.73735423238654 0 0 0
1489 2 2.4 28.598023549943026 12.163629475967006 12.335936245382984 0 0 0
460 2 2.4 1.530481095594308 16.26028476542309 13.974868581849636 0 -1 0
1342 1 -1.2 1.0148969318531589 14.81384465338333 13.402682083360615 1 0 0
1053 1 -1.2 4.606682565625451 13.61924596079144 12.076623911080594 0 0 0
263 1 -1.2 3.107878223756172 15.979357946554032 14.328119731906192 0 0 0
729 1 -1.2 6.834415222971224 14.739219116486126 11.996221205839747 0 1 1
865 2 2.4 8.309137892154842 15.281334829443628 12.181734239105895 0 -1 0
1638 1 -1.2 8.891742338486642 15.500723925016944 13.770142274024064 0 0 1
461 1 -1.2 13.272319534796509 15.475465405012137 13.56392156403039 -1 -1 0
1481 1 -1.2 16.69982114035901 14.877972106474221 12.429813943485433 0 0 1
687 2 2.4 17.25095875457436 16.383562416326036 12.123681024735715 0 0 0
499 1 -1.2 20.772833369865666 15.646979010700457 13.065807433531388 -1 -1 0
1346 2 2.4 22.142045434355403 14.856434457712226 12.82400476187231 0 0 0
321 1 -1.2 23.12401681990101 16.035858440831387 13.162681194688314 0 0 0
829 2 2.4 24.492077723692688 16.30299152859449 12.395146916740744 -1 0 0
2091 2 2.4 26.504907219640614 14.053112973977115 11.585151911201237 -1 1 0
2036 1 -1.2 25.32882062348841 14.90636476943911 12.358308148677674 -1 0 1
1533 1 -1.2 0.8175364756304475 17.199486050265975 12.869315249789913 0 0 0
1731 2 2.4 -0.019294483553657933 18.348758845049584 12.211412708548712 0 0 0
978 1 -1.2 3.939148875466466 18.532538254943876 12.496688280053288 0 -1 0
565 2 2.4 5.171270442317352 17.457579853139475 12.085281705818986 1 0 0
535 1 -1.2 5.599553555113507 16.790352350965787 13.532312154179689 1 0 0
340 2 2.4 9.642485482131656 16.79579972910223 14.293015962272115 1 1 0
1691 1 -1.2 8.764019381661951 18.141891254726282 14.094635903946436 0 1 0
915 2 2.4 12.355806293274412 16.455294940036747 12.61186119887488 0 0 0
690 1 -1.2 11.120271183835651 16.906201672955152 13.592605997030978 0 0 0
1589 1 -1.2 13.242204674298112 17.70007469396187 12.066670541709513 -1 0 0
1413 1 -1.2 15.971214446178656 17.433609719532352 12.385199274093381 0 0 0
1721 1 -1.2 18.41104101589538 16.859170520148737 13.203816632701049 1 1 0
710 2 2.4 20.028310339667936 16.963669357953812 13.518419631944168 0 0 -1
103 1 -1.2 20.62649251385729 18.282028985760256 12.709737661490443 0 0 -1
548 1 -1.2 25.382835795679142 17.274821619577992 13.393788626432238 0 0 0
489 1 -1.2 0.09043550166702645 19.759558381473113 13.105691316935983 1 0 0
388 2 2.4 0.9861223764672458 21.028630108944178 12.40642721611548 0 1 0
1678 1 -1.2 2.535344300094035 20.51847050281258 12.275256555527607 0 0 0
733 2 2.4 3.8999385089219887 20.10060834014795 13.04961590201243 0 0 0
883 1 -1.2 5.140321441795983 21.06171218774238 12.610417461533023 0 -1 0
1664 1 -1.2 8.814536647993009 19.348709410073717 11.83975510497009 -1 0 0
107 1 -1.2 8.197498105770572 20.831198026989437 14.029399174861307 -1 0 -1
1093 2 2.4 9.125694358661084 19.574770722954977 13.50793380139014 0 1 0
969 1 -1.2 10.734509697176813 19.730810755007017 13.460758164169675 0 -1 0
595 1 -1.2 12.347671084450397 21.51616873932257 14.189329605113652 0 -1 0
608 1 -1.2 14.652637687977467 21.537666788651716 13.005857997352848 -1 0 1
436 2 2.4 18.652693333962507 21.48067650571798 13.166549890453723 -1 -1 0
1932 1 -1.2 17.535223525104787 20.843340163881642 14.239914453945524 1 -1 1
2141 1 -1.2 19.040162618133667 20.31583852614194 12.02440931882208 -1 0 0
1031 1 -1.2 20.129593541827617 21.886638857397312 13.847692064800349 0 0 0
272 1 -1.2 25.960171917922683 19.39639831541211 14.492005395188128 -1 0 -1
162 1 -1.2 27.235918418320413 20.14014274728054 12.187878079045785 -1 -1 0
433 2 2.4 26.41715546978095 20.614988641882743 13.517608671642817 0 -1 0
1483 1 -1.2 25.244630258081713 21.620839677839136 12.858062720056038 -1 0 0
1375 1 -1.2 27.49665747016909 21.43695655196395 14.342661748985693 -1 -1 0
1895 1 -1.2 0.9550592656658784 22.36961650704858 13.183185580037302 0 1 1
1954 1 -1.2 4.4068662840076325 23.588235733870707 13.310520229997563 0 -1 1
544 2 2.4 3.632509723514337 24.90529332701477 13.786877732736142 1 -1 0
1756 2 2.4 5.601063952972907 22.4863744364378 13.260261226666977 0 0 1
298 1 -1.2 6.9104389016642935 23.053717110915173 12.464250109587308 0 0 0
1067 1 -1.2 13.077847227529825 23.588362108053207 12.714874359778467 0 -1 0
1216 2 2.4 13.55187063370051 22.412162988176277 13.79471139291967 0 -1 0
1596 1 -1.2 18.084462785486032 22.76149408612538 12.385328476196568 -1 0 0
1486 1 -1.2 21.801643619381217 24.465192559807587 13.961195449247986 0 0 0
2083 1 -1.2 24.068926759395207 24.08839943160984 12.782138863425196 0 0 1
435 2 2.4 24.59672915874403 22.810893634431547 11.967216550816708 -1 0 0
1366 1 -1.2 27.452186210215714 24.03528820751685 14.516866941767864 0 -1 0
331 1 -1.2 30.141018654589423 24.513961372991286 13.943298375340815 0 1 0
904 2 2.4 28.54202242012394 24.962922406058418 13.797022079491343 0 0 0
368 1 -1.2 1.386825263654332 27.351274610975363 12.090402939468465 -1 0 0
607 1 -1.2 3.2635904194023246 25.662136587337848 12.362211107853495 0 -1 0
1881 1 -1.2 6.879338422816276 26.0299629520459 14.138488041328381 0 0 1
1761 1 -1.2 8.476265122735677 25.157357563604908 12.275525842524079 0 -1 1
1417 2 2.4 8.404058433299147 25.976107186865534 13.665843496646067 1 -1 0
1163 1 -1.2 9.24842732930153 27.371306282650842 13.48243288637128 -1 -1 0
400 2 2.4 12.780953244980065 25.01052276321078 13.414449136700014 0 0 0
1927 1 -1.2 12.092138564086852 26.074309060432842 12.387353323249698 0 -1 0
555 2 2.4 12.436658340731173 27.600770151601047 11.90668560851793 0 0 0
1675 1 -1.2 14.08900738607807 25.80021373532787 13.98961005549663 0 0 1
2065 2 2.4 14.067562998820817 27.424206814005068 14.433788086542181 0 0 1
111 2 2.4 17.616712243679984 26.504301689204272 12.162693626438173 0 0 0
234 1 -1.2 18.097492237172133 26.06980620150745 13.613185836771372 -1 0 0
2048 1 -1.2 16.420234316987475 27.532019891006424 12.31880026778364 0 0 1
1530 1 -1.2 18.964049175438987 27.294654518467084 11.523035290310757 -1 0 0
443 1 -1.2 22.483780223861967 26.115031998899354 12.072465501198224 -1 -1 0
1312 2 2.4 23.050022547818998 25.210850329590237 13.269950999418306 0 -1 0
1332 1 -1.2 23.36512284920436 26.322810755949718 14.396243078093335 -1 -1 0
1689 1 -1.2 28.321322580662315 25.384101809075982 12.23533843753717 -1 1 0
700 2 2.4 1.3016867893040027 28.50855092150919 13.187689511409499 1 0 0
173 1 -1.2 -0.06304429691655451 29.434098961866347 12.951759702933689 0 1 0
909 1 -1.2 2.641461208998597 29.4833700379169 12.96328215951663 0 -1 0
655 1 -1.2 6.156453294958109 28.949435670175923 12.108430984141313 0 -1 0
300 1 -1.2 9.47218055593332 30.133142683771492 13.027701581526781 0 -1 0
1480 2 2.4 9.610028522966493 28.61679600547851 12.458277644451307 1 -1 1
801 1 -1.2 11.074973854142494 28.529068740936374 11.898427677850648 0 0 0
2110 1 -1.2 13.606783119489357 28.18210392485181 12.981403851316932 0 1 1
2095 1 -1.2 16.19548383734373 29.72950650283599 13.659310268123622 0 0 0
1792 2 2.4 16.19250523166686 29.13835714500119 12.077263088426918 0 -1 1
1893 1 -1.2 17.783543594226806 29.716248812789857 11.800512125889881 0 -1 1
418 1 -1.2 20.422717916035925 29.776465380175257 12.23418178908501 0 0 0
1823 1 -1.2 24.020292791906233 28.41299738568529 13.082706325744835 0 -1 0
1780 2 2.4 24.435691316263437 29.88846862129891 12.661171485312083 0 -1 0
784 2 2.4 23.330860425101207 27.926260717804993 14.452774588679425 0 0 0
585 1 -1.2 27.333614749066463 27.834012448981376 11.754450634829142 -1 -1 0
1351 1 -1.2 27.7211084051619 30.310693388749627 12.463558954518836 -1 -1 0
1977 1 -1.2 1.078661918229575 0.46952857380386614 14.72459241171538 1 0 0
901 2 2.4 2.820606703650415 2.2220245150642266 17.157458751628035 1 0 0
671 1 -1.2 3.21643239698234 2.2294002859714777 15.447701609883957 0 0 -1
584 1 -1.2 10.343719492397431 0.500775404211246 15.261002997569712 0 0 0
940 2 2.4 10.970758272016422 1.6079167987908487 16.35592344708182 0 0 0
1041 1 -1.2 12.618206006167611 1.6631651043856004 16.184747081270647 0 0 0
1347 2 2.4 14.173762201542814 1.4564016808935032 16.68096272242276 0 0 0
330 1 -1.2 15.28970726498925 0.6843173778867158 15.658090641056596 0 0 0
1290 1 -1.2 17.803455654603315 1.012631414414615 14.676578371367466 0 0 0
469 2 2.4 18.918312292154205 0.8460033888023532 15.8447283911881 0 0 0
606 1 -1.2 19.863184555083983 2.1783726232796417 15.853012089073335 0 0 0
569 1 -1.2 24.888599794473336 2.0950381289159816 15.864206964113187 0 0 0
398 2 2.4 25.931797462093865 1.203202432279962 14.928758408287273 -1 2 0
850 1 -1.2 27.135095591066555 0.4706863701248339 15.829639736113936 0 1 0
1550 2 2.4 27.9695003139532 0.5132814924616047 17.335072086721766 0 0 0
1007 1 -1.2 29.563673998692195 0.7442157467012049 17.27356699173221 1 1 0
709 2 2.4 10.690332884385773 4.270011841314698 14.767273636972236 1 0 0
774 1 -1.2 10.476237311475089 3.095022154160174 15.96189639217676 1 0 0
467 1 -1.2 13.675364197862708 5.088946206182239 17.130232373122706 0 0 -1
1603 1 -1.2 14.809168278843998 2.890572459214321 16.94950679839778 0 1 0
490 1 -1.2 14.273598049891666 3.9983332307658865 14.640347370467149 0 0 0
1669 2 2.4 14.735469063511655 4.355295302484918 16.185369179235124 0 0 0
1582 1 -1.2 16.164443210991546 5.127782693921461 16.145830163717374 0 1 0
941 1 -1.2 18.852407908927805 5.146392445933742 15.863704078098849 0 0 0
2114 2 2.4 20.908566718422474 2.6034871602728256 14.706545374138816 0 1 0
1423 1 -1.2 22.31989768259457 2.9500454232899673 15.338920280713081 0 0 0
1000 2 2.4 23.70680853173814 3.2451104615513455 16.111214066492305 0 0 0
2130 1 -1.2 24.352330496989204 4.694089570483038 15.691098533460735 0 1 1
2144 1 -1.2 26.658526511902206 5.233778954951796 14.589090123545288 0 1 0
1508 1 -1.2 29.17475456220681 4.2788810235008246 14.947448395160709 -1 0 1
2017 2 2.4 2.2990973139102793 7.766678963499395 15.388537251549254 0 1 0
2108 1 -1.2 0.7136233978164959 8.050326568063445 15.097322377085792 0 1 1
6 1 -1.2 2.5876090647139445 6.793084386371449 16.663187307907464 -1 0 -1
740 1 -1.2 6.24249740846933 5.4987571834824855 15.265813527400457 0 0 -1
482 2 2.4 6.315306882281926 5.607820123190068 16.842269230829878 0 0 0
1353 1 -1.2 7.2652645551957695 6.900371321130543 17.2177741151696 0 0 0
130 1 -1.2 10.261042145004776 7.974787510465638 16.398070067855034 0 0 0
167 1 -1.2 11.002154037127035 5.753977035194088 15.350246096428542 -1 0 0
2103 2 2.4 11.443608653053353 7.241226080691577 15.570838591179335 0 0 0
2098 1 -1.2 12.745939591739706 7.372366567937839 16.602933684326906 -1 1 0
1071 2 2.4 17.545998918014472 5.715865120145531 16.766921310698503 0 0 0
1474 1 -1.2 17.66101793727496 7.324873346595177 17.1030632036274 -1 0 0
1441 2 2.4 19.142401846464246 8.067184286858648 17.065750192157836 0 0 0
944 1 -1.2 22.77849553611059 7.882078873296369 17.456412530159103 -1 0 1
717 1 -1.2 24.701363123689195 7.0999623642668634 14.564367313786885 0 1 0
447 2 2.4 28.16207930196961 5.52037255440539 15.108488365972402 -1 0 0
1099 1 -1.2 27.91684641553358 5.821670388637677 16.7309245721977 -1 0 0
224 1 -1.2 3.1556533921332344 9.121485544549264 15.685334264752417 -1 0 -1
961 2 2.4 4.669388225927043 9.719876090424773 15.867894305744128 0 -1 0
473 1 -1.2 4.64885530323821 10.69809325559766 17.21257328820781 1 0 0
2015 1 -1.2 5.202016665377236 10.534053002507145 14.508868703893024 1 1 0
1554 1 -1.2 5.82533265404838 8.609743469917492 16.120703585150448 1 0 0
236 1 -1.2 8.232583675450694 9.460601226483945 16.855617250805633 0 0 0
1106 2 2.4 7.016673206742309 8.485370010687253 17.25474306684399 0 0 -1
86 2 2.4 9.792320409210257 9.178504888426993 17.35657399303101 0 0 0
1847 1 -1.2 10.72027597951506 10.535139037650433 17.394900334275608 0 0 0
1515 2 2.4 15.19470153739305 9.755096972180935 14.857802545088362 -1 0 0
1434 1 -1.2 15.034363909384433 10.06196235835981 16.4155150178881 0 0 1
1341 1 -1.2 19.48949693519536 8.240063529333527 15.49350392347564 0 0 0
1775 1 -1.2 24.442647143573897 9.390947514219562 16.039055901757784 0 0 0
1983 2 2.4 23.647141567706512 9.249672913937031 17.459576938584398 0 1 1
911 1 -1.2 28.96133535576831 9.197702833197013 14.739152076550138 -1 0 0
1285 2 2.4 0.9447845656495403 12.34940257257666 16.492874808388088 1 0 0
1781 1 -1.2 0.609414317823224 13.050285937901615 15.102812472007422 1 0 0
1716 1 -1.2 2.3166930339800857 11.513324901042973 16.354976398688876 1 1 0
5 1 -1.2 30.148997735162443 11.273136524292214 16.645086291881167 -1 -1 -1
1052 1 -1.2 4.140905986466169 13.324965415397685 16.938819523045623 1 0 0
770 2 2.4 3.534259986755057 11.863904588486186 17.349383382248217 0 0 0
2059 1 -1.2 15.651723201271263 12.689134777169679 16.69103016304631 0 0 0
938 2 2.4 15.587165749701242 11.205076681480278 17.359193917564706 0 0 0
1602 1 -1.2 19.03259042499989 12.230571127416379 16.767978160463883 0 0 1
51 2 2.4 19.037282686819005 13.2243542341362 15.56753011740161 0 0 0
154 1 -1.2 21.79814350707782 12.1380582893359 15.831132078497976 -1 0 -1
288 1 -1.2 27.56891671192684 11.22037203589794 15.760707604752458 0 0 0
520 2 2.4 28.58292726279766 11.430535864848467 17.069885584920662 -1 0 0
1722 1 -1.2 28.699004420032075 12.901076396537148 17.72767542615099 0 0 0
1102 1 -1.2 2.4325817973550237 16.36392257123385 17.502326697591343 0 -1 0
350 2 2.4 4.701293415947086 16.34577981027928 14.81853310872312 1 0 0
483 2 2.4 5.388176632228867 14.349113663771416 17.12253275558166 0 0 0
1733 1 -1.2 5.452168472605196 15.080637740960073 15.614907322701091 0 0 0
614 2 2.4 9.51686909998547 16.065215637814372 17.347516262861657 0 0 0
1917 1 -1.2 9.012349880462088 14.58338975683984 17.013762378478567 0 0 0
756 1 -1.2 12.630946595591118 15.23187751004954 16.10589422658267 0 1 0
1334 2 2.4 16.235609712948754 14.123475412279031 16.09053415779375 0 0 0
1209 1 -1.2 15.064977118094983 14.508222565396634 15.086731014744844 0 1 0
458 2 2.4 13.837986735333573 15.635829257101678 15.037606759072906 0 -1 0
1811 1 -1.2 16.530910746655643 15.158216220781208 17.37411692667515 0 0 0
648 1 -1.2 17.556555931177986 13.787032935945158 15.274493215356419 0 -1 0
1188 1 -1.2 20.113861569762154 14.469829902966392 15.92594655194059 0 0 0
1840 2 2.4 20.615463525317146 16.00379163887458 16.19039150111232 0 -1 0
1217 1 -1.2 22.21380174077322 16.153132351711005 16.485750813264133 0 0 0
1601 1 -1.2 27.770340729676693 15.374864221419376 17.671104493674534 -1 0 0
1529 1 -1.2 0.905162892824782 16.668262153654098 15.500360284970371 0 0 1
1670 2 2.4 1.4600672808530972 17.461194340473025 16.785220998004288 0 0 0
2013 1 -1.2 2.30035000635547 18.743194175291254 16.222715130963017 1 0 1
521 1 -1.2 4.6918181154202205 17.63814873495069 15.836109673251949 0 -1 0
758 2 2.4 3.8509699670683473 19.07805186269373 15.962669647493579 1 0 0
571 1 -1.2 9.898563028087748 16.788015362562607 15.93243005017566 1 0 0
1242 1 -1.2 12.586566315024035 19.17425306549271 15.464474213288458 0 0 0
1324 2 2.4 13.639503265592596 18.297788952777577 16.367529435510384 0 -1 0
1470 1 -1.2 14.304242925688493 17.15966240154818 15.342778842696251 0 0 1
814 1 -1.2 20.20376449807448 17.132594880691162 15.092061058255847 0 0 0
1296 1 -1.2 22.049115941790312 18.72052032302852 17.191621000321945 0 0 0
1548 1 -1.2 24.194754839504768 17.772336976688685 15.847064258636962 0 -1 0
472 2 2.4 23.05115501415924 17.48450477851687 16.923267427801257 0 -1 -1
109 2 2.4 25.59069615920854 17.81954945253195 14.92594435786286 0 0 0
1286 2 2.4 27.29772992057896 16.8546861209393 17.126453976695636 0 0 0
1629 1 -1.2 26.67288681156874 16.823832466329858 15.655737526553125 0 0 1
1064 1 -1.2 28.33152469716232 18.106945048506724 16.97350244103143 0 0 0
654 1 -1.2 3.983630938191196 20.04746236260159 14.686510330655087 0 0 0
1080 1 -1.2 4.49807431704815 19.833503235677057 17.307246797147297 1 -1 0
888 1 -1.2 7.022079479046188 20.42972703567142 16.50883839640832 -1 -1 0
1876 2 2.4 7.43886946166514 21.48532435283122 15.338454063953545 0 0 1
252 1 -1.2 10.317513359132922 20.580687107093667 15.828051858438807 1 0 0
1467 2 2.4 10.354579052050788 20.491365962729216 17.46657038717751 0 -1 0
580 2 2.4 11.513286546268525 20.225235836469956 14.718881612340915 0 0 0
646 1 -1.2 14.701083371196217 19.35559677785771 17.050877941279033 0 1 -1
378 1 -1.2 17.176493184028633 19.64714633443697 16.677003318710938 0 0 -2
590 2 2.4 17.481670922012384 21.00095667348311 15.89143942886784 -1 0 0
1278 1 -1.2 18.8573688180092 21.713181351279697 16.269793788636584 0 0 0
1642 1 -1.2 21.181836876899588 20.449237172274806 15.692845708509143 0 0 0
1994 2 2.4 20.3046187102273 21.718692233982274 15.473689845198288 0 0 1
337 2 2.4 22.19482126731154 20.339409940140772 16.977796955240276 0 0 0
1148 1 -1.2 23.69315808793985 20.886629281154796 16.660671232113263 0 0 0
1389 1 -1.2 25.845851260535213 22.336452730927448 16.03633423656629 0 1 0
523 1 -1.2 29.917951226664805 20.39348496599622 16.620098841600434 -1 0 0
506 2 2.4 29.889891258719725 22.00904787734464 16.737283047055094 -1 -1 0
1240 2 2.4 0.9623953798729254 23.45126342048476 14.374676130075 0 0 0
1037 1 -1.2 2.219791126674474 24.37996047040559 14.535390365131443 0 0 1
1101 1 -1.2 0.6259615678173959 22.703602868485664 15.800382293462892 0 0 0
576 1 -1.2 6.1097618334276325 22.23795035403931 14.785655008170787 1 -1 -1
824 1 -1.2 8.238693785307131 22.78226485599925 16.032150501947488 0 1 0
665 1 -1.2 10.537153026081373 23.80173554799253 16.74071550906578 0 -2 0
998 2 2.4 9.298795416592393 23.077511837198013 17.32448585331182 1 -1 0
2118 1 -1.2 11.791236229521235 24.784815146599207 14.650208955947805 0 0 0
24 1 -1.2 14.250073364948513 23.000440515539047 15.110908819250998 0 0 -1
2115 2 2.4 14.952967656481439 22.885364991114145 16.59855247174767 0 0 0
1029 1 -1.2 15.451220387987634 24.337066150867678 17.309993461354097 0 -1 0
1764 1 -1.2 16.307400766744554 22.007323571992142 16.399770679316237 0 0 0
906 1 -1.2 21.063162808450755 23.004410023240993 16.05741783717619 0 -1 -1
1695 2 2.4 21.15008265211449 24.545119978827447 15.44514625920507 0 0 0
1173 1 -1.2 23.707852757928727 23.52172614589721 16.7304873695436 0 -1 0
999 2 2.4 24.56303849689251 22.199813664396594 16.9741883558364 0 0 0
1130 2 2.4 27.30278288149654 22.63278106293815 15.397745164883533 -1 0 0
1662 1 -1.2 28.391368198986864 22.52685284848814 16.55000006462625 -1 0 0
402 1 -1.2 4.437079464257515 25.87585301410885 14.876229647449305 1 0 0
158 2 2.4 5.829080603706737 26.682215587260888 15.269847830020861 0 0 0
357 1 -1.2 6.555237707276581 26.578056146512758 16.75388849738344 1 0 0
156 1 -1.2 9.184376692853895 25.192311040656595 14.824898151744398 0 -1 0
1610 2 2.4 10.546797289222422 25.07030521258979 15.697387581485293 0 -1 0
647 1 -1.2 10.73340435529106 26.434022104061768 16.569045883288922 1 0 0
1299 2 2.4 12.217508565712029 26.981643842551076 16.91710067801373 0 0 0
1989 1 -1.2 13.212685887949828 25.727404482772208 17.41098703287762 0 0 1
988 2 2.4 16.34998237595087 27.54547055612004 16.513611635454875 1 -1 0
363 2 2.4 18.680185651293392 26.36232907430039 15.086730510730945 0 0 0
1416 1 -1.2 17.40324517208503 26.3856803294682 16.141781335833485 0 -1 0
918 1 -1.2 19.58180241275342 25.082827765904543 15.560478721657836 1 0 0
698 2 2.4 23.269271095681912 25.061942360262027 17.201173302900322 0 0 0
1542 1 -1.2 21.854911195317218 25.544823498854175 16.58950561480684 -1 0 1
1701 1 -1.2 24.504573959779105 25.98953802781163 16.823147860504953 0 0 0
890 2 2.4 25.24246106459836 27.49796611485593 16.710191901018753 0 -1 0
102 1 -1.2 28.430281307163884 26.335643014150453 14.647269698657407 0 -1 0
168 1 -1.2 29.354043148555913 27.44455923923904 16.715739363080115 -1 -1 -1
2020 2 2.4 28.054787427985634 26.708930515274794 16.156865636173933 -1 0 1
491 1 -1.2 27.750893738972767 25.384497053765156 17.146664771556473 -1 -1 0
2010 1 -1.2 1.178824685079361 27.940068610242918 14.759681039222292 1 0 0
477 1 -1.2 0.7630065804871738 29.136203859203178 17.3157967392004 1 -1 0
64 2 2.4 0.04338409266447303 28.42660366784392 15.96116297167805 1 -1 0
264 1 -1.2 5.713453979723824 30.316098960086652 16.517781773274834 0 0 -1
960 1 -1.2 5.620498709482303 28.220388288128127 14.885418836734505 0 -1 0
1414 1 -1.2 7.765987874715632 29.81702989772375 14.916907239982432 1 -1 0
531 2 2.4 6.123328164060742 29.772484907060488 15.054663627136371 1 -1 0
1320 1 -1.2 12.888763946883284 27.667352648336905 15.525319650097025 0 -1 0
1109 1 -1.2 15.524130058367524 27.763385409751212 15.044428082386135 0 0 0
837 1 -1.2 17.007240590265535 28.97010042020686 16.991585747185947 0 0 0
1340 1 -1.2 19.522408506356804 27.741757609423384 14.990395708882339 0 -1 1
1159 1 -1.2 19.95009419659585 30.150273689409175 15.804803520794207 -1 -1 0
841 2 2.4 20.68953545722173 28.674198774055117 15.78298229376357 0 0 0
2082 1 -1.2 21.148617550121507 28.37017616554407 17.325164478317735 1 0 1
1796 1 -1.2 21.967383728757614 28.672671832356826 14.785387129358922 0 -1 1
1820 1 -1.2 24.211991907287345 28.327646174451484 15.762167424500971 -1 -1 1
84 1 -1.2 26.662309102415087 27.54814938406601 15.960452128081332 -1 -1 0
1090 1 -1.2 29.351453940369954 29.475321523604148 15.285971380098982 -2 0 0
1619 1 -1.2 1.9189365028413934 0.9060873490029778 17.412718548216212 0 1 0
1371 2 2.4 0.5666415129516995 0.10134435081391382 17.884935733414533 0 1 0
1410 1 -1.2 0.7439264939211102 0.1640160700763351 19.51165287424474 1 0 0
1022 2 2.4 2.0473894479141204 -0.024491760191878174 20.453283997078977 0 0 0
2039 1 -1.2 4.277575877231054 2.1672356122624477 17.796938671195182 0 1 0
1179 2 2.4 4.569868130509472 1.5814184450331543 19.283614640629786 0 0 0
185 1 -1.2 3.3911760523600676 0.5381745885854067 19.67159805397883 1 0 0
1001 1 -1.2 5.899998768490001 0.659364868585743 19.12788739660635 0 0 0
1868 1 -1.2 8.040777542521875 2.2470206778461406 18.201646900944898 1 0 1
762 1 -1.2 10.385359491345271 1.1429902685684707 17.8093285080219 1 1 0
686 2 2.4 8.816349178198935 0.9122542299010415 18.528056232502895 0 1 -1
788 1 -1.2 9.01622617465435 0.5573104376186467 20.080312062153553 1 0 0
293 1 -1.2 12.572689239244388 1.6936185898422655 20.331610119349378 0 0 0
566 2 2.4 13.581666336673612 0.5836574191059938 19.68169172197014 0 0 0
119 1 -1.2 14.030276633890205 0.7270686747226737 18.139680480229398 0 0 -1
511 1 -1.2 18.053725016954463 0.888870698762734 17.22697827244002 0 0 0
1791 2 2.4 26.22151478558916 1.3361561734962004 19.532611494826178 0 0 0
1556 1 -1.2 25.485592446408727 -0.06746370810545485 19.347471966272906 -1 0 0
1030 1 -1.2 27.30009803416271 1.6536186416664698 18.278627986800238 -1 1 0
1472 1 -1.2 2.017238843684307 3.487592528398312 17.786648314449202 0 0 0
2019 2 2.4 1.7621709230329539 4.210064423913996 19.16118814641259 0 1 1
1544 1 -1.2 0.13560304519777383 4.650924647100044 19.243342263359995 0 1 0
1026 1 -1.2 4.988891420480754 2.867062358371136 20.173990287824413 0 0 0
2026 1 -1.2 4.824846324013435 5.529076980764001 17.385737863350457 0 0 0
203 1 -1.2 7.192256717026194 4.376736035264265 17.444471229475138 1 -1 0
1013 1 -1.2 8.122558379243777 4.264193464438241 20.131043820053254 0 0 0
1142 2 2.4 8.236975291338048 3.8074315157516234 18.519027624962 1 0 0
451 1 -1.2 9.834711359852404 4.304854241868036 18.47285646583571 0 -1 0
1310 2 2.4 9.827539391048775 4.4894625085183915 20.152134747612923 0 0 0
572 1 -1.2 15.55797746887015 5.227823920351956 19.81789915053091 1 0 0
2037 1 -1.2 17.651655431225038 4.996557060661788 18.208129230716185 -1 1 1
747 2 2.4 17.19044278392214 5.470598114531287 19.643859840411757 0 0 0
1640 1 -1.2 21.87769390217583 5.4662271130913735 18.67207807200179 0 1 1
858 1 -1.2 21.762097079399776 3.125363175295611 19.956064633230604 0 1 0
1974 1 -1.2 23.27559007796795 3.447504166100002 17.665843717601035 0 0 1
268 2 2.4 22.686238403690723 4.179555292740115 19.078125984067697 0 1 0
669 1 -1.2 23.866948132800076 4.818203687182464 20.07212951631719 0 0 0
836 1 -1.2 25.18176927391702 2.5677200153093054 19.664141528258213 0 1 0
1564 2 2.4 25.31187142309856 4.176969208579351 19.88840139447863 0 0 0
1004 1 -1.2 26.18438006642648 4.841712091889874 18.58664467608475 0 0 0
597 1 -1.2 2.799821888442121 5.483416592759814 19.071785945281583 0 0 -1
529 2 2.4 3.520836413171747 6.391501234361535 17.932943606543894 1 0 0
1207 1 -1.2 4.060105923367837 7.7082107694089705 18.578719249366543 0 1 -1
1600 2 2.4 13.307909977023542 6.506486411153253 17.900148722518132 -1 1 0
1325 1 -1.2 11.920863340457268 6.340609332118392 18.80239087435567 0 0 -1
1707 2 2.4 11.753523262865947 6.700931358093226 20.360970636342795 1 1 0
1522 1 -1.2 14.250147577863359 7.2419069929432425 18.952017082626867 -1 0 0
424 2 2.4 14.571142898839373 6.3670512225140214 20.459987956593736 0 0 0
2069 1 -1.2 17.3912585215311 7.15697978567682 19.78906134001878 0 1 0
894 1 -1.2 20.177824149768014 7.184439631721905 17.988130588526804 0 0 0
601 2 2.4 21.72944855976172 7.130249748396772 18.495770179450346 0 0 -1
322 1 -1.2 22.16949669189267 7.762227626605121 19.951931465784025 0 1 -1
454 1 -1.2 24.806676479248186 7.613297708370057 20.439573681038674 -1 0 0
1198 1 -1.2 26.275787105436336 7.452215867083558 18.01073450457325 0 0 0
1190 2 2.4 27.193785656079896 6.039266055537665 18.177196506843526 0 -1 0
1913 1 -1.2 28.341887877830754 6.0434536197648985 19.333673019247467 0 0 0
1168 2 2.4 29.597771883212612 5.631987252854449 20.211623531522008 -1 0 0
1970 2 2.4 5.2496053227084705 8.409402480753858 19.525915167387208 0 0 0
1302 1 -1.2 4.4688436956801265 9.564614982800961 20.326360940299406 0 0 0
1398 1 -1.2 6.556836711189554 8.94823395187079 18.756964975536093 0 0 0
2058 1 -1.2 9.603448875067665 8.571280918252961 18.881947118706215 0 1 0
428 1 -1.2 10.567539559414742 10.796451056079114 20.0197296519233 1 1 0
1597 2 2.4 10.210871882629883 9.197703332094878 20.233286592049566 0 0 0
70 1 -1.2 19.25283986580674 9.590286388801998 17.76914530062875 1 0 0
429 1 -1.2 17.069456829321773 10.64783966139199 17.81426007958999 0 1 0
1128 1 -1.2 22.657960377130866 10.542130541545816 17.61538092935911 0 0 0
1966 1 -1.2 24.735242331019926 9.454880526692362 18.626653513080576 0 1 1
1322 2 2.4 25.691678202275277 8.281345800438848 19.253731289046264 0 0 0
1463 1 -1.2 26.97004474108887 8.893461162977705 19.997499567039096 0 0 0
1227 2 2.4 28.223005142861542 9.872662601310486 19.613875170995623 -1 1 0
754 1 -1.2 28.14668921245835 10.115208068841321 17.983600595063148 -1 1 0
371 1 -1.2 29.716925556737337 9.152769852506248 19.889879718731464 -1 0 0
1951 1 -1.2 1.129942852023967 13.308077110062431 17.833749351727104 0 1 1
325 2 2.4 1.9975888952056808 13.248867652542739 19.288873459103936 0 0 -1
935 1 -1.2 3.036142041751958 12.021706623292141 18.992579959529174 0 -1 0
1630 1 -1.2 9.050818062863721 12.211955381269886 18.360397135562195 0 0 0
1012 2 2.4 10.539686650676241 11.651328054152213 18.586473908863535 0 0 0
1401 1 -1.2 11.766323880092902 12.719619676003946 18.619050930365397 0 0 0
1498 1 -1.2 14.84915734406671 11.246619367905105 18.805703752457294 0 0 0
2 2 2.4 15.26572483097858 12.39931756545898 19.872936268557208 -1 0 -1
127 1 -1.2 13.907170074822124 13.212426730247719 20.22768480320321 1 -1 -1
604 2 2.4 18.621132017655924 11.072907443973381 17.847760000393638 0 -1 0
993 1 -1.2 16.501059047621332 13.280406208810655 19.247211051472416 0 0 0
1798 1 -1.2 19.12960426697391 11.638758277399846 19.260494468032505 1 0 1
1369 2 2.4 20.513341267838033 12.273265873473031 19.795386690853057 0 0 0
2064 1 -1.2 21.40780209851548 12.84017489886884 18.480633050946615 0 0 -1
916 2 2.4 22.420089887644085 12.117566968642553 17.32143696524443 0 0 0
1063 1 -1.2 23.748715821527938 12.977307874331663 17.391610260993378 0 0 0
713 1 -1.2 24.493688208075845 13.36147078255862 19.9265292520621 0 -1 0
805 2 2.4 24.7790741508664 13.763107296218875 18.331566808353642 0 1 0
318 1 -1.2 26.21816845629509 13.246535540380322 17.824751829962214 0 0 0
992 1 -1.2 2.6162041158374425 14.769648131618794 19.525594502946447 0 0 0
2006 2 2.4 3.3618880263524864 15.952309792069642 18.754107919495503 1 0 0
1979 1 -1.2 4.862499043622089 15.442780448986133 18.22209117390979 0 0 0
1882 1 -1.2 6.726044020785565 13.605163626853852 17.68231098654891 0 0 0
1525 2 2.4 8.318882270988496 13.660874887361137 18.235280698235965 0 0 0
1206 1 -1.2 8.43869052382337 14.375844996289269 19.706616637533013 1 1 0
688 2 2.4 12.673440395408734 13.838820042505958 19.430306046436762 0 -1 0
1277 1 -1.2 10.907061047308641 15.88735627789746 18.11977034041791 1 1 0
1477 2 2.4 12.475220386957956 15.907134555009174 17.550814764187177 0 0 0
452 1 -1.2 13.383913995952113 14.87049759581921 18.41343751950843 0 -1 0
1747 1 -1.2 15.62199546894282 15.678777701370617 19.80260898765174 0 -1 0
1191 2 2.4 16.68078111454415 14.847875979122477 18.95438857487077 0 0 0
538 1 -1.2 18.236261189154995 15.234769733181317 19.336065367266908 0 0 0
2133 1 -1.2 20.582268628213384 15.933580323266403 20.27394866207328 -1 0 0
1694 2 2.4 19.437033778630617 16.27617855998716 19.168824120843826 0 0 0
1355 1 -1.2 19.97593095101688 16.40887090479637 17.635812064446785 0 0 0
1176 1 -1.2 24.749142520257102 15.412330584726691 18.16248146336023 0 1 0
928 2 2.4 24.975693692142382 16.80802693224512 18.969629634092524 0 0 0
1789 2 2.4 27.581746222280596 13.900478811569068 18.271851618083332 0 -1 0
1245 1 -1.2 27.667194904753767 13.961809019914742 19.875169826239937 -1 0 0
1113 1 -1.2 0.36142152477619144 18.068586839335744 17.726313288538368 0 0 0
2097 1 -1.2 3.540424488377176 17.01500601709751 19.998685061752703 0 0 0
966 1 -1.2 6.889903987151326 18.96856360054895 18.56253380933172 1 0 0
1931 1 -1.2 8.376216648282638 16.78085595699988 18.28717779456865 1 -1 0
1971 2 2.4 8.398393887466614 18.37355819062136 18.654851434838708 0 0 0
1126 1 -1.2 9.581131187755846 19.123201982934734 17.889629869522192 0 0 0
1541 1 -1.2 8.73833913732715 18.64215523636737 20.28591855809228 0 0 0
1962 1 -1.2 12.886368236943468 17.50392769594628 17.567333770008908 0 0 0
721 2 2.4 16.026714354206412 17.263490337094524 20.098565781305897 -1 0 -1
1273 2 2.4 16.185865896142026 19.411775289777953 17.88155791899219 0 0 0
896 1 -1.2 16.52308359995642 18.018860809807325 18.7011324184051 0 -1 0
1152 1 -1.2 19.111847615905667 17.804565338794877 19.56925466969262 1 -1 -1
965 1 -1.2 23.673165407752652 17.512089010967365 18.46912426111455 -1 0 0
1580 1 -1.2 26.366057625047684 17.463406128602692 18.32064943283725 0 0 0
628 2 2.4 29.48130902343448 19.077252037070814 17.477033044619343 0 0 0
1617 1 -1.2 29.146366355738703 17.408683173445194 20.456511269539465 -1 0 0
541 2 2.4 5.418341670548422 21.96762717513551 20.23142742121237 1 -1 0
1077 1 -1.2 5.800846672174131 21.430994072771018 18.801910629178078 0 0 1
830 2 2.4 6.015620220377973 20.143589143070272 17.791221265520278 0 0 -1
704 1 -1.2 9.63286177738556 21.753899856742567 18.15868026792557 0 0 0
846 1 -1.2 11.984502068203348 20.697301206695663 17.64603424753484 1 1 0
640 2 2.4 12.97409176440718 21.405962673776447 18.761451313769978 0 0 0
1247 1 -1.2 13.787695513914256 20.182721187800436 19.556834175183564 -1 0 0
1907 1 -1.2 16.42029163837723 20.616181876662214 18.932015210776616 0 0 0
1153 2 2.4 16.795744101212644 20.954257903656053 20.522103458127653 0 0 0
844 2 2.4 21.389044758094666 21.401900715718913 19.79425053072236 0 0 0
679 1 -1.2 21.56441248345268 21.13113851275028 18.258108704080016 0 -1 0
1616 1 -1.2 28.868986561414783 19.65627109921364 18.875579052680628 -1 0 0
1180 2 2.4 28.694134961152145 18.99377317189526 20.34201740113956 -1 0 0
764 1 -1.2 0.099834054437044 24.47304558609229 19.979580016772353 0 0 0
871 1 -1.2 5.348005394105624 23.59325159101965 20.208119302851323 -1 -1 0
329 1 -1.2 8.555349131980037 24.088382878891437 18.3887479824301 0 0 0
1622 2 2.4 9.012211233270458 24.410429664916332 19.93323001786868 0 0 0
1049 1 -1.2 12.246273858925768 22.414319928032693 19.854091416458452 0 -1 0
1246 1 -1.2 13.88678538309202 22.339682217483166 17.730295165238974 -1 0 0
672 1 -1.2 20.14672517542497 22.39770431988622 20.098609434306983 0 0 -1
374 2 2.4 24.376239452318355 22.205335767348306 20.158056635587727 0 0 0
1473 1 -1.2 24.88271081867944 22.061992800651975 18.611223541370396 0 0 0
270 1 -1.2 30.199819925146855 22.49352577060066 18.27813793546505 0 0 0
1718 2 2.4 29.513228608456682 23.143384984446055 19.538586054322042 0 0 0
1805 1 -1.2 27.996905227481534 23.72945607779716 19.326019525468578 -1 -1 0
1739 1 -1.2 6.099949456466656 25.94600146081299 19.327077743134478 0 -1 0
554 2 2.4 6.7790443428608835 27.015736350551162 18.335666727508798 0 -1 -1
164 1 -1.2 8.317724099178188 27.17547128899591 18.74855937427985 0 0 -1
389 1 -1.2 9.998534738594282 25.793951041880682 20.09303482306877 0 0 0
15 2 2.4 9.313627267043891 27.20024333056037 20.12363470837093 0 -1 0
1505 1 -1.2 15.492340350786339 27.05550082900642 17.753791025778284 0 -1 0
1239 2 2.4 14.753433460054572 25.582934744105245 18.021432024793203 0 0 0
1291 1 -1.2 14.762833452107971 25.420583421819742 19.60454887283249 1 0 0
1005 1 -1.2 17.169026195905275 26.337662350079484 20.095103631157272 1 -1 0
39 2 2.4 18.806219194480402 26.208183157397556 20.18265672859969 0 0 -1
953 1 -1.2 19.729572987715684 26.90997157217031 19.028682430305306 0 -1 0
1112 1 -1.2 23.121365424019228 24.971866003147284 18.860231622327994 -1 0 0
1143 2 2.4 24.51159548484446 24.996390607835124 19.734175996428004 0 0 0
478 1 -1.2 25.87713412808096 25.14915521265782 18.866668167357933 0 -1 0
1396 2 2.4 27.52249984081557 25.142349776082426 18.760620264072628 0 -1 0
209 1 -1.2 28.21481139342433 26.316166759491278 19.667483212766513 1 0 0
1025 1 -1.2 8.00089698923421 30.220569054432588 17.809721839479504 0 0 0
532 2 2.4 6.381525048552064 30.078244690469408 17.98346010900275 0 -1 0
47 1 -1.2 6.162224968459843 28.54261760325193 18.45857233439414 1 -1 0
1409 1 -1.2 10.373155208018796 28.41978240980417 19.902678568406273 1 -1 1
1499 1 -1.2 12.337298416117347 28.132535836920333 18.096346321506925 0 0 0
1911 2 2.4 11.968273693039933 28.38420431705167 19.651244016872695 0 0 0
1184 1 -1.2 12.69922912139031 29.79067027122343 19.91750258742739 0 0 0
176 1 -1.2 16.706119186316368 30.145877584540113 19.299255588333132 -1 0 0
1777 2 2.4 17.742055427149 30.044531753399 18.04519779335957 0 -1 0
2154 1 -1.2 19.10035805410726 29.479461482681664 18.719450323505193 0 0 0
2080 2 2.4 20.339952969221383 28.45804836816422 18.804864766502703 0 0 1
2096 1 -1.2 21.346281554565888 28.917335260378653 20.010239287003607 0 0 0
1110 1 -1.2 25.377846803645397 28.05330278956247 18.249001746093153 0 -1 0
962 2 2.4 26.384703542330556 29.137036744319342 18.930551359193654 -1 -1 0
1942 1 -1.2 27.073356531730255 28.619643143617562 20.26021123537113 0 -1 1
53 1 -1.2 27.702094657751747 29.487808753044106 17.954506858731545 0 -1 -1
57 1 -1.2 1.8631216309332463 0.8526539109405816 21.808235182623278 1 1 0
925 2 2.4 2.0989266078981514 2.4966414820044904 21.97273445437491 1 0 0
863 1 -1.2 1.0737626670804794 2.847796213988673 23.186711565478753 1 1 -1
823 1 -1.2 7.799476787829544 1.6794275065867865 22.201388059832663 0 1 -1
913 2 2.4 8.900039901466236 0.6181349414106168 21.72739832704501 0 0 -1
1365 1 -1.2 10.480282707902711 0.9950457951999215 22.13897901335091 0 0 0
914 2 2.4 11.505253418985378 2.090379611623599 21.491696292232238 1 0 0
1019 1 -1.2 14.89432847764804 0.696360482035372 20.671167023792748 0 0 0
1213 2 2.4 16.505205473767703 0.6748747070006416 20.56679903421065 1 0 1
23 1 -1.2 17.33449629479193 2.1078970329983635 20.315742034180918 0 0 0
581 1 -1.2 17.128649888148924 0.11420155284155195 21.95166121764549 -1 1 0
695 1 -1.2 21.060968452812517 0.8630286211059928 21.221939144183757 0 0 0
496 2 2.4 21.353377895379044 2.470443014747297 21.422553881907874 0 0 0
970 1 -1.2 25.11414340302991 0.6202666669971456 22.447448129333385 -1 1 0
1587 2 2.4 26.649462286876922 1.0989249751570456 22.43764041526582 -1 1 0
1349 1 -1.2 27.146218714324668 1.27085738368175 20.90524481754116 -1 0 0
1998 1 -1.2 27.70652350874563 0.15937957594825333 23.14173799543544 0 1 0
1655 1 -1.2 1.9251659728807835 3.3591638651063933 20.577920377349635 1 0 1
2045 1 -1.2 3.6180513681809234 2.853666174055817 22.39756577713164 1 0 1
637 2 2.4 4.770666716854129 3.7188798395309783 21.595770456292612 1 0 0
657 1 -1.2 4.4256985411890595 5.310567255675469 21.615592286587486 0 1 0
1121 1 -1.2 6.206589311475356 3.7299974099200846 22.192653175392014 0 1 -1
361 2 2.4 7.220870509910555 2.8726955515071095 23.090714969669797 -1 1 -1
1175 1 -1.2 10.472148554486754 3.2092543739167647 20.901716745977712 0 0 0
32 1 -1.2 12.492796315977976 2.6862190132315034 22.732952897131465 0 -1 -1
1788 1 -1.2 17.38143386737853 2.8011996460111 22.64507357296926 0 0 0
620 1 -1.2 17.988130385756214 4.645640503440053 20.698082862793765 0 0 0
1659 2 2.4 18.196797191750413 3.1122283580431382 21.29135923249499 0 1 -1
860 1 -1.2 19.74251816804065 2.942392877972459 21.58368590466428 0 1 0
2073 1 -1.2 22.368093135522003 2.894109323199209 22.624731595189303 0 1 0
1692 1 -1.2 26.649217815485677 2.569662205982785 23.134460498765797 -1 1 0
1822 1 -1.2 26.26606746613471 4.450033221232998 21.145190704739512 0 0 0
973 2 2.4 26.1217028332621 4.0910165238251475 22.76860123823777 0 0 0
1771 1 -1.2 29.204820877998802 5.007075963662097 21.701378117925557 -1 0 1
1249 2 2.4 28.714654862122792 5.437608689703267 23.23204941996034 -1 1 0
1149 1 -1.2 0.29902033949266627 6.79240657719219 20.613826003986983 1 1 0
1910 2 2.4 4.995258431350485 6.830103861494832 21.917300658804024 0 0 0
1769 1 -1.2 3.8983415688664342 7.93738160643564 22.21437892680143 0 0 0
621 1 -1.2 5.723745329655803 7.313680792178973 20.559976147882026 1 0 0
1656 1 -1.2 10.4058249954735 5.8421837015573574 20.81970476652465 0 1 0
1066 1 -1.2 13.105177534471686 6.182574741383255 21.095589017733342 0 0 0
285 1 -1.2 15.396532875696652 7.175233757664012 21.605615236766212 0 1 -1
1765 2 2.4 16.852737814903442 7.8410042965128195 21.159144004938113 0 0 0
778 1 -1.2 18.08572930025871 7.5313137587611445 22.243529869759612 1 0 0
777 1 -1.2 20.462099377541804 6.73433371047107 23.2889794542758 0 1 0
1535 1 -1.2 23.0196906148433 7.0009491875200665 22.288483869171877 0 0 0
1082 2 2.4 23.36091407516356 7.977214623080054 21.04321740356283 -1 0 0
465 1 -1.2 1.9053664790371978 8.89252840791315 20.583594365113964 0 0 0
1406 2 2.4 0.3729255652968436 8.40953013199802 20.8699665846713 0 0 0
1929 1 -1.2 0.221563376889863 8.800958786525225 22.474574393828185 1 1 0
611 1 -1.2 3.109829751657835 10.504841728507252 22.32867418977557 1 -1 0
843 2 2.4 3.243592414873664 9.267273170526893 21.392563663170517 1 1 0
641 1 -1.2 6.997699065374862 10.246072205886213 22.456580715092322 1 0 -1
1934 2 2.4 8.462109869667373 9.49082138587988 22.837681448346913 1 0 0
1973 1 -1.2 9.136449848779232 8.968564350473935 21.455367923444765 0 0 0
715 1 -1.2 11.477212370449557 8.254835793843924 20.67255681283922 1 1 0
885 1 -1.2 13.902749675529508 10.41288287847021 21.828812031259936 0 0 -1
926 2 2.4 15.585602745349908 10.421296938763684 21.86720272443391 1 0 0
1651 1 -1.2 16.47155860351046 9.396426928425143 20.942501319662348 -1 0 0
1493 1 -1.2 21.430898452343108 11.106613934203379 20.462705305932335 0 -1 0
1458 1 -1.2 21.62647054755666 10.501816730182176 23.051431955441497 0 1 0
1378 1 -1.2 23.333777919682202 9.533811578518243 21.455935390548092 -1 0 0
385 2 2.4 22.43830069255036 10.849194681285423 21.716852112754367 0 1 0
802 1 -1.2 1.2391324262433125 12.941619614736572 20.709223107187935 0 0 0
367 1 -1.2 3.093610882957823 13.140193123734111 22.42368886348226 0 1 -1
1623 2 2.4 3.9480437725563347 11.825092390820226 22.768568401418523 0 0 0
1986 1 -1.2 5.254066814391253 12.056066254951169 21.843074869192538 1 0 0
124 2 2.4 6.765648798351161 11.838538488703836 22.32710603749096 1 0 0
2156 1 -1.2 7.582866364012855 12.397826834392706 21.09509945660855 1 0 1
1212 1 -1.2 9.770906674751958 13.551785356626723 21.897689397357123 0 0 0
736 2 2.4 13.127827157671762 11.221835627712878 22.977931218834627 0 0 -1
1294 1 -1.2 12.095337528920066 12.199388533013991 22.342445783669117 1 1 0
674 2 2.4 11.37549471855061 13.640320543025352 22.14686429240624 0 0 -1
1494 1 -1.2 15.927711116656118 11.867654525699292 21.21656269281117 0 0 0
202 1 -1.2 20.065695754521435 13.355933024851199 20.955652955975133 0 0 -1
1594 1 -1.2 23.41105796181959 12.204137357320183 22.055227188391292 -1 -1 0
508 2 2.4 23.75118376807948 13.641650191243007 21.313815960921872 0 0 0
732 1 -1.2 26.951102287411754 12.52703402672321 22.0680984743572 -1 0 -1
1734 1 -1.2 28.311982493765623 11.28318316408467 20.305187246825625 -1 -1 0
74 2 2.4 28.11815056300063 12.773102150402313 20.976529456992328 -1 -1 -1
2003 1 -1.2 29.404442305800654 13.17451005590056 21.863096602015766 0 0 0
937 2 2.4 0.3974462414584498 13.965902011938757 21.769752100678765 0 -1 0
7 1 -1.2 0.9897191010716679 14.31004415425647 23.30748008254303 1 -1 -1
1404 1 -1.2 0.07709522254240243 15.391390789955986 21.232680210994186 0 0 0
1060 2 2.4 2.6166985253886903 14.453400871593027 23.293317774840233 1 0 0
1736 1 -1.2 2.938602949533644 15.737805505154261 22.380223868129143 0 0 0
360 1 -1.2 7.460144993996124 14.921328239684584 22.184136939777037 1 1 -1
853 2 2.4 8.3616368389449 13.856055979858558 21.240215593882144 1 0 0
1854 1 -1.2 11.809900058867036 14.402155568975964 20.730508013479746 1 0 0
2129 1 -1.2 20.450005237785714 15.44725311549779 22.80032145304229 0 1 0
1036 2 2.4 20.80993609573148 14.785978519952332 21.33470155104142 0 0 0
1759 1 -1.2 22.38991787693538 14.517594212768193 21.218637563795788 0 -1 0
1385 1 -1.2 24.65823350202885 14.62509486007457 22.211754395485563 0 0 0
49 2 2.4 24.96662490510193 16.191971831274024 22.133914401343144 0 -1 0
714 1 -1.2 26.408735618872253 16.406214494433797 22.85601525205987 1 0 0
1448 1 -1.2 25.126835769310784 16.72404964655995 20.601428287828632 -1 0 0
1205 1 -1.2 1.3719979969560558 17.735664992453263 21.422278212022594 1 0 0
976 2 2.4 2.902921930642064 17.116992455442585 21.531113768239827 1 0 0
1953 1 -1.2 3.9660694153730893 18.121590433072193 22.231106948291394 0 0 1
878 2 2.4 4.878894386717515 18.877415137854886 23.232781047508258 0 0 0
359 1 -1.2 6.407562526059182 19.292094094809862 22.74172654558882 0 0 0
1507 1 -1.2 10.613280862343455 18.34708741561937 22.004578362194373 0 0 0
1155 2 2.4 11.93857040352457 18.440992272535652 22.968506283382403 -1 0 0
1697 1 -1.2 13.204768661618003 19.11248056010466 22.11267693369469 0 1 0
617 1 -1.2 14.762022717021505 18.03480361318146 20.603680735336795 0 0 0
1356 1 -1.2 17.17344809459525 17.27683998565385 21.181279830458816 0 -1 0
2128 2 2.4 18.46495476803666 18.31007040239748 20.915934726603517 0 0 0
1614 1 -1.2 19.692879427738276 18.25822632372974 22.01637439481792 0 0 0
416 1 -1.2 22.413547727714455 18.92463461109692 22.193244467452356 0 0 0
589 2 2.4 23.725489178464883 18.695717434160464 23.07332495671787 -1 0 0
1520 1 -1.2 23.899034582982605 17.105270588694943 23.010500426754895 0 0 1
1443 2 2.4 -0.085651169223663 16.96795462395149 21.550184653611325 0 0 0
1613 1 -1.2 29.688043730687003 17.140995158454267 23.04276894112135 -1 -1 0
54 1 -1.2 1.5267425802122898 21.204170601814113 21.743437307680097 1 -1 0
613 2 2.4 -0.07491671790777232 21.1213938865804 21.807214049340327 1 -1 -1
142 1 -1.2 3.9129079119724794 21.5617324441191 20.849243844009766 1 -1 0
1335 2 2.4 7.214019279750382 20.718124022156193 22.58924831252204 0 0 0
659 1 -1.2 6.65711635593827 21.54315320571316 21.233694211075104 -1 -1 -1
664 2 2.4 9.710551030380573 19.45477896119862 21.319445153705317 0 0 0
1869 1 -1.2 8.762188911373284 20.25423391568715 22.397012413148605 1 0 0
214 1 -1.2 10.62265938750742 20.635367023938624 20.59279796610614 1 -1 0
1958 2 2.4 14.266999260141324 19.562391784731584 20.973883313896575 0 0 0
1044 1 -1.2 15.432612469554869 20.711318048090426 21.387670926934906 0 0 0
509 1 -1.2 17.93224292483528 19.87734110020826 21.14882772879222 0 0 0
1238 2 2.4 20.875390889107898 19.392342430102833 21.925808764412142 0 1 0
101 1 -1.2 20.817989066492956 20.045072570029937 20.477313199282847 0 0 0
1146 1 -1.2 20.51664034233144 20.594256197574154 23.041825739440423 1 0 -1
1283 1 -1.2 25.199053476008476 19.16413066423237 22.587872588638525 0 0 -1
1282 1 -1.2 27.18158913344202 19.4260006198988 20.76007007719185 0 1 0
2122 1 -1.2 25.235428131852004 21.185294534910597 21.07373079281136 0 0 0
1562 2 2.4 26.23758937605611 20.173811234417407 21.82233379401056 0 0 0
296 1 -1.2 27.15128943007065 21.107392442864604 22.82352708894953 -1 0 0
1800 1 -1.2 29.85741972832275 19.641378291218498 21.3113769348473 0 -1 0
696 1 -1.2 2.3048565719028584 23.742865572223483 21.077960175069677 1 0 0
825 1 -1.2 0.31496143764905216 24.570420866929066 22.681528478437805 1 0 -1
2152 2 2.4 1.0843222744295973 24.764623334554784 21.200188531868353 1 0 0
735 2 2.4 2.754527636185318 22.336200037278086 21.74478400035446 0 0 0
79 1 -1.2 3.1743287079641465 22.592706332046266 23.318815469506696 0 -1 0
1017 1 -1.2 7.738912345023388 24.631026025676206 20.898184244551455 -1 -1 0
1135 1 -1.2 9.883690569160551 23.209520073541498 20.54048831780582 0 0 0
160 2 2.4 11.07656116051929 22.18289003375405 20.922649421583444 0 0 0
932 1 -1.2 11.595483325748374 22.37524367166176 22.48884693792799 1 0 0
312 1 -1.2 13.822918434086876 23.628777798980614 23.32867149903744 0 0 -1
1459 1 -1.2 19.00474666884633 24.631311452103933 20.183639979293734 0 -1 -1
1315 1 -1.2 17.481573993966784 22.41507372928724 20.558430960072403 0 -1 0
1528 2 2.4 18.9230310261112 23.14961436116781 20.832993404368487 0 0 0
237 1 -1.2 19.117166729713098 23.30801100546537 22.412751413452302 -1 0 0
1676 1 -1.2 22.796291138262497 21.89803240314612 20.382774558333175 -1 -1 0
776 1 -1.2 24.738994760882797 23.687135867554222 20.69918727322805 -1 0 -1
118 1 -1.2 29.438232024186874 22.197106717078427 20.86048845476302 -1 0 0
1784 1 -1.2 1.7412550827853128 26.375624820684806 21.123400383596184 0 -1 1
1838 2 2.4 5.151031039204579 26.86652784727885 22.7940181705617 1 0 0
743 1 -1.2 3.682443410873944 27.46863897041995 22.49182590364464 0 -1 0
474 1 -1.2 5.436329641334297 25.49101303943783 21.914956238187653 1 -1 0
1969 2 2.4 6.161118750411481 24.954314323253275 20.59278344688474 1 -1 0
560 1 -1.2 8.49669944623572 27.183281767711378 21.526916609208843 1 -1 0
1858 1 -1.2 12.608493209765118 27.319516572526027 20.747767266737053 1 0 1
171 2 2.4 13.578601874161729 27.54387592681424 22.014201921857865 0 0 -1
2106 1 -1.2 13.57422745012311 26.319592084468486 23.05667796142821 0 0 0
1428 1 -1.2 15.688241688321018 24.915866421657892 21.961328123492397 1 -1 0
232 2 2.4 14.57864735596841 25.063179629919578 23.203738262823332 0 -1 0
1778 2 2.4 15.702134524588097 26.02152321660373 20.753118760444924 0 -1 0
1999 1 -1.2 15.087958913279383 27.440112262081662 21.376523719562496 0 0 0
344 1 -1.2 19.152031172337516 26.871155072981832 21.66032309568837 0 0 -1
811 1 -1.2 24.390774033478817 26.359371199465826 20.61224697100103 -1 0 0
304 2 2.4 25.204752749310703 26.82030395979095 21.96842422820398 -1 -1 0
1939 1 -1.2 26.82782506009685 26.593832867887006 21.91085078663836 0 -1 1
855 2 2.4 27.83197102213885 27.333877381809078 20.906256531077442 0 0 0
1199 1 -1.2 2.3619716786388736 28.950361997676566 20.920808140835152 0 0 0
193 2 2.4 2.1609031290209795 27.70291861468705 22.016028200023946 1 -1 0
126 1 -1.2 1.0919953868121162 28.10512766313409 23.161516782223025 1 -1 -1
2134 1 -1.2 6.264081609107143 27.929539947399633 22.318822587243034 0 1 0
519 2 2.4 7.85596972394086 28.293215760174125 22.61982191919898 0 -1 -1
1738 1 -1.2 8.34122212235021 29.80209977844287 22.36159162205806 -1 -1 0
2120 1 -1.2 13.306520883099932 28.998903928227527 22.620027712460807 0 0 0
616 2 2.4 19.410285607379322 27.85932037672547 22.914746352086365 0 0 0
1959 2 2.4 21.437911101395926 29.800060846344607 21.43987391499929 0 -1 0
2051 1 -1.2 20.32368342326359 29.06049688997556 22.303156895722488 -1 -1 1
1073 1 -1.2 22.76174274510877 29.808944885604962 22.30226552439846 0 0 0
1492 2 2.4 24.302345383265962 29.721177185166464 22.787292575793145 0 -1 0
235 1 -1.2 24.97936821418898 28.452018720871862 22.07038572794907 -1 0 0
1905 1 -1.2 29.091295915457493 27.900181906313126 21.78751744590627 -2 0 0
1503 2 2.4 29.8613237901753 27.907344509854912 23.277273215356814 0 0 0
1834 1 -1.2 4.063266656335573 1.2846947845006482 25.1051266879818 1 1 0
459 2 2.4 4.212497852577061 -0.10950205423517788 26.024754722668796 0 1 0
668 1 -1.2 6.283052364845791 2.564764597494773 24.421558586153395 0 1 0
99 2 2.4 13.522240181483182 2.368830909506142 23.920180335195955 0 0 -1
1079 1 -1.2 13.76212097727564 0.8192436508623802 24.13380955315658 0 0 0
217 2 2.4 17.842391949092658 1.3398141440035012 25.738004359674154 0 0 -1
1411 1 -1.2 17.640976728396915 0.2225373237172097 24.53427545799848 0 1 0
251 1 -1.2 17.03228484382197 2.6581379758750465 25.225656196157853 0 0 -1
1195 1 -1.2 21.574004382903652 0.3716414425883643 25.8718525814615 0 1 0
151 1 -1.2 19.361554327442807 1.6586948346394506 26.20017193894029 -1 0 -1
335 1 -1.2 27.923599592249552 0.3023407631595743 25.719721526945474 0 1 -1
370 1 -1.2 0.772431679640914 3.1207587737482707 25.77547617087592 1 1 0
1139 1 -1.2 1.774554415926652 5.126603885942559 24.328574927443956 0 0 0
387 2 2.4 0.5858056710842791 3.9551849920784545 24.334631761689835 0 1 -1
61 2 2.4 4.966017113171572 2.707539821861296 25.355150187756465 1 0 -1
1745 1 -1.2 4.1481784148204355 4.097156302244008 25.03983019932522 0 -1 0
1915 1 -1.2 8.556396327113323 3.4377522774743974 23.805634868418657 0 0 0
13 2 2.4 8.927475607244457 4.391157094704322 25.05804516563654 0 0 -1
1908 1 -1.2 10.491344926544471 4.394027469451008 25.091618608344536 0 0 0
1709 1 -1.2 12.852140572699943 2.9773198273254073 25.318288554155124 0 1 0
2032 2 2.4 11.915145265166034 4.177434826864823 25.90741689596977 0 1 0
2057 1 -1.2 14.917282090825548 3.2439564332145263 23.57895158839472 0 1 0
2126 2 2.4 16.51866300834113 3.3770013435156607 23.887484887256957 0 1 0
1403 1 -1.2 16.819750260349803 4.954192929830306 24.17822921547176 0 0 0
653 1 -1.2 24.56276551750774 4.129489912984127 23.210521285465916 0 0 0
1450 1 -1.2 23.35162254619855 2.724963938305905 25.152813653338242 0 0 0
29 1 -1.2 22.292543708970967 5.087671547458505 24.149665081674094 0 0 0
1839 2 2.4 23.119711373886208 3.6758272394795815 23.879849657516594 0 0 1
1627 1 -1.2 27.13064932645556 5.218740901047867 23.44776445759039 -1 2 0
2027 1 -1.2 29.451976922214524 4.397808056992064 24.265303352941753 -1 1 0
1938 1 -1.2 0.9635279717950338 8.075927614244412 24.879441816952518 1 0 1
1141 2 2.4 3.071753868276516 5.392232583015646 25.211982975065393 0 1 0
827 1 -1.2 3.4087947826367246 6.994688720426894 24.975849106315277 0 1 0
1208 1 -1.2 6.08111962017307 6.713871822800606 23.126337956460752 0 1 0
1816 2 2.4 7.212089886419123 6.940441927920713 24.260584743170806 0 0 0
1880 1 -1.2 6.608351298422034 7.475296405469184 25.672719249283347 -1 0 0
1308 1 -1.2 8.189279873590841 5.794969681996119 24.70611248674614 0 -1 0
1637 1 -1.2 8.17013107455273 8.168749982120822 23.693318009731353 1 1 -1
1818 1 -1.2 12.741196092855168 5.605728423220567 26.050157857626324 0 -1 0
786 1 -1.2 15.832239289321784 6.507394234391761 25.796146313758506 1 1 -1
1923 2 2.4 17.250110380146356 5.906093834625738 25.39442189403948 1 0 0
1665 1 -1.2 18.262859246669805 7.121333480286618 24.91340906513526 0 1 0
1491 2 2.4 19.10922486796383 7.607992083071535 23.504990033985397 0 1 0
1960 2 2.4 22.08208799746587 6.658675301296901 23.628115039794817 0 0 0
1181 1 -1.2 22.47022164647401 7.784479672936123 24.693775657996948 0 0 0
189 1 -1.2 29.063405593810803 7.026676230979311 23.581787580576098 -1 0 -1
951 2 2.4 30.035158329479394 8.301810644026649 23.87080624587812 0 0 0
1540 2 2.4 2.5108098298916928 8.262197692423841 25.459520540525755 0 0 0
1350 1 -1.2 3.1039141656316906 9.738260001676958 25.026307867371717 2 -1 0
1028 1 -1.2 5.345452012953217 10.453378008747643 26.207684508483585 -1 0 0
1808 1 -1.2 8.077802701990233 10.74844758923236 25.798666243332946 0 0 1
2060 1 -1.2 10.308976064939998 9.323462101158595 25.54836955735674 0 0 0
1103 1 -1.2 9.374738191131534 10.549595554842567 23.555684250853147 0 0 0
242 2 2.4 9.520696175450453 10.712109644157191 25.141856582542108 0 0 -1
623 1 -1.2 12.679888719128027 8.117771016806124 25.433627097766312 1 0 0
707 1 -1.2 12.327848729272397 10.16360245453325 23.94480477403354 0 0 -1
1083 2 2.4 11.961188015801014 9.5870922027545 25.436174105118663 -1 0 -1
1487 1 -1.2 15.942413099697626 10.307607842566581 23.461047026402166 0 0 0
1842 1 -1.2 15.548372356735804 10.970619181739167 26.096093643656502 1 0 0
1265 1 -1.2 19.529396637211462 9.147182348973258 23.83455738032269 0 1 0
1768 2 2.4 20.49035871558119 10.41365379779677 24.142974263712933 -1 0 0
1926 1 -1.2 21.425277447194805 10.047100786137282 25.483383605734975 0 0 1
1321 2 2.4 22.772763492736345 9.185241504736364 25.460450554857456 -1 -1 0
68 1 -1.2 23.951855035590942 10.052190164209993 24.737490952748477 0 0 0
55 1 -1.2 26.576761909727267 9.842794200046468 25.18935123564063 -1 0 -1
1096 2 2.4 25.248305225433395 10.879806741643062 25.118586893680263 -1 0 0
1819 1 -1.2 29.18507951132277 9.511167740697166 24.56375929245299 0 0 0
314 2 2.4 28.072963226408238 10.364430630941898 25.273194520928893 -1 0 0
1766 2 2.4 3.927586160399792 10.95395262473519 25.722406175856502 0 0 0
1809 1 -1.2 4.148554024843616 11.978379479894496 24.41691640994255 0 0 0
1400 1 -1.2 6.920797354826235 12.864315227722365 23.643137657407358 0 0 0
1440 1 -1.2 10.421737619876842 12.033620921424154 25.61209850460825 1 1 0
902 2 2.4 15.69591105440853 11.478311351000507 24.53882858118177 0 0 0
1712 1 -1.2 14.215747514522658 12.104152029326215 23.974242853794237 0 1 0
2034 1 -1.2 16.887048695552483 12.631544463399887 24.33822461442621 -1 0 0
1479 2 2.4 18.44137411430967 12.693959922012759 24.871211260401214 0 0 0
108 1 -1.2 19.597543035020223 11.702657547610526 24.188015658462 0 0 -1
1648 2 2.4 26.973594093789746 12.706046649493075 23.681745986402447 1 0 0
612 1 -1.2 25.50236319131515 12.076241404568883 24.063460470985728 0 0 -1
1865 1 -1.2 28.14738598315631 11.775779085840785 24.407248895493638 0 0 1
291 2 2.4 4.59738735237392 14.958003267340548 25.43952940271176 0 0 -1
1903 1 -1.2 3.122458888613037 14.554714370371224 24.87963207016344 0 0 1
1581 1 -1.2 5.541170612025927 15.152948821008964 24.1096580885546 1 0 0
207 2 2.4 7.0606645367811245 14.476575455646694 23.72598358486086 1 0 -1
1904 1 -1.2 8.032180388586522 15.066147885013617 24.85335937091004 0 0 0
1680 1 -1.2 10.382134261363467 16.09548479727637 25.15659840493338 0 0 0
627 2 2.4 9.022192049103394 15.621620894335708 26.067266593275097 0 0 -1
1485 1 -1.2 11.840885871134002 14.431968367993191 23.464105947505995 0 0 0
1874 2 2.4 11.857924790529855 15.690408714674216 24.438362843714785 -1 0 0
893 1 -1.2 12.931788790027152 15.3309004973642 25.633942588680146 -1 -1 0
775 1 -1.2 18.832211558193382 14.242519297882145 24.44787163384502 0 -1 0
1886 2 2.4 20.025814395023325 15.398061334163916 24.409205245340022 0 0 0
643 1 -1.2 21.220434363883186 14.91872843308095 25.4379090268421 0 0 -1
1038 1 -1.2 25.32611458649234 15.67502651195483 25.305542931596445 0 0 0
676 2 2.4 26.77890115502981 15.781950744360742 24.378763302793978 0 0 0
609 1 -1.2 27.26834644737599 14.246320269380446 24.163333339398424 0 0 0
1418 2 2.4 4.83474614229675 18.067506645566816 26.166398583997356 1 0 0
2157 1 -1.2 5.115797672512979 17.91743539926324 24.596964546640155 1 0 0
1956 1 -1.2 12.409081960593287 16.976706815451465 23.54013032912146 0 0 0
1338 1 -1.2 11.582305092114801 19.402409009486767 24.229290356461487 0 -1 0
105 1 -1.2 14.101711039294196 19.062145371070645 25.347207316332373 0 0 -1
1468 2 2.4 18.67736489122251 18.10196779092376 25.716004131001853 0 0 0
1857 1 -1.2 16.99499251830612 18.244248584832466 25.40375462156147 0 0 0
833 1 -1.2 19.373984618858216 16.850737282789204 24.827148204900663 -1 1 -1
790 1 -1.2 24.86562449234929 17.981872199934738 26.48146516940003 0 0 0
738 1 -1.2 -0.11233071407992412 17.88922227104481 25.498874361036755 0 0 -1
1866 1 -1.2 27.884087346421715 16.78527241366492 24.964017536223437 0 0 0
1873 2 2.4 29.052595001008207 17.783209575094915 24.39799572174244 0 0 0
273 1 -1.2 28.414894888454935 19.199050041605727 24.01393238925295 -1 0 0
246 1 -1.2 2.4436004363328507 21.223397348022367 25.478656983471115 0 0 -1
401 1 -1.2 4.131559082733844 20.22040649564602 23.752814828839433 1 0 0
1309 2 2.4 3.716467003873528 21.587165591700682 24.458662993655814 0 -1 0
934 1 -1.2 7.128875751924547 21.753608456927722 23.865030733735093 1 0 0
347 1 -1.2 7.442449585269087 21.978469046799407 26.505366098305622 1 0 -1
494 2 2.4 12.717488067505442 20.001071977109287 25.269208160025496 1 -1 0
2132 1 -1.2 13.047443307637211 21.572048851610983 24.766899432465692 0 0 0
94 1 -1.2 19.32420549624482 19.583412274593112 25.304144142835533 0 -1 -1
1513 2 2.4 20.14689836432588 20.833740906700903 24.605534196259285 0 -1 0
840 1 -1.2 21.5049134752359 21.0608428488704 25.482703801086547 -1 0 -1
131 1 -1.2 19.21156119728724 22.196793511825916 24.78262050484425 0 -1 -1
1735 1 -1.2 23.393488529293965 19.501356074539306 24.44625952827386 0 -1 0
1813 2 2.4 23.18309955865614 20.796907347282257 25.415390312845524 -1 0 0
81 1 -1.2 29.81752723446519 21.359012802173396 23.353279771048623 -1 0 0
2054 2 2.4 28.39012747569059 20.81446880458679 23.906686754755146 1 0 0
971 1 -1.2 28.10385288450644 21.531317504607607 25.393370763934822 0 0 0
995 1 -1.2 5.001387802289839 22.190216713428384 25.33882547949399 1 -1 -1
375 2 2.4 6.607092920279949 22.465223132711028 25.208751575149762 0 0 -1
810 1 -1.2 6.983175968083407 24.10970221588703 25.11891065716412 0 0 -1
575 1 -1.2 11.485455492998152 23.708841777057998 24.778960983833358 1 -1 0
14 2 2.4 12.458387383838831 22.776547366241818 23.784848499872517 0 -1 -1
1546 1 -1.2 16.37811896462727 23.238271681905577 25.673239241149396 0 0 0
835 1 -1.2 18.023505638952592 24.71988587776514 24.368267828912302 1 0 0
1850 2 2.4 16.650851209464197 24.764321721438428 25.285509988198868 0 -1 0
602 2 2.4 19.251630695065682 23.689124372416444 23.924864204868747 0 0 0
431 1 -1.2 20.524219718885828 24.605608549715324 24.289248114848153 0 0 -1
1976 1 -1.2 24.11495415770386 22.060346832629296 24.857094721442877 -1 0 1
662 2 2.4 24.6528065176752 23.263407046458088 25.8667969716587 -1 0 -1
274 1 -1.2 26.25037033720689 23.366331715714693 25.636355973485013 0 -1 0
1947 2 2.4 27.86891056435 23.15188158574645 25.772925611900774 -1 0 0
332 1 -1.2 28.81725091945705 23.97111263633432 24.666124573245142 0 0 -1
1392 1 -1.2 0.7853616412679109 25.033596494175868 25.287657998356377 0 0 0
1641 1 -1.2 2.5190462956119775 27.117047021999785 25.254492696809066 1 0 0
75 2 2.4 1.5447932952179697 26.24029666286264 26.131440113961514 0 -1 -1
2088 1 -1.2 5.107471757628163 26.70164410732704 24.39175407498437 1 0 -1
1046 2 2.4 4.045231870877611 27.536687722094005 25.351048731072993 1 0 0
2000 1 -1.2 7.5037422391012845 26.451502589060816 26.21135588789103 0 0 0
980 1 -1.2 9.862713561480982 27.689316881593093 26.196601523030107 0 -1 0
1737 1 -1.2 15.347954021308109 25.395981046818356 24.558280762618043 -1 -1 0
1849 2 2.4 20.8071126685493 26.033896404355524 24.95808127632961 0 -1 0
1571 1 -1.2 20.006019010235498 27.287719686688174 24.30355620071967 0 0 0
1253 1 -1.2 24.070146170920466 24.6439499743008 25.335577660068978 0 0 0
1856 1 -1.2 22.392850713255203 26.43361697636881 24.68022063167118 0 -1 0
1300 2 2.4 23.99502167847964 26.13174002944845 24.66814175725569 0 0 0
1687 1 -1.2 24.606434004357514 27.281238732919196 25.636838254094176 0 0 0
1832 1 -1.2 24.607317959816154 25.96048014751031 23.198099529788088 0 0 0
303 2 2.4 30.00456902985282 24.940558647077015 24.13712569279979 0 0 -1
1421 1 -1.2 29.36016621025066 26.49073690487416 23.95400716545397 0 -1 0
882 1 -1.2 4.337036101844048 29.12034882144459 25.03605147097504 1 0 0
179 1 -1.2 8.268280525980167 27.745297361574657 24.110598682064886 0 -1 0
1599 2 2.4 8.356265485809788 27.7725068848819 25.696625714415756 0 0 0
870 1 -1.2 13.347689749962829 29.077065530491918 25.210104712830244 -1 -1 -1
2068 2 2.4 14.025633586236404 29.69013659795231 23.895588985524537 1 -1 0
1859 1 -1.2 15.58166464587974 29.39604562233101 23.70768367926034 0 -1 0
1088 1 -1.2 17.914027169682022 28.440779301244667 23.25996386850293 0 -1 0
1888 2 2.4 17.102982576191977 29.79077555601754 23.35536886517552 0 0 0
922 1 -1.2 24.247833506624694 29.520820848301756 24.34758548289266 0 -1 -1
445 2 2.4 25.298122230258855 28.744149605617217 25.29855082472447 -1 -1 0
1268 1 -1.2 26.83919866286993 28.538653472407358 24.677418846927264 -1 0 0
1323 2 2.4 27.989534599944534 29.749944267146155 24.49222884542194 0 -1 0
804 1 -1.2 29.388468249093865 29.052161985117053 24.283312392173013 -1 0 0
1547 1 -1.2 0.9471784631725082 1.078385658039563 27.850670028109548 0 0 0
1215 2 2.4 1.9727772085845197 -0.11463311021220618 28.216218758365116 0 1 0
241 2 2.4 1.004952237728293 2.698346625226295 27.28880702668627 1 0 -1
1650 1 -1.2 5.345773709732113 2.471423508907743 26.918064540131724 1 1 0
1785 1 -1.2 2.822330582632251 30.253261755696663 26.787302706425596 1 -2 0
213 1 -1.2 8.064602197746037 1.2041493336134914 27.151402181365828 1 1 -1
2135 1 -1.2 5.543371623000713 30.2523784173033 26.95902546859721 0 0 0
349 2 2.4 8.352506058163618 2.6695299398424295 27.746223922582256 1 0 0
873 1 -1.2 15.398204390294282 1.4166158766654775 28.988764746721493 -1 0 0
328 2 2.4 14.933145803980262 -0.10651934898181992 28.787426897124966 0 1 -1
889 2 2.4 16.963149804739587 1.7987516953940847 28.474982263977783 0 0 0
546 1 -1.2 17.047849948197698 0.8673242195345043 27.14130928794288 0 0 -2
1729 2 2.4 20.475898710519832 0.7098905453741775 26.955125570944592 -1 0 0
1230 1 -1.2 21.174542826010654 1.5943782141112237 28.32202858257028 -1 1 -1
1639 1 -1.2 23.602954372086113 1.2653445594714907 27.588377170563312 0 1 0
133 2 2.4 22.60168399190146 0.7615069885129474 28.70298279479351 0 0 0
1719 2 2.4 24.189245210125204 2.433774383676574 26.59082169130282 0 1 0
955 1 -1.2 25.78943145614011 1.930640244910636 26.494181100945003 -1 0 0
256 2 2.4 26.54221190745447 0.49319646520233007 26.64917925343072 0 1 -1
990 1 -1.2 27.23338090001504 0.4496065347290031 28.20606899650351 0 0 0
1930 1 -1.2 2.5137810305005868 3.1721853398319877 27.84484576109543 1 1 0
545 1 -1.2 -0.10964065677204353 3.394366691351484 28.29831470298113 1 -1 0
266 2 2.4 3.2134190690464535 4.6860557395861155 27.959945614957345 1 0 -1
680 1 -1.2 4.83507601305168 4.714067770150428 27.94250100641594 0 0 0
1311 2 2.4 5.581766045670225 3.2735051255691503 28.3419705393514 0 0 0
1748 1 -1.2 7.106372882253782 3.1459777995717344 28.74992387614661 0 0 0
11 1 -1.2 8.399397913158152 3.808998799221601 26.511375566065617 -1 -1 -1
1517 1 -1.2 9.62292142329422 2.7745181815435838 28.822469911970856 -1 0 0
1287 2 2.4 10.704682945850463 4.004564682406169 28.773324913736896 1 1 -1
536 1 -1.2 11.710789019074715 3.80211760934427 27.44485484827157 0 0 -1
1943 1 -1.2 16.771403749630885 3.3368837228451684 28.09480578728217 0 1 0
1814 2 2.4 17.464434046651412 4.793593963483729 28.064603510170937 0 0 0
1376 1 -1.2 17.946930246988607 4.999138960621846 26.514396020866048 0 0 0
2067 2 2.4 24.147452210865357 5.074159575618781 28.55340725118263 0 0 0
1763 1 -1.2 24.223612683217326 3.900296204419827 27.30184818631296 -1 0 0
1918 1 -1.2 25.666303192031542 5.486599511141567 28.71106041689543 -1 0 0
727 1 -1.2 2.589751232101453 5.521016244385575 26.742060247183666 0 0 0
875 1 -1.2 6.275147644790411 6.890151169336062 28.20675653997348 0 -1 0
1358 2 2.4 7.202958439682426 7.755425603581811 27.168875193091626 0 0 0
2023 1 -1.2 9.895549677721752 5.457829367151387 28.66103049265272 0 1 1
1068 1 -1.2 8.747411706581154 7.287847412640619 27.327655279925256 0 0 0
146 2 2.4 9.997814713167744 6.997530782011455 28.254615584500797 0 0 0
1255 1 -1.2 11.416433844216654 7.29126957770888 27.58425814862787 0 0 0
1922 2 2.4 12.693316228845665 7.065702408753252 26.67363637612944 0 0 0
525 1 -1.2 14.094239362012589 7.292293750996998 27.54787679507561 0 1 -1
856 2 2.4 15.661341270751507 7.036429565203299 27.291926894539593 0 0 0
1618 1 -1.2 16.424329707756623 6.075961427570232 28.43443796599319 0 1 0
1746 1 -1.2 21.29018016016276 8.205929303749002 28.048539877677086 -1 0 0
897 1 -1.2 23.34316945856754 6.353674099685686 28.11790522983094 -1 0 0
1720 2 2.4 22.889326161367787 7.902375439814513 28.13536222072163 0 1 1
1059 2 2.4 1.751231844860022 8.938108256628073 28.386579956600553 1 0 0
480 1 -1.2 0.25496169770224214 9.303210799139483 28.113561217531565 0 0 -1
492 1 -1.2 2.52894622679616 8.392635779093325 27.122535627620824 0 0 -1
959 1 -1.2 7.118595806322933 9.344699500952974 27.627117484467412 0 0 0
1348 2 2.4 6.846096483711938 10.676992759089845 26.79664253014948 0 0 0
924 1 -1.2 12.462047729623007 10.663725935486248 26.564849979649843 0 0 0
820 2 2.4 16.04181855008501 10.125757930099708 27.50254583726999 0 1 -1
390 1 -1.2 14.772283373142319 10.162371109205065 28.566329166240894 0 2 -1
501 1 -1.2 16.392651598107797 8.559272891027916 27.248047009019437 0 0 0
753 1 -1.2 19.10729998618482 8.218525063912097 29.285713396136323 0 1 -1
475 1 -1.2 17.234323579769065 10.970987642228144 28.15710919440661 0 0 -1
294 1 -1.2 19.752726324504934 10.502105661274987 27.98607260234556 -1 1 -1
1395 2 2.4 20.250842225945007 9.186548086536497 28.832602762466294 0 0 0
1147 1 -1.2 23.531453719991998 8.683317086179171 26.80511300513183 0 0 0
377 1 -1.2 25.807002128743218 9.472949470490422 29.155333379297858 0 1 -1
543 2 2.4 29.268172000013845 10.273811186596266 28.20981142231854 0 0 -1
1824 1 -1.2 28.29733326648015 9.69641834509626 29.339293083244744 -1 0 1
645 1 -1.2 28.47270796705668 10.480847762864823 26.863004953576283 0 0 0
1137 1 -1.2 1.8208143333950024 12.929706931075982 28.98553089079734 1 0 0
1425 1 -1.2 3.268777371774877 11.97694805897304 26.831028739416222 1 0 0
1576 2 2.4 3.036096429555724 13.09621280051042 28.005969569384895 1 0 0
920 1 -1.2 4.571288452791414 13.196751998917287 28.797444525085023 1 -1 0
1955 1 -1.2 6.731672002918033 11.987720144849847 27.733741667666116 0 0 0
697 2 2.4 6.020555762227726 13.38001261420582 27.97447410083086 1 0 -1
1961 1 -1.2 10.352484364937789 11.152189697654498 28.113377379373855 0 1 0
1982 2 2.4 11.357888557326838 11.845287901704843 26.980375275819284 0 0 0
1723 1 -1.2 12.089478696393508 13.22405527089216 27.394863248036213 0 0 0
182 2 2.4 18.690978353396307 11.705956631275747 27.85537759285028 0 0 -1
1604 1 -1.2 18.518309289231457 12.408644045366499 26.44816720076607 0 0 0
1559 1 -1.2 18.959895453460675 12.83764000253075 29.01518405110992 -1 0 0
968 1 -1.2 23.67782878817616 11.164807224245806 28.445182336878272 0 0 0
438 1 -1.2 23.10859424527687 13.197193023609756 26.560109544207734 -1 0 0
626 2 2.4 24.223274836353585 12.348681854582672 27.45669433072343 0 0 -1
848 1 -1.2 24.879487220104718 13.47615537037764 28.576181055991682 0 1 -1
718 1 -1.2 25.34310606391133 11.69383217363683 26.51566805137495 0 0 0
983 1 -1.2 29.822195665110577 11.773601280446206 28.530042618320955 -1 -1 0
2035 1 -1.2 2.731054288976844 14.597048730774421 27.393386558435154 1 0 0
1527 2 2.4 2.8841587002842433 16.187339496050228 27.52168720215772 1 0 0
178 1 -1.2 4.1530585073843 16.41603363218378 26.37339867467487 1 0 -1
2050 1 -1.2 5.492448037756665 14.108991089242323 26.52270279939341 1 0 0
1280 1 -1.2 7.155213518085381 14.226052235510744 28.872587180355374 1 0 -1
1848 1 -1.2 9.073275091993668 14.359487740353993 27.14082515872648 1 0 0
181 2 2.4 8.791213746829813 14.297485966502851 28.805885276654706 1 0 -1
1032 1 -1.2 11.244309553174697 15.570952204215915 27.675215257324496 0 0 0
1465 2 2.4 12.566762993508856 14.755155611088805 27.174541690713166 0 0 -1
2011 1 -1.2 13.771987534409117 15.007120994415555 28.2080729840088 0 0 0
165 1 -1.2 19.200920617919234 15.678799325332882 28.879305729263663 0 0 -1
862 1 -1.2 21.16709448692952 14.19819636551188 28.00140932364818 0 1 0
748 2 2.4 19.903180127666854 14.237324203765569 29.138277702773806 0 0 -1
484 2 2.4 22.212219644629773 14.599116422584236 26.748599973274516 0 0 -1
537 1 -1.2 23.237715730348604 15.795641296064632 26.86105456910583 0 0 0
1633 2 2.4 24.724028995883053 16.380794332082463 26.616566651021806 -1 1 0
1831 1 -1.2 25.509780696165418 16.120773132037158 28.003030810760727 0 0 0
373 2 2.4 25.515469413882055 14.851566124978971 29.116408036762472 -1 0 -1
1397 1 -1.2 27.124174831886506 14.589588342931 29.374595547978096 0 0 0
921 1 -1.2 1.5291309539545799 17.002503387518367 27.10886650936854 1 0 0
1058 2 2.4 0.292849682610477 18.159636166267763 27.043653892321135 1 0 0
821 1 -1.2 3.66400280720727 19.034907898756057 26.651559656074237 0 0 0
1435 1 -1.2 3.5876557801437277 16.80305459068426 28.943656899365294 1 0 0
798 1 -1.2 6.082163905663174 18.197369646124603 27.141738053630654 0 0 -1
172 2 2.4 7.49733301095111 17.811467468738112 28.02251904907232 1 0 -1
1045 2 2.4 10.905330156480565 16.35072534036398 29.020847885096572 1 0 0
1390 1 -1.2 8.366504528281252 16.973744371958052 26.857945979720405 0 0 0
872 1 -1.2 10.750436219755725 17.992444141777135 28.564816363460842 0 0 0
765 1 -1.2 13.114176889478692 18.31558109673623 28.04762451561575 0 0 -1
313 2 2.4 11.762037644215626 19.195392784832855 28.078157364779017 0 1 -1
757 2 2.4 15.62139210955615 19.0534353073038 25.98414457745824 1 0 0
369 1 -1.2 15.675717862262122 18.611602272472346 27.51064394114969 -1 0 -1
2042 2 2.4 14.555581870158395 18.519530004347523 28.685976221801543 0 0 0
1303 1 -1.2 18.869037966470593 17.829616488525048 27.316397818776824 0 0 0
25 2 2.4 19.419412760071552 17.30179903547655 28.782056239101035 0 0 -1
1008 1 -1.2 23.54591026674195 18.462792053925998 28.739455270796963 0 0 0
712 2 2.4 24.555467318258625 19.056151256836014 27.61733171087494 0 0 0
1679 1 -1.2 29.47948256010826 18.11499049023793 28.074840549788146 -1 1 0
323 1 -1.2 1.1041477526961576 19.59546810116035 27.123104057210337 0 0 -1
1935 2 2.4 2.498157063017631 20.29132356508315 26.75457751287063 1 0 1
1495 1 -1.2 3.087638784408442 21.346173303344866 27.87240966471485 1 0 0
1609 2 2.4 4.123695103938734 21.555115717623767 29.041169341203968 1 0 0
17 1 -1.2 8.122559176407963 19.327875310791242 28.31762321102592 0 -1 0
2153 1 -1.2 8.595438906542872 21.956470927795774 28.67492343651942 0 0 0
593 1 -1.2 11.746735833143436 19.96357736797911 26.594785215234246 0 0 -1
636 1 -1.2 15.800672999727295 20.619651519397635 25.832011896472395 1 0 -1
279 2 2.4 16.193244913218436 21.98363905331258 26.642978793001763 0 0 -1
563 1 -1.2 17.57916674972592 21.67025061940071 27.363851171940112 1 0 -1
573 1 -1.2 19.90739251734319 21.227138771043023 28.627351008483068 1 0 0
1776 1 -1.2 23.670807149546004 20.273238331886148 26.904956045776274 0 0 0
2004 1 -1.2 25.84635962017174 19.663989077832408 28.418092009824147 0 0 1
716 1 -1.2 27.531011198776145 21.679278561536265 29.187915372137773 0 1 -1
311 1 -1.2 5.174630090144627 22.682279852949684 28.760354225583733 0 0 -1
455 1 -1.2 7.895102483545349 24.290436646711672 27.610993032721286 0 -1 0
175 1 -1.2 9.896333398302756 22.950239352010556 26.64463228375953 0 -1 -1
2150 2 2.4 8.475916460074158 22.839907577268285 27.360574674840635 1 0 -1
650 2 2.4 11.259836118881381 23.864915823857793 26.432947938507496 0 -1 1
1211 1 -1.2 12.503564704304237 23.184384573967268 27.27780007191996 0 0 -1
656 1 -1.2 15.071967502176745 22.357473490948628 27.75249104784538 0 0 0
1108 2 2.4 13.965646369660115 23.5258104863203 28.034206119943278 0 0 0
1827 2 2.4 18.766950512394867 22.343680719243643 28.241328017872767 0 0 0
113 1 -1.2 19.433307535948888 23.638240152698522 27.387466575702863 0 -1 -1
59 1 -1.2 21.90359796624519 24.52120881419711 28.054244591331045 0 -1 -1
115 1 -1.2 24.11407718708507 22.912727352760175 27.361476354460763 0 0 -1
1672 2 2.4 23.060494456790508 23.428634456567636 28.505456119205608 0 0 0
1634 2 2.4 27.83463315957658 23.199972761270583 28.975451272428383 -1 0 0
610 1 -1.2 28.227268494864738 23.482339635631675 27.382559247384524 0 0 0
583 1 -1.2 0.4549103361395957 27.184972528580662 26.847554471796148 0 -1 -1
276 1 -1.2 2.5783093006383533 25.402014079300226 27.160861398500025 0 0 -1
78 1 -1.2 5.325712456670881 24.836387833263323 26.80879801307962 0 -1 -1
2137 2 2.4 4.112569256631103 25.707955905644123 27.547850764053084 1 0 0
42 1 -1.2 4.474407253494185 27.254487603532095 26.9323093741119 0 -1 -1
1136 1 -1.2 4.189240264821864 25.28573355573346 29.131023231774986 0 0 0
183 2 2.4 6.960213055985761 24.982495339331447 26.463662440738858 0 0 -1
905 1 -1.2 10.29496657741139 27.144068193541756 28.68843089977714 0 -1 0
1357 2 2.4 10.906792233408723 27.001507983196166 27.194232545154552 1 0 0
31 1 -1.2 11.178367073682933 25.419611986834504 26.785998595052394 0 -1 -1
1319 1 -1.2 14.52542755759651 24.859669447985365 27.375339718432148 0 -1 0
287 1 -1.2 14.752447007358782 27.446208899656586 26.531196836477882 0 0 -1
1192 2 2.4 15.466611546963096 26.240566689688052 27.39964595822673 0 -1 0
582 1 -1.2 15.638496162299889 26.4624188832813 28.93146742403323 -1 -1 0
1968 1 -1.2 16.82755234397045 25.72885834177376 26.667006224106707 0 0 0
1949 1 -1.2 20.274361578500496 26.048291623487124 26.4933044001677 -1 0 0
177 1 -1.2 19.735091242011247 25.49533136761844 29.19685209907192 0 0 0
1708 2 2.4 20.35594891970617 24.918367911386117 27.756732352497124 0 0 0
249 1 -1.2 1.3409568256481708 28.960902261576873 28.48492708643349 1 -1 -1
1693 2 2.4 0.04246696461312783 28.063015908428945 28.102392816056323 0 -1 0
975 2 2.4 7.13050615598438 30.369783804730858 27.372391099310125 0 -1 0
1591 1 -1.2 7.222172280803132 30.13874936618196 28.998416548329594 0 0 0
441 1 -1.2 7.735683822464025 29.115870501887812 26.454426144662765 0 -1 0
1509 1 -1.2 12.314956451112115 27.85137610815775 27.16322111478154 0 -1 0
446 2 2.4 13.618462264906224 28.65159675670921 26.711018135644665 0 -1 0
1688 1 -1.2 13.958438083864209 30.019891710792827 27.46451771438821 0 0 0
2099 1 -1.2 16.138687284472432 29.212850915485575 28.640779392800763 -1 0 0
957 1 -1.2 17.897573561373136 27.579496572429232 29.04056318757294 -1 -1 -1
1704 1 -1.2 19.654038395805674 29.986730054429113 27.82391904283095 0 0 0
412 2 2.4 20.512023905966952 29.48315613649951 29.07396459456558 0 0 -1
442 1 -1.2 22.069264693506188 29.727997904793277 28.680206752348045 -1 -1 -1
93 1 -1.2 25.503841999196172 29.69674595811118 26.656718156462432 -1 0 -1
1284 1 -1.2 29.236627822349327 29.18949893079825 28.155489592411723 0 0 0
505 2 2.4 28.09804271647896 29.845929208131107 29.00562651588149 0 -1 0
1500 1 -1.2 0.7305725320712696 0.16160170804435406 31.571587771710764 1 0 0
510 1 -1.2 2.930214503204919 0.18988642421667704 29.516152910901933 0 0 -1
557 1 -1.2 3.952754316512104 1.3588654521008008 31.686640104796158 0 0 -1
1742 2 2.4 3.7898148640239087 -0.01469857877160893 30.87697181074341 0 0 0
1266 1 -1.2 17.97799065705027 1.458295577986114 29.705820553067028 0 1 -1
997 2 2.4 19.040131241993095 1.0593422371324823 30.875863910897174 0 0 -1
307 1 -1.2 18.111210309760512 0.6425852791280312 32.186663999121684 0 1 -1
1543 1 -1.2 20.00441467498166 2.2322893836542494 31.502950225956727 0 0 0
92 1 -1.2 20.028227430394896 30.351055428799032 30.4140353895564 -1 -1 -1
726 1 -1.2 23.242014424893473 0.9704950827981 30.21830373049106 -1 1 -1
110 2 2.4 24.03484884217662 -0.02405867511843666 31.200433157333595 0 0 -1
46 1 -1.2 25.314739210681935 0.9534369642324605 31.853685652061067 0 0 -1
781 2 2.4 29.726199962076866 1.0101984991652544 31.364401529329005 0 0 -1
2159 1 -1.2 29.770608170534853 2.563762729297698 30.79725582236094 0 1 0
822 1 -1.2 28.808806028392024 0.15030285611880223 30.322363538444897 0 1 -1
819 2 2.4 1.6099770173038304 4.98927388416578 31.47985286806033 0 0 0
1054 1 -1.2 0.3167981952251186 4.999219122384086 30.46482968822205 1 1 0
464 1 -1.2 2.3707609726906926 3.5376722302134307 31.149017384682 0 0 0
1713 1 -1.2 4.750838542340796 2.7393848576215247 29.7078400059859 1 1 -1
1802 2 2.4 3.9218091289140733 2.9259283203283584 31.06463146414803 0 0 0
1833 1 -1.2 4.722968402450505 3.9548865216622504 32.03372366162344 1 1 0
1047 2 2.4 6.140613054637477 4.7551835355490635 31.840794185547505 0 0 0
744 1 -1.2 7.258741532970938 3.5959575939806476 31.792841452000967 0 0 -1
730 1 -1.2 11.659956490232473 4.124196810970549 30.093109901138686 -1 0 0
1132 2 2.4 12.627862807019632 4.881473712355774 31.1457581149933 1 1 1
692 1 -1.2 14.122054590155381 4.347373067593011 30.875073124489045 0 0 0
831 2 2.4 15.445418660333747 4.351189568661796 31.867381342253474 0 1 -1
324 1 -1.2 18.533788417567585 4.962712309616562 29.334615774543252 0 1 0
1889 1 -1.2 16.839443924828554 4.304397806993892 31.05720588161885 0 1 0
1288 2 2.4 18.16761134628715 5.241506124629414 30.888523981912414 0 1 0
629 1 -1.2 19.441993015507748 4.768454144683636 31.8125628939475 -1 0 -1
132 1 -1.2 23.36895167904124 4.494154650654521 29.86306891989404 0 0 -1
1504 2 2.4 23.03217821993024 4.995117211356403 31.41177647814414 0 0 0
1328 1 -1.2 26.595198804044045 5.487296937821912 31.179303367399122 -1 0 0
1531 1 -1.2 28.302524259041242 4.638032932896681 29.42460344087007 -1 0 0
244 2 2.4 29.7008896259747 3.884257541745706 29.803850027674752 -1 1 -1
1772 1 -1.2 1.8537007400035281 7.805586750391992 29.5213444094256 1 0 0
1810 1 -1.2 2.8244055197597566 5.420748566281873 29.340981412473226 0 0 0
1078 1 -1.2 2.592470586790934 6.314073452166547 31.55530452231304 1 0 -1
1743 2 2.4 2.9962176581225006 6.810148791991727 30.079109630877156 0 1 0
1673 1 -1.2 4.509699033312787 7.431744426878084 30.16167420543449 1 1 0
797 1 -1.2 6.3448924525904165 5.672459630637058 30.5214697294944 -1 1 -1
1779 2 2.4 6.049513991815867 7.0747937137675105 29.83527997128442 0 0 0
1666 1 -1.2 9.721039735015255 7.843333496723641 29.683838554228167 0 1 0
847 1 -1.2 12.327979428200848 6.543767577729563 30.967933406828955 1 1 0
1466 2 2.4 12.975389249492522 7.868943232103762 31.552166402658187 0 1 0
1992 1 -1.2 17.87449167663716 6.818129202730786 31.32309537816417 1 0 0
2040 1 -1.2 22.741634257330137 6.567895473452183 31.400264833207856 -1 1 0
87 2 2.4 27.01292665644612 5.6656145686817725 29.701799750323833 -1 1 -1
2024 1 -1.2 27.32726324391513 7.29191813628728 29.41828004754008 -1 1 0
1872 1 -1.2 2.5017483141122066 10.15868374170285 29.221961408715433 0 0 0
1682 2 2.4 2.22269931872638 10.678458472217034 30.756537609035938 0 1 0
1157 1 -1.2 2.349608321095627 9.45370896915843 31.89093231881605 0 0 -1
1628 1 -1.2 7.072073804522991 8.228334264502852 30.306325586990567 0 -1 0
1202 2 2.4 8.601451253549238 8.75323648081479 30.52441319023055 0 1 0
558 1 -1.2 8.790838881236288 10.373349144604 30.29135336316505 0 0 0
2043 2 2.4 11.665279487674582 10.74729405219541 31.942956509376746 0 1 0
1795 1 -1.2 11.95613658626498 9.092557832508238 31.85665925085161 0 0 0
1565 1 -1.2 13.995400630663362 8.20208245631816 30.404173055259083 0 1 -1
362 2 2.4 15.136595313588515 9.375517228132155 30.007447443577618 -1 1 -1
1985 1 -1.2 14.95448047148967 10.495072554935401 31.135854805276338 1 0 0
1379 1 -1.2 16.510886310302013 8.605422576165834 29.92405582164753 -1 -1 0
289 2 2.4 18.028528473024682 8.243745474401248 30.525864865086163 0 0 -1
1750 1 -1.2 18.732005113905448 9.226781245820092 31.655005329809836 -1 0 0
497 1 -1.2 21.052927770376858 9.686125728579457 30.24330750174413 0 0 0
100 2 2.4 20.32531779148064 9.406649782034819 31.706483917861913 -1 0 -1
1431 2 2.4 24.31561731650361 10.02948942072269 29.412472347544618 0 0 0
1916 1 -1.2 23.494977970077862 8.632156138539688 29.42029116288983 -1 0 0
192 1 -1.2 24.37555328902342 10.872374305045554 30.816237594032177 0 1 -1
964 2 2.4 27.14052307646672 8.828260715417414 29.85655911351532 0 0 0
1232 1 -1.2 27.101561027881292 9.023728565024285 31.491914614913245 0 1 0
1298 2 2.4 0.3604308988206982 12.54211385652642 29.594775054509274 1 0 0
1399 1 -1.2 0.7688508175913965 11.538078886455073 30.85477333818006 1 0 0
82 1 -1.2 3.3998153026280433 11.771404379611448 31.186524505682 0 0 -1
1138 1 -1.2 9.273675238693304 12.951746082641424 29.591207008399653 0 0 -1
1177 2 2.4 9.87650556799131 11.41188338321023 29.643196833157976 0 1 0
936 1 -1.2 11.261693667188062 11.353851029640685 30.459166115652632 1 0 0
18 1 -1.2 27.63362395653044 11.48897863465566 31.94372834568389 0 0 0
809 1 -1.2 2.4719145797484625 15.67924690032038 30.879592969233315 0 0 0
1117 2 2.4 2.1613179308283765 14.989132888366232 32.283050420577084 0 0 0
1557 1 -1.2 0.8655560671961016 13.958185307400719 32.25684708722493 1 0 0
534 1 -1.2 4.97440528206141 16.67081376432608 31.0042789451087 0 0 -1
1367 1 -1.2 7.484323667943527 16.444952422180002 31.935847770005743 1 -1 0
1812 1 -1.2 9.520538234297513 15.56588776523969 29.55620849084227 0 -1 0
1476 1 -1.2 12.199618146658995 16.238352088413073 29.994542589546917 0 0 0
1909 2 2.4 13.71850004335194 15.811005794929907 29.60513299728447 0 0 0
694 1 -1.2 14.31506650723141 14.904243593738874 30.851169554811587 0 0 0
540 1 -1.2 20.344992477993117 14.068333897785244 30.67079429233064 0 0 -1
772 2 2.4 20.92245161769613 14.449846931079804 32.143238161662964 0 1 0
199 1 -1.2 22.322595336413958 15.128274550540688 31.840210342706513 0 0 -1
1586 2 2.4 23.55629896611761 16.050541574129287 31.466366493440418 0 0 0
1643 1 -1.2 24.590725408595148 15.42545471101761 30.407593739040905 0 0 0
2052 1 -1.2 29.761581509636777 13.791360168985477 29.873784149065816 -1 0 0
1454 2 2.4 28.52718484735749 14.789119006979027 30.256108017993775 -1 0 0
420 1 -1.2 28.026648697298526 14.394118650695205 31.78779487727489 0 1 -1
406 1 -1.2 28.93941074011022 16.418484242386008 30.17392271461667 0 0 0
1946 2 2.4 1.3439194670528851 19.139889168660012 31.3802993277217 1 0 0
258 1 -1.2 0.08632106612676563 18.6259275958199 30.486705599031293 1 0 -1
1496 1 -1.2 2.7270831923068592 18.271990344810963 31.020138443411334 1 -1 0
97 2 2.4 3.4678828662577366 16.92241952944131 30.541262619445522 1 0 -1
1595 1 -1.2 7.133501398380305 17.212662919776083 29.4374651762177 0 0 0
1741 2 2.4 6.471170543888718 17.220097069312903 30.9175335629365 0 -1 0
204 1 -1.2 6.29093345410297 18.75567804996033 31.526432194181606 0 0 -1
742 1 -1.2 14.663648539907317 17.134481197449936 29.546955052875326 0 0 -1
832 2 2.4 17.98568973107836 18.7458720396047 31.374755214681315 0 0 0
1652 1 -1.2 18.592504980595507 18.0400018568859 29.998805982463157 1 1 0
1891 1 -1.2 21.073087763605297 17.45612695741723 28.906587727707656 0 0 0
1419 2 2.4 22.28018146359057 18.30593877572904 29.68064634351658 0 0 -1
1075 1 -1.2 22.848292972483748 17.47358209702305 30.991080689602146 0 -1 -1
1021 2 2.4 29.182480980252286 17.99620231641076 29.74716095531236 -1 0 0
48 1 -1.2 27.855734648785383 18.98454345231303 29.92686808626949 0 -1 -1
861 1 -1.2 1.8042007088825736 20.646796780938516 30.960043438391875 1 0 -1
1661 1 -1.2 4.697159507536517 20.211371981299656 29.770111594594095 1 0 -1
974 2 2.4 5.790512520817174 20.163218541304413 31.00625986361255 0 0 0
1510 1 -1.2 6.9920897528492185 20.8747502851319 30.27219272549028 1 0 0
2056 2 2.4 8.37638594446733 20.5388410199054 29.343023204317905 0 0 0
1906 1 -1.2 9.602601356523126 20.271777688031634 30.38423782998137 0 0 0
793 2 2.4 11.113075716856388 20.941778835623694 30.421159331488333 0 0 -1
1584 1 -1.2 11.755152366967279 20.461811445308566 29.00787163757616 1 0 0
211 1 -1.2 11.854051586930632 20.3853135415286 31.725172431229197 1 -1 -1
456 1 -1.2 14.564048211709501 19.832124034160785 29.647194387194915 0 -1 -1
1237 2 2.4 15.457465596524047 20.393726560562733 30.93689250742407 0 -1 -1
345 1 -1.2 16.922534999011454 19.78368554047861 30.6329740705092 0 0 -1
1797 1 -1.2 19.129229797964324 19.707153143516116 32.038264381039774 0 -1 0
1359 2 2.4 21.123664949510353 21.2650050582152 29.750841513151027 0 -1 0
570 1 -1.2 20.598173755429396 21.880399172534915 31.139376389514986 1 -1 -1
269 1 -1.2 21.641170594913497 19.804510152499798 30.001523885311933 0 0 -1
685 2 2.4 26.82279741341482 20.1839924435929 29.593169297913683 0 0 -1
1174 1 -1.2 25.862527533406492 20.51795709888488 30.853243026486886 -1 0 0
854 2 2.4 2.171116402104331 22.1765674664629 31.345540701553855 1 0 0
250 1 -1.2 0.8074335513577632 22.8893355589146 31.218196615084175 1 0 -1
351 2 2.4 4.658212684918624 23.8732039401858 29.794117485554157 1 1 -1
356 1 -1.2 3.313008963945284 22.752605772639207 30.13595667220893 1 0 0
1402 1 -1.2 5.448960819714967 24.13520711477575 31.17198111274103 1 0 0
994 1 -1.2 11.152934617319993 22.521553536044987 30.182349364012595 0 0 0
422 2 2.4 12.179240706291601 23.74272203562075 30.436745762791432 1 0 -1
2107 1 -1.2 13.559390557542681 23.45596440194783 29.65083666253184 0 0 0
1674 1 -1.2 15.748310478066625 22.01381201058185 31.002857634539513 -1 0 0
813 1 -1.2 17.96615565183108 22.876635900146397 29.56882160077184 0 0 0
1170 1 -1.2 17.076232036934805 24.49171766628696 31.298743199724747 1 0 -1
1549 2 2.4 17.1478631845397 22.890570960833088 30.997469256567673 0 -1 0
1786 1 -1.2 22.34791691949646 22.141367189438288 29.151100701826483 0 -1 0
923 1 -1.2 23.96839679543863 24.245499302531606 29.63533290491964 0 0 -1
719 1 -1.2 26.596671474562232 24.24597837303274 29.36129770673928 0 -1 -1
397 2 2.4 29.937868211985926 23.912840222663316 31.23674650819998 0 0 -1
1568 1 -1.2 29.12112081712939 23.60812135619001 29.868554065813257 -1 0 0
1950 1 -1.2 0.2836085684767374 25.377441990558204 31.22560449769714 0 0 0
427 1 -1.2 30.26400464244672 27.075045247302285 29.39581210007115 0 0 -1
1204 2 2.4 8.131102839688134 27.05671390376264 31.59009627587636 1 0 0
958 1 -1.2 6.883646288734971 26.09991352963878 32.07158558039718 0 -1 0
1631 1 -1.2 9.3060867946921 26.111225366990713 30.866446476958004 0 0 0
1744 2 2.4 10.696387258410965 26.451578060829686 30.085062486477998 0 -1 0
317 1 -1.2 11.406852779956377 25.02613376389614 29.833540316210332 1 0 0
689 1 -1.2 11.663222991662389 27.341766367739204 31.07443153948524 1 0 -1
2049 1 -1.2 18.54651615843421 26.71784832753691 31.27655510348386 -1 0 0
339 2 2.4 19.195264272190915 26.88090553126901 29.778609737358885 0 0 -1
1275 2 2.4 17.6219176647574 25.700757163257627 32.24387205481566 0 0 0
900 1 -1.2 25.1804488494829 24.960191112571042 31.730049114432557 0 -1 -1
1574 2 2.4 25.309256697461652 24.992157684073426 30.09351825440878 0 0 0
1579 1 -1.2 25.3781746481636 26.604853327195762 29.612076352830496 0 0 0
1862 2 2.4 30.146028296068433 26.868202433976876 30.985057782824377 0 -1 0
1267 1 -1.2 28.609907164228286 26.9679190215233 31.534210987113504 0 0 0
227 1 -1.2 0.7183188858752992 27.91543092189428 31.664839523864032 1 -1 -1
1725 1 -1.2 3.01196356564392 29.487271486135622 31.887323817636524 2 0 -1
128 1 -1.2 5.186673837497745 29.688530723882113 30.568060954151118 1 -1 -1
440 1 -1.2 7.418119487037843 -0.03602864962102948 31.84917274224041 0 0 0
1767 2 2.4 6.789445144048176 29.587801520661795 30.526303022885035 -1 -1 0
1871 1 -1.2 7.35198085290253 28.129282402519003 30.661310368573407 1 -1 1
2071 1 -1.2 14.126891216273426 30.019633563403147 30.11823192690923 0 0 0
2053 2 2.4 16.35438635705049 27.845408861006508 29.448841471073038 0 0 0
85 2 2.4 14.75935997887776 29.393671463058805 31.429151068854544 0 0 -1
404 1 -1.2 15.847003099399897 28.128675477794832 30.98620858407247 0 0 -1
1991 1 -1.2 20.42457519022014 27.94257904701526 29.584247896137114 0 0 0
36 1 -1.2 24.467356825703256 29.12243612549429 30.493727727087823 -1 -1 -1
95 1 -1.2 27.04683378351408 28.662856318706304 29.530191584889632 -1 -1 -1
26 2 2.4 25.78172230955598 28.002500543937792 30.393998452557053 0 0 -1
705 1 -1.2 26.21666522763316 27.87901839657174 31.9373789031158 0 0 0
796 2 2.4 7.425481636773064 0.28738033150372333 33.425310273881635 0 1 -1
1605 1 -1.2 5.947778990266527 0.24269580023498524 34.0842647749217 0 1 0
1770 1 -1.2 8.041086583190907 1.7546034487580815 33.534042174530065 0 -1 0
1937 1 -1.2 15.599018427977445 -0.07853588994484184 32.36540945528324 0 0 0
1667 1 -1.2 16.605058510374278 1.3009023547302117 34.39529697280071 0 1 -1
1898 2 2.4 16.929463756360914 0.20517400735444696 33.19670623615201 0 0 0
1344 1 -1.2 24.664381501170077 2.2767517432058293 34.11553058986598 -1 0 0
1539 2 2.4 25.871478068676435 1.8118549286817236 33.095958269238494 -1 0 0
468 1 -1.2 26.72357726018948 0.7718349767896924 33.9713531820086 0 0 -1
683 1 -1.2 29.100022770931353 1.1069643420564246 32.87622538208567 0 0 -1
2041 2 2.4 28.185980610228086 0.055224179289359555 33.815921808115164 0 1 0
1200 1 -1.2 1.0447095175934822 4.922491872920399 32.994256588917594 0 0 -1
1098 1 -1.2 7.774783441389468 4.377808929228652 34.259250180025106 0 1 0
1034 2 2.4 8.215976496628038 3.2643960367844134 33.088545530713866 1 1 0
2124 1 -1.2 9.858218259543643 3.538032348707112 32.676975290925945 0 1 0
1552 2 2.4 10.812666445608405 4.663175419889545 33.32747819436429 0 1 0
996 1 -1.2 10.942553882060155 4.47726890834709 34.95232296252097 0 0 -1
513 1 -1.2 12.269100573704591 4.525662403290844 32.679994694635006 0 1 -1
661 2 2.4 16.228654859499816 2.8356497009847166 34.35121889159172 0 1 -1
977 1 -1.2 15.480558147453376 3.1069781923344717 32.90523917982127 0 0 0
10 1 -1.2 17.56255487411761 3.836371951496781 34.41958441644145 0 0 -1
987 2 2.4 20.3881121817428 3.55280294240445 32.334904456384116 0 0 0
1235 1 -1.2 20.12661812280736 3.40374178869822 33.945060474441476 -1 1 0
739 1 -1.2 21.975485849602926 4.029972292135723 32.13762864701754 0 1 -1
1125 1 -1.2 24.4088480526112 4.672554393581631 32.401315976447535 0 1 -1
1123 1 -1.2 26.578286612440436 3.1275180891697714 32.44227745483884 0 0 -1
603 2 2.4 25.985016603028814 4.732460200306446 32.533322854041025 0 1 -1
1879 1 -1.2 28.381264793385647 4.088504135352251 -0.14913041794862636 -1 0 1
625 2 2.4 0.46008317727935444 6.3447967636954 33.717330237155316 1 0 0
1615 1 -1.2 0.6393966451304327 7.855341346235731 33.0402183960166 1 0 1
1512 1 -1.2 2.922886926204059 7.780486894639255 34.21367861222231 1 0 -1
1469 1 -1.2 6.2370613505827635 5.929358143151385 33.000849969990604 1 1 0
1225 2 2.4 6.982858764791203 5.8701626427010485 34.42484618864471 -1 1 0
394 1 -1.2 8.183203502557125 6.985314871747883 34.45873781150436 1 1 -1
191 1 -1.2 10.328571103939124 6.211783383652612 33.05335109419348 0 0 -1
2139 2 2.4 9.397713569823512 7.491274609009262 33.490259551617214 0 1 0
260 1 -1.2 15.46678046778378 7.014548158935544 -1.484204266852555e-05 0 0 -1
80 1 -1.2 13.759606331644166 7.636003995763131 32.98767604819656 0 0 0
1330 1 -1.2 15.485071514507936 5.644185199679365 32.807300443276304 0 0 -1
553 2 2.4 15.199168556216677 7.10054958336414 33.527132445698385 1 1 -1
40 2 2.4 22.543882034040603 7.685057088652246 32.52470422214682 0 -1 -1
1260 1 -1.2 22.840959680644108 6.943668390367947 33.988992078180004 0 0 -1
58 1 -1.2 26.490794233218516 5.605313261201322 33.80228298217693 0 0 0
1057 2 2.4 27.960662360997077 5.617133680545999 34.595921006956296 -1 1 0
2025 1 -1.2 29.234083111880405 6.085001674237275 33.67963982550091 -1 0 0
495 2 2.4 1.9076424257820324 8.820574760121843 33.36825759363848 1 0 -1
1062 1 -1.2 1.5290721151139222 10.019391040661114 34.34084644597042 1 0 0
114 1 -1.2 8.926757512798712 8.254530146059146 32.10082676318662 0 -1 0
225 1 -1.2 10.38070781916368 8.59573329915577 34.44839213953317 0 0 -1
1377 1 -1.2 15.11332033917712 10.848013673807017 33.74065739674895 -1 0 0
487 1 -1.2 16.414036853714418 8.168746778124985 33.45088063935101 0 0 -1
470 2 2.4 16.65305645329581 8.225150182502022 -0.05065943511287276 0 0 1
2148 1 -1.2 20.94486516046877 8.12751317347074 32.4916963202445 1 1 0
44 1 -1.2 20.521343445530277 10.716157500301348 32.58292677399139 -1 0 -1
1588 2 2.4 24.08747444819551 10.468990530452883 32.38868179097052 -1 0 0
430 1 -1.2 23.460947214052148 8.970862450637707 32.45243841655618 0 0 -1
1297 2 2.4 27.060830585177005 10.16588385798943 32.69848527331557 -1 -1 0
463 1 -1.2 25.487423664384345 10.39001672180644 33.161958556075255 -1 0 0
681 1 -1.2 27.754183007092127 9.808146783542814 34.196641693681265 0 0 0
1551 2 2.4 2.223536889052428 11.398597277910204 34.74403898792923 0 0 0
624 1 -1.2 1.2533162289403303 12.636627360659533 34.330426128504136 1 0 -1
1011 2 2.4 4.010362904868833 12.495153720526885 32.54216101958598 0 0 0
1018 1 -1.2 3.6000813879305134 11.594691652604787 33.920370100810054 1 0 0
1091 1 -1.2 5.615455049138095 12.60613453953756 32.54599739620131 -1 1 0
1936 2 2.4 6.71966556566062 13.002900888502825 33.69052851984087 1 0 0
336 1 -1.2 8.056200890236099 12.345536467364601 33.08400553018332 1 0 0
1843 1 -1.2 10.42064175052303 11.12660752880278 32.892936905267646 0 1 0
1706 2 2.4 9.425537994499264 11.99568266343439 33.832045681578705 1 0 0
622 1 -1.2 10.104236819703932 13.373917504852411 34.34383064812064 0 0 -1
333 1 -1.2 12.950769558163703 11.534753955050434 32.480523827809506 0 1 -1
1901 1 -1.2 15.365838331522482 12.892751716692416 32.19584398982695 0 0 0
206 2 2.4 14.608589768420172 11.481585088524772 32.37055387804786 1 0 -1
1081 2 2.4 21.521756273031478 11.618748772776634 33.4263642483707 -1 -1 0
881 1 -1.2 21.154114856052892 13.146206326114996 33.146951393201064 0 0 -1
1087 1 -1.2 21.439049684595375 10.945838147543023 34.90689409913657 -1 0 -1
383 1 -1.2 23.151316620226332 11.609945348585637 33.04440107979287 -1 1 -2
666 1 -1.2 26.503706118989022 13.278903423756539 33.61897459211669 0 0 -1
1154 2 2.4 27.831972312585446 12.96836898855767 32.63052636233532 -1 0 -1
2143 1 -1.2 29.252320740005498 12.843071857840746 33.4322495456928 0 1 0
1264 2 2.4 0.19637143559494258 13.649897592042922 33.748454948468876 0 1 0
37 2 2.4 1.0471804555719972 16.147272427172354 34.810990810440344 0 -1 -1
215 1 -1.2 1.9369538829292479 16.239753833096444 33.38355040247412 0 0 -1
1484 1 -1.2 -0.0065763888311322245 14.957377303096166 34.687813094338196 1 0 0
1259 1 -1.2 3.412821395385445 14.021631581356631 32.674768246866925 1 0 0
12 1 -1.2 6.797902235000332 14.615071427438325 33.76257494119395 0 0 -1
2031 2 2.4 7.510470239214871 16.053447303428626 33.56325922838113 0 0 0
1573 2 2.4 10.172347195686669 14.930952933793026 34.854698107087145 1 0 0
799 1 -1.2 9.074355322630296 15.930778361727386 34.09949979619167 -1 1 -1
1815 2 2.4 13.048982259617445 14.737609854999908 34.90886873949023 0 0 0
787 1 -1.2 11.656237962510769 15.552851773371778 34.58888321335345 1 0 -1
1050 1 -1.2 13.773959756518547 14.628042488388708 33.46363956665261 0 0 -1
842 2 2.4 14.91227452615591 14.497546373576048 32.32280510409629 0 0 -1
393 1 -1.2 16.201864141825205 15.315644659040776 32.73564533927892 0 1 -1
1578 1 -1.2 18.386528711991993 14.010490465127042 34.71279074675375 1 0 0
1023 2 2.4 19.109130531353006 15.476319543371115 34.37179970690657 0 0 -1
2081 1 -1.2 17.92607873818359 16.539479329204074 34.538711421002134 0 0 0
1380 1 -1.2 19.72645859747158 15.399725410516972 32.821391631925664 -1 0 0
1965 1 -1.2 22.789059595404233 15.322898931915617 34.83050832814758 0 0 1
749 1 -1.2 24.41487303961165 15.993924329255096 32.87534983850172 0 0 -1
1160 1 -1.2 0.2945114085900261 17.57949106458174 34.909190667966904 0 0 0
2007 2 2.4 0.22254001578553428 19.121040965623486 34.34737891089467 1 0 0
1902 1 -1.2 0.7941349978658016 19.2294145279346 32.83555004863384 0 0 -1
137 1 -1.2 6.571651009614271 17.140106080804546 34.30648267930804 1 0 0
1436 1 -1.2 15.279324372177426 17.435303474742902 34.13023934600135 0 0 0
1116 1 -1.2 17.207343608329428 17.71318008228936 32.33916139288871 1 0 0
1945 2 2.4 16.63719522352235 16.74065320763309 33.523448534923226 0 0 0
1069 2 2.4 23.866787242099925 16.405562668622014 34.34273935224904 0 0 0
779 1 -1.2 23.200223383063495 17.890071945787813 34.177448453524946 0 0 -1
755 1 -1.2 5.114758001632447 20.886392217021182 32.32085363856468 0 0 -1
239 1 -1.2 2.9250291640794353 20.40494493306502 34.087635331256436 0 0 -1
230 2 2.4 3.986687899279508 21.35762153999827 33.3542247656327 0 0 -1
1016 1 -1.2 4.90718512556635 21.952158500077093 34.65208099324856 0 -1 0
547 1 -1.2 7.444340624924169 21.406363872552944 34.53317559015661 0 -1 0
634 1 -1.2 12.370029456920026 19.5318521356282 34.00244147881067 1 0 -1
1382 2 2.4 13.093606712802465 20.429326479252275 32.77933893737961 0 0 0
1890 1 -1.2 13.525207338920554 21.867675433329484 33.38782737266836 0 0 0
1424 1 -1.2 14.57077600200085 19.82669772545723 32.23022935466839 0 -1 0
1394 2 2.4 21.083191517996976 21.403684786503913 34.918360393009415 0 0 0
411 2 2.4 19.51114673426485 21.28072057684134 32.18592766177846 0 0 -1
1845 1 -1.2 20.2337152457747 21.602606529493517 33.57428604617834 0 0 0
346 1 -1.2 22.15794843883274 20.18699627509729 34.73162112155111 0 1 -1
711 2 2.4 23.514968599855564 19.506197689011103 34.21269263081906 0 0 -1
221 1 -1.2 24.02602866061042 20.210272594084188 32.811951332131166 -1 0 -1
1252 2 2.4 25.49502810904475 20.833752881969634 32.478155573610216 0 0 -1
1439 1 -1.2 26.773510238040263 20.430947379739905 33.337531149716526 -1 -1 0
1085 1 -1.2 29.022781941660487 19.454021747825337 34.183233454013745 -1 0 0
1993 2 2.4 27.91501134965184 20.562774990564616 34.52553089844681 0 0 0
117 1 -1.2 28.60247471157251 22.002752891774204 34.55495831932895 0 -1 -1
212 1 -1.2 0.5782713238188237 23.65457295513666 34.290392387248616 2 0 -1
766 1 -1.2 2.95982874237455 22.43954855024736 32.68417272344395 0 0 0
1020 1 -1.2 7.117111748696012 23.6416059955331 32.98141277607027 1 -1 0
2149 2 2.4 7.77360806624369 22.99924703244147 34.28953513637323 0 0 0
1621 2 2.4 6.098952383081195 24.79925840078505 32.52163875746758 0 0 0
1387 1 -1.2 9.401402992975427 22.993715612276 34.20753891835281 0 -1 0
358 1 -1.2 12.400636366007179 23.851540139469435 32.039905240464975 1 0 -1
125 1 -1.2 12.02975974526455 23.416557072429747 34.67019238458861 1 0 -1
2078 2 2.4 13.068886405457159 23.3877112314348 33.438533352058066 1 0 0
1654 1 -1.2 14.353026475792205 24.25502365838241 33.77154196921554 0 0 -1
1122 1 -1.2 18.160335870975427 22.181807048758348 32.022910333225525 0 0 0
504 1 -1.2 23.59844877596554 24.056753056345002 33.711867493159666 0 -1 -1
1817 1 -1.2 25.474254960983544 22.479290122840318 32.64300973787497 -1 0 0
1585 2 2.4 25.131321732498446 24.006251008095 33.054945967957345 -1 0 0
366 1 -1.2 26.10962073521413 24.548893682354876 34.19620111113479 -1 0 -1
43 1 -1.2 28.53365630417909 24.733751194752493 34.93922695827107 0 0 -1
220 2 2.4 29.318578867264783 23.501717193100767 34.100246933959795 -1 0 -1
1447 1 -1.2 28.9113858002956 23.72505815675926 32.53303961897679 0 0 0
1194 1 -1.2 5.000720791425749 25.403886171000284 33.54655222962029 1 0 -1
265 2 2.4 3.975516780081001 26.10789434625349 34.648020068890204 1 -1 -1
391 1 -1.2 3.2405684095473863 27.471514267404853 34.20392157140948 0 0 -1
1855 1 -1.2 6.954275652486126 27.79241955940391 34.57659350911879 1 0 0
1632 1 -1.2 10.14382577249241 25.361906797915886 34.58498898118342 0 0 0
1801 2 2.4 10.963524601071699 26.752637559168605 34.954514908882025 0 -1 0
2029 2 2.4 12.667254569601576 27.498563774007796 32.37179421738406 0 0 0
35 1 -1.2 11.811148169274018 27.44565186469231 33.773665812677926 0 -1 -1
826 1 -1.2 13.866848230743738 26.403229755248148 32.432231365614214 1 1 -1
198 1 -1.2 14.577474628462294 26.67539566423209 34.9571139669979 0 0 -1
782 2 2.4 14.838245691472608 25.81500557925447 33.54518455622376 0 0 -1
919 1 -1.2 16.424631356277686 26.03452463096929 33.18534114564035 0 0 -1
1975 1 -1.2 18.86130609564503 25.175683837921348 33.17010974203848 0 0 0
326 2 2.4 18.81218272819831 25.68641368294262 34.749132430629025 0 0 -1
652 2 2.4 27.12682453689678 25.599744231439523 34.85690321831672 0 -1 -1
1644 1 -1.2 27.49886502175204 26.9025648827855 34.01514806392172 0 0 0
1251 2 2.4 1.370475565114498 29.31734125123243 32.20584268409469 0 0 0
1072 2 2.4 2.4927693047960964 28.88202603686682 34.78718907666564 1 -1 0
1231 1 -1.2 1.2658028416154885 29.259030846144583 33.8425331075183 0 0 -1
1988 1 -1.2 3.4241567211801556 30.216895453249133 34.849217871165436 0 0 0
1914 1 -1.2 8.508123861501883 29.907642893611452 34.21806928597144 0 0 0
1086 1 -1.2 8.850337735404036 27.669421503787948 32.91161700096358 0 0 -1
2077 2 2.4 8.51119719772587 28.277829234639686 34.34845282298772 1 0 0
526 1 -1.2 13.44158573049399 28.99126585076456 32.26369876142775 0 -1 -1
562 1 -1.2 17.368535788627064 29.390477560645554 33.99691749311517 0 -1 0
1187 1 -1.2 19.484174005294797 29.123572224574797 0.11759574662005444 0 0 0
2085 1 -1.2 21.84880085650301 28.242248135701583 33.984592209267824 0 0 0
1870 1 -1.2 23.170726030375665 30.12888721630266 32.57580518433903 0 -1 0
1488 1 -1.2 24.30419725205416 29.381943225859633 34.857117209921654 0 -1 0
2127 2 2.4 22.86532755646225 29.61701040960013 34.073518611489845 0 0 0
783 2 2.4 27.617753375361243 27.729534282024034 32.61872615324084 0 0 -1
426 1 -1.2 28.1497767380092 29.200766151715868 33.0371103975698 0 0 -1

Velocities

684 -3.0901588795322246 -4.873969242352889 -4.549852542618119
2018 2.604753578005233 -1.0267704486483276 -1.5206172535536597
1864 0.30246064371309056 6.99524499663136 0.24737976234456366
2009 7.347663322911393 6.599882583663746 -3.7254901342158337
1921 -0.2927456548933322 -0.3892300558680829 -4.729856547130035
425 -0.952906541895509 -9.466728234436628 1.6778740049813339
658 -1.5354457965422612 3.8546716598441253 -1.7656445639982195
1140 6.4539506268366145 -0.017684748343978846 1.198301898265156
1657 0.47609745356762156 -0.8547082358736352 -2.437380616233964
1134 -4.794420838072883 -2.4928618357701122 -1.8651963735443096
678 5.840647304915049 -1.174756162442177 0.3635139664642041
485 -2.7519574820360737 -2.4588375907084523 6.018877681399282
240 -1.1734831455020154 -3.2505297378136255 -0.08024955148668649
963 3.5293407436564252 0.6840231299209348 0.48023111273434793
2074 0.917977354929991 -3.4086797530402193 0.3043751329736333
1677 -5.478439114396519 1.126266395222999 -1.4270034244193295
1828 -2.6550904387003715 2.05982885881588 2.0629398974310704
1972 -3.1518092571243725 -2.5518025035220417 5.543140136628131
380 1.6913056951221668 -2.836141881818904 4.59327650303323
2028 -4.934629750505434 3.264409417588734 1.9246677654020623
1317 -0.4333638898353956 -1.070713547428743 -0.013963622739834506
1561 2.1717186060716456 -3.7353584313392134 5.306702792550165
1867 4.3258280349847595 -6.556591217028638 -1.5535268308570869
66 1.4176662603535262 0.06050008355265292 2.152658306397058
1384 -7.341563986949141 -1.2548169036118857 -1.5195457999429889
1593 3.2584295502148044 5.1342746050676515 -4.003768816771691
1671 0.10050991361768837 1.881174345228498 -1.5612929330447385
134 -1.1570798417808672 2.276266897819658 -1.9666322041435897
129 -7.163731708800568 2.14649635027777 0.7560767785222133
1281 1.4121440344727856 -0.23333410987705858 0.7120776108824972
857 -1.898897308402342 0.7938358314414506 0.17966029845882114
161 -4.087791908272185 4.584994639263651 -2.3271378771971754
1270 0.4467506534782505 -4.595472735170994 2.2435745405551826
145 -1.1795911836801898 -0.9099462752702094 7.98893933575372
180 -0.5546714946914248 -1.983007518743218 6.708696072403617
1984 1.9396465407175456 -3.3936163033725233 -0.5317698226919806
2093 -4.4488197509027065 -4.68881243989705 -1.2975460752093726
140 -7.672029627948627 -7.4492174309900125 2.1027264229165104
280 0.7697631294587302 4.3104093280460924 -2.4308738827239793
1438 3.7766538612938985 2.275394078443501 0.33776895546042934
432 -3.439966331621919 -4.374287424444897 -1.1727527005693548
615 -2.1569145882502703 -0.850221803867611 -0.43475265558723986
515 -8.247613774131588 1.9880007790928087 -0.7976860523520976
702 -4.998152862372494 3.470588744075382 2.7078180859851764
444 0.5576113404873868 -3.90540953898871 -1.47678954950546
1456 -0.1057583236512647 3.181025509924587 -3.503106823714475
1558 -1.2025591395725788 -2.1034001854613873 2.4227393769536887
98 3.653111093915074 -2.7204749922871705 -1.9737778160724457
384 2.1235808882940264 -0.9376848026382745 1.787485594033205
120 -3.8339171610215823 0.46630762173203233 1.1418090972829646
1660 -1.9198532360251819 -2.2940372085329432 -1.2940892713088503
516 -2.338112290173488 2.5852134809983256 -10.974980451879595
879 6.811420163725475 -3.4156902849598527 1.6942440921474653
1752 -4.537626074390892 5.1981094136975505 4.050173771358625
1015 -7.452561929816561 -2.5254722879623013 4.339877579289053
991 -5.111211646344525 3.295111870110104 -4.112574462749246
1010 -6.256806677633485 1.8496868993696942 -3.02650119227699
284 0.7895678131471869 -3.2174865504302192 -1.750736545033595
839 -1.5931061721826767 -4.83786556628708 -1.6797853757334118
1129 2.392476256145726 -0.5278703534646633 0.21051367452775108
1577 4.599794069507745 6.47496757424165 4.979134095033705
1220 2.180854954132758 -6.285901681546723 -0.10085500739386728
598 -1.4723828622153456 -3.276625311522728 -1.961506148484293
286 3.4920944602009905 -10.152699363198764 0.4970543294863096
243 -0.059472886944706094 -0.7909333579209805 2.2077149950086943
1169 -2.2278400075602254 0.3764714938825826 -2.853440664908554
1234 -4.702190601885357 4.737422317138247 2.041288918360188
618 -3.058001236606404 2.9522733289478844 6.94015877309762
2101 1.7603549298289203 -0.39048412698749313 -0.6236135005621403
1928 -1.0708316157692512 2.459728133878051 -0.65220274293545
1896 -1.202931012581037 0.7927665154659226 -0.8532547212204741
302 3.536644246128172 0.4306111285433222 -3.496175369452442
1702 3.4440829859443096 -1.2328638240242027 6.495499384370839
574 0.5863955365535267 5.103066394573293 -1.04844117845991
1405 0.07467895828977039 3.2553951590539643 -4.154706775008575
701 -3.5982888902585803 2.2522301768818918 -8.440940663208213
1186 -8.44383415510481 -3.590728628015662 5.742758890010505
152 0.9010559181685575 -0.7206151863747174 -6.633540648041955
877 1.6025894293051104 -2.290588265685587 0.44327032781838693
1055 -2.6943629169277057 1.7796609493132063 0.7989579240265198
2038 6.2218877856764525 -1.1612888192894537 -3.6342894123197405
1696 -4.428080006816782 1.0910752676463003 -5.324418647681221
1590 -6.9418965964764245 -1.376135444277217 0.9749548547480041
1760 2.1742648624916163 -2.048472157478957 -3.5518748985815085
587 4.025285829961648 -1.549711342958031 0.18856541178503533
1457 -2.473841495877535 -0.49634482994078416 1.7189526348782502
542 0.3393307290278139 -0.7878525132448791 -2.1320738250613447
982 -0.9589722530124368 0.3564387495140014 6.96282843180494
1700 -4.508135118703775 -4.179973670893767 2.8396943016049074
421 -1.1654272089825861 4.302563007065862 -4.6599236247588705
1219 -4.518605382849934 -4.072285770995265 -3.5940493128115625
1094 -2.330150816604503 -7.440643358135872 -5.04815981158446
1295 6.376928919835295 -6.790879243266081 0.9868527779040679
1006 -4.029319944205333 0.05584593152808016 -6.540657432797789
1754 -1.447223823152829 -7.661301861325141 -0.499038365890952
1118 -0.8448324097677041 -2.9812882927950684 2.0148562462917625
453 5.359092588772086 0.035373570135264314 -0.8406441098775111
1391 5.408422170692209 4.435416210060787 1.5677864054269774
396 6.874527499781842 -1.9719778278343139 -3.801618156313955
530 -5.187999668456333 -0.4005081089514593 1.1986762453174016
874 1.7374989730164514 0.873134934360086 6.232146955048681
673 -2.7817038632602897 0.08948279102215699 1.832099346662554
1197 -8.18516303786869 6.834382006327475 -4.311459851566233
1683 2.874425810600459 1.3850360475634709 -0.41046212185998604
200 4.855908417948103 -3.6024066417827183 1.9085474815938142
1449 -4.7552723624667514 -1.522691903908955 1.7909549854189566
1024 3.362655346797577 -2.7243245071939017 -1.3159821134793166
106 0.787809985403758 0.34938751984394456 -0.4906700581886754
353 1.6794065015708244 -4.061512278200999 -1.6065345284543524
1885 -0.18347055273365903 1.3461372854186786 -2.5532538440373345
514 2.354804230649262 -5.839189332845086 -1.007627877661038
2104 -3.3530462615226457 4.514769869111879 1.0864241065314566
1306 -8.223883119363165 2.694617453858344 0.12560627463377233
1070 4.1224693217950525 -0.6705330583257462 1.0388389203360346
703 1.9164212638826361 1.9924057661533219 -3.3324555690674886
2090 -3.3505044273622566 -1.5285672928166187 4.093957455742621
1698 -2.998552953080582 5.176586469394929 -1.4553683305239717
1607 0.4831315936413527 -3.7749180759310548 3.161551997643208
1274 -0.32815044289774903 3.8630767107944153 0.11463090984822852
372 5.630521147560884 1.577520694019402 -0.05016958046223322
1846 -6.810521344081093 2.527846818177796 -0.18743426108611838
1560 3.7497434027405707 5.623355072876066 -0.23101866091211212
1189 -0.22462869832201582 5.694537172514223 -0.6763579118680251
2001 -1.2064947687226877 -2.33653836955117 1.5883787479075477
1583 -0.46081857825504086 -2.376839173410277 -2.3354079647793173
338 -3.712276990853453 0.499369746624603 3.174423683996912
1892 -4.544628716434454 -5.067747176063862 10.35144827567312
245 3.265172636675874 -0.2858142269010567 -2.0939559841159596
2136 -0.09776042073394012 4.971865623701638 1.7508871429961443
1250 1.3668708973657586 4.0425753277857295 1.1993981165027885
2112 -8.648236493523102 6.029572750229619 0.8740642599519366
1111 1.7044813564029215 -0.9583271084961871 2.06652833439994
1860 -4.042381028764447 -0.5278183280091655 -3.111492418368653
682 -0.6754966762753157 -0.6198405882510958 4.391355492809668
1105 5.4001705387100545 7.553716331158703 3.4946872434045435
2030 4.305577108042157 -0.709236461268366 -1.002619493408842
1151 5.353402733762553 -1.5753614490807581 -1.8209216115344227
939 -3.137695573023043 3.2462727375861022 -1.4107051923135174
1653 2.1457567824974006 4.807487140372274 2.4239807765260823
745 1.7330347958785388 2.976429363369501 -2.0085835211474383
2014 3.5251998528726984 7.266835435841375 -0.4537776188087972
1883 0.18451408171946324 -1.0438034585759448 -5.492583917218655
1482 8.076955182476418 0.22675302965613525 -4.136154646624238
83 3.401069000040476 2.1123629282227423 -5.192150889260039
38 -0.10774951922193561 -1.2793668217177296 0.3673901954809666
1228 -2.9790782034970706 -0.7913385798255073 -0.8272269502317602
1710 -1.4207481662190473 -7.541850296567305 -2.8051124169228263
1361 4.844005287332795 -5.977589936777924 -2.5298287583409715
1592 8.261214814793298 8.381588925050075 -4.9984023031839016
1851 4.583032769944043 0.13935350019625684 1.532886658288846
708 2.449214215388555 -5.29465417855423 0.2067906861919289
149 4.499886664383346 -2.931143524882358 3.8144008178809616
63 -5.245208749212611 -0.48163357116168143 2.420348038443677
1703 -4.876477168811005 4.619124187729136 -1.7646076718670405
1145 6.3280657123317425 -2.1403399111335304 5.865373010225343
365 -2.3043202834996874 1.3439566352579067 4.514438387702017
722 -0.28659434711366516 3.022334182392362 -3.504888282892803
295 -5.609718787151258 1.5752580663800888 3.9252729163481264
1884 -4.7885167627546705 -0.005179197891954345 -1.3521838671219648
633 -2.2669452465804967 -2.8915174503161922 3.292990007033006
1048 -2.025837073297795 -3.9011176979854874 0.5335709262283803
104 -3.128972769812672 1.782605409480872 4.20833459996973
262 1.089051551401243 0.4665079612108732 0.3600333219246758
8 -4.337515857502344 3.2570685475586685 2.06363548162941
1354 4.69795510998487 -0.7580219455391812 3.054049495344423
568 -1.1237975041967112 1.927730985456201 -2.7079311556705017
2142 0.9678186168897942 0.708297925130937 -3.8252897982715828
50 0.22036369028923647 -0.1694887658182144 0.19401074143538236
275 0.933635837750472 -2.401442416637254 0.9610090821164555
956 6.7986809944085 -0.07015027002622072 0.05698274343989176
2125 0.7776855085982766 0.9928390003618748 0.6242846374752657
741 -3.298227194575302 -0.476096191649185 -4.146726138389914
410 3.2439743260791967 -0.664727221609225 -0.18701439037850626
1668 1.9508435172395617 1.9758631639816475 -5.079030047856295
437 3.925955717998815 6.946417850889315 1.1166421271191425
1782 -1.9009650892574643 -4.31982370772133 1.917870031974899
2092 4.457497435996427 2.9935850857342023 0.22703700897556275
1912 -2.6113977800971204 -1.903853177055443 -0.06412017470583975
898 -4.168959315911914 -0.7054085892768938 -3.1108362346601566
41 -6.711117450925013 4.091557330622235 -10.771436781714973
1304 -2.4633866878989337 -3.3613836652704676 3.927245657442834
1386 -3.620419137429066 1.0821591323280317 1.923404127233034
1940 1.9045585379099055 -0.7799183604997246 8.3344615023069
1002 0.097320796366576 -2.4332156205881272 -3.242350513158456
229 -3.0157415132152585 -0.7124393288610064 -8.466995067329144
972 3.253942418329781 8.122735838835768 -10.470148629599139
2012 -3.557081940190324 -4.495539231253054 2.6526808323662823
1262 4.532269910977903 0.20915809507125974 -1.8204508551339782
1065 2.737253132179999 -1.8354872524913357 0.15466132388639728
2075 2.9697762342450473 -6.086396818743696 0.13024314184652813
528 -3.4352532079862352 2.3364676835067013 6.5027405626505645
471 0.6013139499633583 -2.7956626527735158 2.2996913854551106
1043 1.0924582199299637 -3.157958315128377 5.063109999833592
803 0.49091299729544596 -0.0768615639494589 -0.5599143470069557
1464 1.0132374260191441 -4.5995387443396245 0.24721355906386944
1647 -2.432841885131345 -0.8437599314409471 4.908845806498542
1453 2.7583127287821703 0.6291126956188529 6.536571769920775
60 3.7627593321001065 0.041621383253911265 2.207102632493077
768 -2.7686088562207885 -3.639100953381669 1.1892754453277474
1537 1.4586263128937322 -2.3885921139091764 0.8682138518460396
1534 -4.575554973976711 -1.5046319623571542 -0.023050935691345788
549 -8.46275303882492 6.550803038084405 -6.7127285626598905
1156 -3.1174283110927488 4.851551459314062 -2.07483859308226
2109 -1.4562446358773031 0.8384681719697415 8.186882890528393
795 2.859329059151282 3.943230219409391 2.905410928477501
2063 -1.2364411297903808 -3.2592660583569715 8.25709616964651
1606 -5.276440255390765 2.387347966543081 8.875269739720041
642 -2.070426929575725 0.6793050162247352 -2.478486066204023
34 -0.5509941285955002 -6.009604581646741 -3.21763627782284
364 -1.4150863676488858 -0.0463416194861118 -4.178694631006551
869 -4.400992664731407 2.460077076515705 2.3864414761413486
1837 -0.8182136086892764 -4.474655047266851 -2.9912985559712153
89 -2.7937459060342156 -2.225274772894427 1.0565449483691045
155 1.0128843262907152 4.322777856672335 2.852470231844585
1711 -3.0730397081060015 -4.6281877374299505 -2.193028668509835
1900 -4.2233997640425835 -0.4639610412450034 3.35870021902939
948 0.6199159454916767 -1.6963631181648207 -4.821126239289029
1506 -1.9863567926472838 1.2083798084179336 -3.2037373381277257
255 -0.025317709871410347 -3.8478828198384676 -8.32573063255646
1056 5.1294109185527885 0.9105544597586255 4.8985760279749
1636 -4.256818228365133 -1.0001737648424385 0.2733918393646841
989 -3.849523248540547 -2.992847749705234 1.5567279647678414
706 -2.2362746632120603 2.751099774001325 0.8361009550146286
1948 -2.2801830990088234 6.726850794550204 2.268391481445457
1475 -9.667556226378638 -1.1082951228360873 -2.8006367049849232
1040 1.7432041628502306 -4.037087738529244 -5.307596020207772
493 1.8053987268705074 1.8517777458200229 0.1461419497049108
931 -4.4128040124271415 -0.4348324490055902 2.139113662839604
867 -2.892870060244402 -3.564607449368571 1.445849626758639
981 12.018781705333808 -2.585491928112078 -4.32973066974425
292 -3.5907874779456033 2.5570679575104656 -5.929731091058425
163 -4.373554156325773 4.258011896794774 5.730401663292551
561 -1.7695034514372232 6.5350829569594735 -3.619974331262463
1990 -3.685535613941194 -0.367431736182887 2.4853526262778356
27 0.8825993109857928 -3.5891129780074076 -5.629725356637274
297 -6.01189417523816 3.9609622465056167 3.3504344182121994
891 0.7721839276762213 0.840944132497675 -3.142755998269116
1620 -2.558693014432185 1.3833499408966883 8.782383696371989
1120 -2.619225871710565 5.847160623590874 0.4272078634632235
341 7.0353729877966265 -4.199843375558346 -0.04500714984671907
596 1.5636754050964004 -2.551698189743759 0.5098612300552786
2111 -8.369655709792564 -0.6364450381860237 -10.438146621187595
1516 1.2503837502320831 -1.636193215362984 1.6627179434336545
228 1.8226753170516266 -7.1993152917207 -2.066153004203211
1165 -2.8058649771251125 1.182606173262206 -2.4805425985009832
1218 3.4458903287963936 -2.2430357162259122 -3.4092928866139625
1944 0.879681011519377 -2.5926161421004617 4.91535063498117
1182 0.4497661591207211 4.8179215597639535 11.343128838457414
315 2.970430046096572 -2.3823524212743052 -0.06444068654454661
750 -5.529780996121179 7.138259759820119 -1.94810527131563
1826 3.1746064222757417 -4.273024569328338 1.0148187802097022
789 4.822730051681028 -3.0426817153971215 -0.043301067518599363
1497 4.377724490830831 4.463208159450349 -4.924255304601616
73 -1.6538528239369201 -0.03832210823990496 4.87451610214544
522 9.345872291580262 -3.235013569595254 -11.758116166062802
1415 -3.37242457983997 -0.2959293019394684 2.802526138736013
2055 0.3219609622849109 1.9641423355628866 -0.4023156534215046
1799 -3.659493423374649 3.6292781114596155 1.7863590192407306
1728 -5.564105473000453 -3.5339251979793485 -3.583044660104643
197 4.367884086049619 1.174153708762155 -4.184253147732975
21 -3.5794508504708835 -5.292486901490629 3.9631919485183373
1924 -3.3088083733288185 3.2681308680022254 1.4312223292298787
1967 3.872016813839755 -11.869872381492796 1.021714296588157
731 2.472609119200901 3.993420085585071 -1.8780592754027172
254 -7.165404796711386 -2.4266328630814957 -2.2158850603673192
1446 -0.2459641598485145 2.158844830054656 -0.5974937506144491
1201 -0.7770938059212964 -6.518800559290185 -2.405276077078287
1726 0.6041306319746629 12.340738968578638 2.1041117237627858
800 3.4341889883087324 -1.513989235178999 -4.820765209538938
1388 7.258317890267708 6.752672883461352 3.2335164755559593
2100 -0.21870756298250846 3.2259662052139904 -4.628588111111109
1333 -1.2844021227893445 -3.1000406313011597 1.3844655052681987
794 -2.138873268690131 -6.93271214669929 -2.205130654340381
2105 -4.081222827490284 -0.25405839575529404 1.4781883307156485
917 -5.773306468507656 -4.230966299664082 0.6942241999281159
223 7.136526862221839 -0.23886112376334803 4.757804784725709
301 -0.44730197891312357 0.8954217806163947 3.8027790645963178
1518 3.624538068104308 -3.4108234424886077 -2.427725484882816
96 -5.54964169170324 3.66179238180415 -2.1688580379076883
1755 8.85926894603204 3.8488760976697383 4.275185359805999
1329 3.2625465337365966 3.5089303703539416 1.1796916872473355
1272 2.139469807143794 0.07260847392169302 3.982238197888165
1444 2.7827286381952314 -1.838836091689949 -0.24939023363527132
1429 -1.1857442265159321 -5.197995697399511 -8.10428298392291
1452 -2.921706817364551 -3.9038940016252983 -4.009894948809317
1427 4.147411819331342 -3.4743368777517585 5.428282713911381
257 -0.8038047375535454 -3.0112054200771157 -0.999883931039508
600 4.093994299027705 -0.9362541117259764 -0.256593259658659
1408 2.486462144882224 0.30151897833486185 -5.675527034771588
1740 6.4938438653388 -1.7746357350828377 -3.2473885138792897
910 -1.1752177657953151 -1.090793861025587 3.896180443182113
868 -1.4644711847087195 -3.431489870312336 1.8664510355403041
392 -4.567073633650097 6.159565581847122 5.500404215268982
194 2.121187368985604 4.764528964995971 2.718868665346808
2076 -2.884449711561343 2.1187519967282737 3.2656292044083948
309 4.2354874206638735 -0.2390705937625948 -5.298175625496589
1878 -0.8856835091581696 -4.4776874440081365 -0.7379263704816702
818 1.497883679602782 0.10645620213180663 -2.391675069454376
1685 -1.185640687334482 1.7007452941475523 0.5305978453026972
2140 3.615910383131851 1.5302354593232497 2.9398332300611245
354 2.958104815665587 2.18096345743698 -5.3501229094090235
299 -2.2452664966704057 3.3552121448395136 -2.385886823126246
2094 -0.1392127090240604 2.8978711564779 0.5552605355231939
216 2.265288150327643 -1.4005092237568366 -0.3878943234900627
1553 -2.153427933864753 9.040521353347753 -2.2445508368438194
1381 -3.5904394986942654 -3.664581371486148 -0.47009093048130723
899 0.5086178205802089 -2.5078656066536666 -0.44848648160642507
1420 -1.7907978138213054 -2.864540358237764 1.4523129029583433
559 -6.15817891453376 -0.47085047675297215 -0.2633375567459368
343 3.008117950113614 2.801000820416153 2.9265833461021877
157 3.339482549905108 2.383971901003092 0.2750294123274501
1569 -2.6982410934666423 3.7241550564703356 2.2360725753539374
812 -1.1758178142375484 -4.0031417891305745 1.7976713155755413
1166 2.3130881257709075 6.466165789285014 0.5113321607157676
2151 4.58850110181884 -2.994094386556271 -1.1841681491764886
342 -2.6665751228010035 7.222907698803193 -8.619421445158869
16 1.5786632526464983 -1.4739490969252025 -2.1975363913717576
1114 -0.8500184633768507 -1.376245498258758 -2.4714583875403546
1758 -0.9236149862871041 -0.5044647408320835 -5.250324394239521
1336 3.785173445931912 -1.1571737741038082 -4.022306382090934
567 -1.338150175890742 -0.8389354187719092 1.32361595360733
2062 4.331014908888948 4.504865211372159 -6.7585858683340225
1611 -6.383501847265204 7.101902462299 3.50633454971895
1598 -1.8957593822845826 1.2777682229704461 -4.51076650959634
1460 -2.4786915449723868 7.686838384878471 5.8372511507996245
1430 1.0621477473380645 2.849376298513542 -4.141499097697202
594 0.7955090991691838 -4.5047882660195135 2.3020003071463067
1626 -2.5999367505715942 -10.212369407218976 0.30433081760923525
1422 5.291288158605704 2.954092851737307 6.072002415035208
1222 -1.8417026216319876 -2.27216088746736 1.9982766291842595
663 1.7473954363536297 -1.215087878926272 0.6241118353692915
746 4.342972377321169 -0.8246657154737812 -5.2022393787635215
141 6.642759433573016 4.127708709936377 2.916335805570973
1521 -4.492847648563047 1.3112442988359174 1.5381172376673178
1806 3.827054254453153 3.3790127579079874 -1.04835353323776
1566 7.656282001724381 -4.094476452948682 3.992583637275359
1526 0.5142936461120421 6.003031761847025 -0.3570798073928277
1920 2.2548053124206096 -0.49980490315790244 1.4505134281881116
1372 0.6960757909503125 3.994893821088856 0.2639037444247554
667 9.872777148360344 1.4171167761178338 0.06820225220837114
2145 5.416256394304914 1.0857593009214377 -2.008925112589833
985 2.9633442319410954 1.5235454677714368 -2.1643839100697475
1115 4.8340699856987905 3.93068933566599 -2.8701380635065874
1803 -2.6200451059865952 1.3971927245407498 -1.438267632958695
414 2.980225860783322 2.7762089855370817 0.5214832045484283
407 -2.371093368082431 3.542564433435645 -3.1161019056518335
1214 2.3009173730230588 -2.3195177327831757 2.3485916337282156
670 3.5588787583653647 4.529315883032222 1.0328359549823816
1374 -12.084748039349071 -3.9718575412170285 -3.608918053082709
866 6.4575545659393185 -0.4193093517377951 -0.38422642550292035
1089 -1.4289515669598039 6.9373587398996435 1.0315797497390982
1524 -2.1482774936882687 -0.07898370813083164 0.9952757389556685
9 3.151914218799 -3.6564951344311907 4.010237030730647
1681 2.7285899099396045 0.2752418627153693 -2.322825715386911
644 -3.3099814903233575 -0.36601277036153423 7.908861748850932
399 -1.7031723512730015 -0.6645384235674706 2.9953873030801503
524 2.8012054553413144 -1.4581396188239384 0.23170438064740947
290 0.20314150191555072 1.1927069357963653 -1.1302114160931878
139 -6.046390658989057 2.1351036515610886 9.037974668710055
1337 0.27353662912202825 -4.522849274530469 -7.266366437756922
660 -0.6941722017032705 1.4419747769855862 -0.7928129653979246
481 1.0925298032711592 -0.006326561638988001 2.746898288404337
144 5.721327989702689 -5.348613533637674 -0.07281685619941887
77 4.365019427834996 3.691655975702942 -1.5330991378216074
503 1.9615761380282246 -0.9686762927558292 3.840902543916559
834 -3.753526560792869 -1.3789044148898433 -4.555872134050214
184 2.204744510309976 0.27318665719938706 1.4873829350396084
979 2.1291233481731386 -3.183813791096715 -5.083537867053318
1097 2.8335673972320508 -8.195365942229698 -1.5794210570876142
1133 3.9429123461019264 2.1371618804014707 5.769443555001334
1753 1.9937066756480037 1.0235373829391186 0.26661219883253845
785 -3.744054944836181 0.14151596873767833 1.473681967334048
52 3.1717993294149305 1.8998954675089097 -2.9074537254503134
1318 0.20308090948934351 1.8852055823187208 6.000262655032258
195 0.785001303435088 -3.089324125055879 -3.867074618016898
150 2.7479345935710744 6.176414329227202 1.9200408373025255
2116 -1.7551782131798965 0.8183485716660336 0.515568497176044
1243 -1.035398732223709 -0.505893511769384 5.632591956157636
2002 -1.0729773044931168 -1.6615063089499043 6.750784957188735
2087 4.579869391252527 7.696434091244917 -3.3209723629101555
147 -2.8957004679633815 -1.2417587143101143 -3.2762655232641156
912 4.661558717720593 0.2928411978957248 -2.531673069450116
630 1.4141923588494993 -1.6576452565910758 -2.9846618347379743
1649 4.511732345017428 -4.144071969330657 0.41493529769802723
807 -3.313414614197623 3.6597596656608054 2.293904149696336
1248 -2.5046919144655595 -6.572979740133685 0.5260784749039681
409 -3.0940089124201138 -2.8716776972817653 5.421703864001657
945 -3.5157336980924137 7.972599413268951 -2.396184878010239
1825 5.908353177875103 2.4779794085658704 -1.1761639221619855
423 1.0832944649441678 0.2717548193444136 3.696544709096325
552 5.189599645339965 4.328272116733649 3.186479791594668
1373 -5.273526008540514 -3.3236128828383773 1.335802075536255
1981 -1.3923304579386802 1.4857235873527934 -1.306843214056402
2123 0.3637896705176592 -3.5324816863835267 2.615949164874602
1757 -1.1154627729685491 -3.6234982505770255 2.376038820419241
806 -0.9855049195118392 3.0399485584875725 1.2837236211291783
1545 0.2088697334208149 -4.065957681687059 -2.0519351715275516
1104 -1.541695081080042 -3.350857207029626 0.7472091224972004
136 -1.2434453985591778 1.9869788752612791 -2.6672984148141814
1362 -2.631717129441902 6.2747187560300715 8.878703251616054
56 -0.6858674576697283 -1.3535975704079164 7.670980381404498
1061 1.8526844728702854 4.23248102168338 -0.015137022575959124
1229 -0.762706113609271 -0.21198056996979395 0.44607060633819234
950 1.1204930760113 1.373164719474839 -1.8096330161392133
751 5.531564432691083 -4.77755665130304 0.0853646926141472
112 4.855456163892492 1.3377871968831239 2.7071956265500714
954 -1.2452195818097986 2.8508133759262737 4.725787611462824
1555 6.473469964588925 5.22074317906571 1.4854903155832697
1861 2.3413046345846107 0.5295761232652907 0.19969324218024687
210 -7.173051901763634 2.516141627487471 3.1914857983839626
791 3.184217811026589 1.259671059394367 0.26195821850457296
1343 2.9368521300504744 2.657015500983191 -2.540257937925491
1730 -5.014467440199542 0.15342233635652155 -6.415073914818525
908 -8.872848794176546 -2.47938819252561 -0.44401638023259943
308 -2.558432132885147 -3.9204894923802054 0.7054932101030844
1432 -2.6618867640065926 -5.48380834046795 2.4323490115959103
1171 2.614091639702109 -2.2252490106925955 2.285486876803561
2046 1.9838915623689681 3.8835299322418937 4.170919957597418
466 1.0082068996461484 4.384189457687064 5.461806381029759
1254 -3.525126100967805 3.7989359159465472 -4.475721062727136
2005 -1.6407962224289632 -3.041150878293016 -0.13756264915724684
1244 -4.685016638958009 2.017309919967014 -1.8881464977021971
588 -5.266430441271446 -1.7991562866768205 2.1708924867674115
1009 -0.8810270176648267 -3.363172540200063 -0.6268193393120414
752 2.6067552620412853 -0.39845945671050254 12.883387382256428
1686 6.33748867407335 -5.0307107845854535 -5.73708796540681
1762 -3.2760153207845626 0.024925088080810932 -0.021507942919936924
759 0.7778851987157378 -3.2780158309333625 -1.6073624023092363
876 -2.4787385010233023 -5.628523864013817 -2.3016703534741856
1715 1.1707546561204145 -4.617940282805866 -6.358286285174217
578 2.564153980201251 1.7372016488203035 -0.12682632033041458
1877 -1.2319377811133698 1.8638488130720254 3.573605414319313
231 -0.014068633867789424 -2.8104702824770116 2.9731044051957585
907 5.409380645510643 -2.8337079691943297 -4.929561934004236
1502 0.5078244492374228 -0.7242820460156453 1.533505783164036
238 8.775132053515987 1.994424473327367 0.9533832838494564
76 -1.129287563663512 -1.0730056623938984 4.654053060236331
2147 0.035510063081956554 -4.911259838904787 -6.361112591846859
248 0.183361579790855 0.10794859805344507 1.2262863527948267
405 7.707679818379864 0.2862590433298369 -2.3477724206009727
852 -1.4985017269627932 -1.1916565009770994 -0.055060998836198846
123 -5.179584430859139 3.0606443271587502 -0.9631285159002659
927 2.418635600519131 4.291734897418272 -3.7458747303531448
1339 0.06937653073496802 -2.354710816123159 -3.3500638730221697
952 -3.246230430121791 1.3883722036629906 -1.3500031918223334
2155 -7.737377856451687 -2.0616125589902046 4.546747424667017
512 5.3774107533889275 1.1684614008627257 0.6827670463238557
1853 3.9624487817339555 1.4317577539200779 -0.3735047246433838
693 -3.719329318987439 0.6027635609526174 -4.737449126522404
208 5.659926266743962 1.8285721435063256 0.6083304997166141
539 -6.627178895821267 1.3407193600379945 -3.4292866557202895
187 -1.1117833857300239 -6.629233099974555 2.1572731093646498
1092 2.4360822942350184 1.3362974180562723 8.012627174941434
174 0.19006281859146537 0.34834762012431586 -5.0934030730002995
122 -4.96378513965504 -3.071131318388977 4.468447275010456
1033 2.36996905535079 5.422395283684777 1.2158972028693125
1897 3.192998385362704 -0.42201082833241593 1.452155965451704
1894 -5.136083445463307 -1.8818343423703137 -1.3599922190424125
1257 -3.1518483711180756 6.400601586979657 0.6318489221759093
1360 4.497439924295814 -3.9666734650485695 -0.17707615123738063
439 10.371035557724387 3.6122828399108395 -2.701118741077136
1658 -2.0230632096531145 -3.5788058217192487 0.18472127196346588
737 -0.3269267468203504 2.812382620199144 0.8754443372901899
1461 1.7736182306759296 2.994028027839936 -8.471365700999492
1289 2.69793717273812 1.0190685285970809 2.7759340948428886
72 -1.2279679157440255 -6.811993130087045 1.7159312047664872
724 -4.290193129906208 -3.1276252735245773 2.627820729850888
859 -5.984088490585187 -10.46772799914609 -2.250357721132496
1724 0.47764995125518755 -0.7394066096088862 0.6320165967752267
316 -4.829503401532503 2.2321092538877796 -3.6694922229364537
20 3.068938009085575 0.5308215931690344 -3.8887623513687983
734 2.8326832148458236 -1.1800350796788934 8.455482435067061
138 7.472102247553033 -6.582650845434598 -0.5797305079888303
226 1.5319699316465376 -1.3459093295167646 6.617134332003973
725 -0.915313041128099 -4.745370247296277 7.779102433389732
2102 3.0260075928736376 -2.7394551505803975 -0.7675986844625661
886 -3.5645176818998587 -8.502629789610266 -2.8752500476452227
267 0.8280674221080254 0.35893986889317575 2.555711465190301
838 3.0421315146268513 -3.4610889019384152 4.269012986823368
586 -3.629102107070763 -1.04545858873787 -7.5715569984593305
651 1.8005678895755526 -3.84796681033398 0.11964278074004368
903 -2.887797124732319 -1.3647540462055106 1.9214665221240341
413 -6.682534485736569 -2.0547040575445275 -4.6190627892263665
1158 -3.0103562675079236 -0.6368846987883375 1.4625330741158056
1233 4.325739280041836 -7.483217148299248 -3.125430961272534
1646 0.39319258415814695 -3.2193550127107984 -2.44083202610983
677 0.889878869470623 -3.366286772700893 -3.5407267937947635
967 3.019261116000969 -4.063104283524424 6.925093814478706
1957 0.11289957971319649 -0.1144518181109988 1.3192363636419076
1625 5.122917782786663 3.5881463686591064 -2.919018782123634
638 -2.1820926406134262 0.5905313141544294 0.09784559655957822
502 7.521683710675038 -0.5406177000728399 -2.479394481537347
1471 -3.917981572321784 1.082175505633696 5.4953808064139364
1919 -5.257030952970689 0.3576202672451075 3.1630235873230523
1407 1.794443219008432 -3.6373767458434307 -0.4832683728989423
320 3.115141590717063 -1.1683548866911686 1.7107061524970526
219 0.9501710290081244 5.473362907167664 -0.0670042991060083
1445 -4.254872242312186 -5.068586664369962 -2.9893159351770673
1787 0.48009998114240887 0.8028982739003125 -2.235095080640174
2160 2.3999478176904288 4.574118413714076 -2.233832442119354
1256 1.0348998632562578 -6.747766541770853 1.9566138050751407
1224 -0.2138036668012591 1.141760683336571 0.6761874280734057
1084 -2.935100239656126 3.516644197190113 2.98048100194963
476 9.032405947478527 4.648489861247644 -0.2654585599452625
1305 0.5026132982726582 -0.6599690998058155 11.06639183728452
233 -5.851072676364542 10.099657828718668 8.104710159287267
1774 -3.4596067708685725 -2.5114558988447095 -3.6074635392229135
2131 -3.3440744759376955 3.1649892527784558 0.8903035341089107
1563 1.0300181856991066 0.15175704178384797 1.7972798241926282
91 1.9178506367620693 -4.859361986678198 -8.844655655015373
1193 -1.7031637401422053 -6.753682803529537 -0.6428991628586974
2113 2.5264589200783227 -2.797440124925791 -5.080648911735478
153 -1.8044537532649119 -3.6775229443605024 -9.3770027345479
1490 0.6338309691293543 5.727084699609339 -3.358326149405394
720 0.9776026324869201 -4.843813261062185 -4.891735522946075
2047 2.4990943697651162 -1.4762154871566673 -0.8230295448534374
449 -0.0785654769358339 4.348255450838269 3.471309167875232
188 -2.9635161670841805 -2.5662503398531635 1.2913285558448442
507 0.746864305792152 1.0156912968298328 -4.560411928882845
1162 0.8477372080227307 8.258665691678532 1.9914144712004995
1690 -3.693124526567677 -4.631223815990911 0.9461393637675979
417 9.493896480431195 1.92993575213017 -1.0808974862720044
1899 1.6839915718686986 -0.37081360123890333 6.411270406412537
1567 1.1390719418880326 5.082562839726887 0.6338834908734463
2061 3.6417453838343374 3.7066429894437993 -1.2731332057751628
271 3.1400698269701697 -0.7359848103258199 -0.5205029468758733
4 -3.2040507448520126 -0.11247602306728219 4.660628534702876
1292 5.171050153416895 1.7814244604571539 0.09282620404859242
599 5.016092252169369 3.1412844486993494 0.7876392466673291
1863 3.6489376952849617 0.7687570150196302 -3.2495374948113858
1705 0.34665945892071776 -1.8113891455159767 1.7993402469434918
382 -0.7771762843757772 -2.3293161361382455 2.517514876935485
190 -1.3516459896735789 5.183219411993859 -3.767160179964335
1 -4.2036385022556235 0.46098118540674116 -0.5937146618639477
767 3.697607827854334 0.2356735888203498 0.6797945630360976
1263 -2.257912358365338 2.445799658970799 -0.8813992635242284
533 3.733124818812751 10.13814670386769 3.2926175306432484
1963 -3.330661166054968 -4.306541198992085 6.036231364661069
1352 2.5574694878025412 0.09931248683410682 7.311975370935166
121 -1.9129376792916244 -0.181915039097425 0.06645841073458376
30 4.461222225735602 -2.9251398021457575 5.929595271707813
2033 4.607772814844145 -1.2628812359286017 -2.6870894579207283
817 -2.8829577034201703 5.748136498237057 4.098221622869721
1100 -4.73634332059852 -2.6779995336471827 0.572210454665344
45 5.559573636353744 2.7000654045028982 0.22218850680351934
2021 -1.2969614872874187 -3.0308845629238164 2.6523796583863812
247 3.328048376759634 -2.0094496487374784 -5.7742918417757485
1570 -0.7660894610783745 -0.2673763400436379 4.402870658715544
763 -1.3549153561630958 0.23111140875744818 -1.442138482543685
1519 -2.1001230831716544 1.8714956972490757 -4.663295088152983
845 7.087926444936391 -3.850289346165248 1.6106673067939945
691 -2.707229498035976 -5.930102442932899 -4.338945236223612
327 -0.04289380676727532 5.302202021702154 2.1375599552739857
1383 6.32709608309194 6.342238592952373 2.6088534118776954
1773 -1.884342098333102 5.384022425724643 1.4575711067578088
792 2.9227353353569168 -4.841856396367466 -1.3137848896211184
1952 -2.0682595832294965 4.679673758806229 1.196917666639712
395 -0.9647978213618511 8.582283424752136 -3.883395919955194
1804 -1.9520116470629296 0.8038453974716503 -3.9184428704531116
1185 -5.1703063956595505 -0.35260863760288896 -3.206925445660666
352 2.2785149650075334 3.6744920864861785 0.571215063601611
1331 -0.8300258023045236 -0.6090778248122276 4.773308843713335
639 3.3323706445785772 -1.3170712934188284 6.92804213305221
205 -4.565083614165402 6.7376937717754855 1.4333871032330385
632 0.967441714849627 1.9905790379088526 1.9755006614669186
1368 -10.077138204528753 1.1065183747670084 -6.904292644330916
1933 -1.9451113261581736 -2.0045622186239833 -1.0630319556663566
261 -1.863119049256481 -8.072067892430145 0.11927519670197721
592 -2.2249767564927656 -3.0497231672048897 -3.6186309379657873
1042 0.5648119162633135 -1.0569779472442902 8.188756461108738
1807 -0.1687404314681249 2.844001480362645 -0.667693915885877
278 0.9159260623855238 0.5897457587113052 0.6015469710296747
728 2.1966484417874637 -5.18595555811826 4.028701703616341
1241 -6.154804564465199 -5.377128287540591 6.007577521466881
675 2.341544403030492 -0.08467884811876669 3.7808527255880593
1830 -2.901460424805628 -5.84622268436585 -1.2162370556733288
1575 3.2582618542648305 1.632934094188801 2.470592023686172
828 2.9990000195037334 -0.12675048270157674 -8.211118732841802
90 6.515358929555205 1.4354113814170428 -2.7711416023059092
1269 3.504744871077653 2.130285014943279 -1.4924529318954567
1183 -2.9878531626805573 1.6674179523851778 -6.519981540906606
462 4.790153257514407 6.6975627506708 0.6707114210808107
434 -4.143801065716828 -1.5548689349653653 -0.5135539529398492
564 0.5550603934572454 2.9633582882868117 3.3541613555042566
949 -1.2770931068568467 2.712761864027843 -0.1574055867127204
319 3.017285627398241 -1.4627443875119586 -3.429883515358577
551 2.5653643048852546 -1.782767536503501 -0.2006857479669699
1226 1.7384666780202798 0.5664199320029515 2.944111902651648
1451 5.564546064987801 2.6439270814063676 -2.6711187804920473
305 2.886272855515442 -5.372233501351016 4.769781749594258
1612 -3.6311051687186113 5.151933588044027 2.1065402081583855
1572 1.4889348394938613 -3.8616273717586065 1.5315256050183192
1261 1.8792812168003414 -0.959900766015897 -1.304746929010997
1279 -3.3397255608878136 1.182602766808313 0.8333344260260903
1514 -3.4603460662983663 -0.4664072722420537 -1.9336857406623726
1978 -2.235538069392692 1.0620704824531382 -0.7177283688048667
943 -1.2753403465362503 5.0629449737415975 2.6578201117092584
884 -0.19973491370083335 0.29931813671813695 -1.1704501355403765
67 -2.6996210811802306 0.7139384279671511 1.901506276004331
1076 1.8821171725787489 -2.736963414689477 -2.850641139065005
1511 2.770046433042576 3.9068609711860747 1.43426921804282
1732 2.014418661923881 3.4012716337312288 1.813246304267836
849 -4.577425317963832 1.5129117726423933 -2.2907863553504435
1794 -1.0305291866095398 -3.215614723282945 -1.2928431625738206
457 6.084491295717489 3.6708403510888936 0.4855575926796685
1790 5.378891158906342 -3.4584819389758024 2.518035991442564
761 2.1492421387542144 1.3419186431810117 3.743428157897302
1714 0.824431629501003 -4.143615395115625 -4.0453952777582325
159 2.2759505557936994 -0.3716645800120026 -1.0281438124016493
2079 -2.2315662295969902 4.16343408288816 -0.10278532889336107
259 -5.136414302195819 2.4334254451382735 -4.340603417315237
986 4.311730227725182 1.1597278660682138 -2.2904787330465726
1749 4.633169967254081 -2.3079885911216715 0.4375650134914737
815 3.370246627338674 0.19661031862166742 -6.446188861047747
1095 0.3367387756458122 2.60992265985505 5.622184045605428
1844 5.126468639676715 10.540368474026211 5.862611321740652
1997 -1.3984878065681918 -3.0331043865388887 0.1400211027300887
1039 -0.8085047492702965 0.64962479626551 5.084848510012657
1144 -0.3666570470548316 2.2749164840207916 -0.8814927512650125
415 -0.802007393959537 -7.225513292943982 4.0925557511001625
1964 3.8800050513666178 -2.5922682575308955 1.0832795485995013
2121 -7.223158013109262 -4.296988576528599 -0.4216155100578855
1172 -2.020107628378037 2.2410277735157664 -0.9864188340228708
1608 -3.1196282742826225 -4.101165971488703 1.0793381402728215
1107 0.5953408222555495 6.191147371809821 -3.6066087234421573
1051 1.634517114277409 -7.7276393996288215 0.5274380977115763
500 3.1337344679864922 -8.072831657523034 -3.3651506955427752
1027 -0.7872096136881334 -3.602782237533228 -4.6303746209304295
649 1.8224895455718486 1.6641558592582868 -2.293176899759007
222 -7.4293741943413085 -2.72998881959434 3.2466928423998307
69 -6.140209295810542 -2.8454842893610985 -1.1844476184311816
517 -1.116626752267755 -0.804437129544314 1.1171795352632043
1995 -2.654047064113578 -2.4949290104400466 2.394748685907396
1271 -4.6524020673363475 1.622552719174141 -1.6954298401340016
450 -4.40973249146264 2.743737600280349 4.714603013501589
577 -2.2950205947209006 -1.2884225910189717 1.705310628752622
348 4.071738240409574 -1.007244055011842 -0.13241945326322654
282 2.373254385326469 -7.995671806926563 -4.948580077693281
1326 -1.6555319279440008 4.078466537796218 -2.0743451337759913
116 -0.7925998808103522 -0.9698906571118044 8.64173236356839
1925 -5.482014428233645 3.422497911636293 -5.664431465095016
253 -0.7782990711798179 -0.11703629659787396 -4.735104486160733
1327 4.137143523898818 2.312480472817774 4.182884499729891
306 -0.2846335646432733 -0.3434052923103176 11.40755778159427
2066 -3.40889588488821 0.8342812698668727 -2.649606573704775
65 -3.696212837736355 -4.014851486142025 -4.677430758962459
1124 -2.3162351404930344 3.6913920595675576 -2.7327449257893406
1433 5.898914447469116 2.318553834739183 3.411311762177009
1852 0.8032565112691732 3.3674938666349816 -2.303614097472211
88 -1.4148646481423683 3.601770526503851 -2.458954043123371
403 -2.6261983237473228 -0.4344910365702897 -2.314410721282271
1150 -0.07174316815408091 0.25462566716838425 -0.04950287569504593
1131 -2.82464491349635 1.4407747997615408 -0.3273219115540736
1258 0.19433010106516543 3.0182303150774428 -2.6735140362690344
1035 -3.492651076739102 4.194271753569659 4.5876378513205776
283 -8.070620802589556 -2.696390765344638 -10.363733086940211
895 5.90504770170657 -2.7733680217722703 -1.6109801057320994
518 1.5244628615054538 -0.05400820572461508 1.5002971615661895
2070 -2.8954037103510206 -1.9877527203203258 -3.024406680644524
1161 -4.047331551755786 3.7193381418633624 5.0139779032193195
419 2.2491695649722523 0.12454219289114722 0.5729583548267706
1684 3.427918877378258 0.18890032188160863 -1.7304957298499009
1980 2.0684405221415534 -4.193701696385517 -5.319766769185576
1645 -0.2699766115353138 6.719555558459342 -4.628368046658411
929 -0.028180542580212773 2.385066975386062 -4.568136811069131
1426 2.213547836933235 5.238295134819199 4.831361727355141
1478 -1.0435194920934618 -4.587026874890837 1.0229123841667316
1663 -7.247693142299313 -0.6011566837169592 -0.8771450688091432
1783 6.160424214315525 -6.670301045291796 -1.8405016005711925
379 8.83539401180644 -1.0796480385419602 -3.6572009662895986
605 -1.430544096554282 1.0349382222075254 2.700311053510007
1370 -2.0327480448543658 2.392970268519507 1.3056685021525172
1223 -0.7726642805370676 5.889036117771676 10.157391618089816
169 -0.22416869219545882 -0.20333778762930463 2.6221194137177775
166 -2.8063847229026373 -4.239481369995613 -1.782481982164695
386 6.256366222532376 -2.7724726863378644 -0.7375998098704352
498 -2.949330461981905 -5.004081461514572 -0.578883520084229
1178 0.17606812952029954 -7.903436972578252 2.825576884460146
1074 10.804999310250674 -0.2515246032563573 1.375018308652888
2119 -7.563032845663507 3.219180840792002 -0.7817726233485848
2008 -4.690257080110692 -2.5997367770064908 0.2756930422771205
773 4.3705709163446596 6.372749644932698 2.454152841181622
2086 -2.1178742542046263 4.257445386569234 7.988838643049675
22 0.6289625837462248 8.790551608948297 -2.244568494596525
170 0.6491968860043866 -0.9635550537426685 -1.6159163364723212
771 0.5233431843727221 -0.25846020573654577 1.019492627260905
1987 8.115345020219086 1.549069437941749 -1.9478320937988691
310 4.962846376253363 -5.235651934130685 0.8813101210516635
1119 -5.225492758854068 -1.4074971140471946 2.339927800742806
1536 0.08769434949099221 -1.513173699011696 -0.6203059616931346
1455 -0.6445361390297862 4.291219825405626 -2.7729944918000538
201 4.398881117277113 -2.1086670992729974 -2.5930181608639145
2072 -2.2864249592257653 -2.1670102374206577 -5.804952988889948
186 5.3957035748680635 -5.571007021641379 -1.356477647718725
1210 4.177705158122557 -1.1646848308284523 2.3509002390256994
1203 -0.4050328831823891 -1.4603601688746868 0.18627964024911048
1196 -1.0227738843675052 -2.9372709616957877 4.917746093735675
880 0.16044156337068294 -0.09112068399782726 5.501392620275599
947 3.2674488415157774 -1.3747055692734589 -1.7886160125877744
381 3.2920311584912825 5.843147319395178 -0.9649607559385779
1345 -4.841835885149984 3.5916449329777067 -7.187486849138986
2084 -3.506282339808528 1.1902202050850763 4.65835997820254
448 -7.6534888781870425 1.511320020553746 7.775394864208516
635 -2.944781959769414 5.963554718486767 0.5607537278092305
486 -1.9956504751184887 3.8057521137227504 -5.038579016092577
143 -1.7868103315187343 -0.6864507069128765 9.239121359471227
930 4.5381668731624245 1.3579634077966058 -0.8194606131298849
1996 -3.025394273937279 3.00614600114829 0.8237964698759799
769 0.37180950033558796 -0.7023175779914268 0.9401641230448373
1363 0.06327754924337502 -1.4005234883769062 -0.8119722146000588
1887 1.52992612143488 0.6293137843270111 -2.9666769518800624
1307 4.328613205421789 2.6570794531739987 1.4227743553371768
1875 -2.2376241161224475 -2.291086349855258 3.882869929381534
631 3.6043830359085183 1.3343381497453926 6.741184485144625
148 0.6788653545526127 0.07557379784274337 -2.1673206554934845
1221 2.154884377723955 -2.737391681612712 9.895992036251673
1236 -3.7235340684119165 -1.9902367589403047 -0.4219844947780297
2089 3.8925741625741974 -4.48585784995127 -3.602886946346932
334 5.765501607295574 -4.229137437538282 -0.34739958662863707
1501 2.703027601991979 -3.7678905880665683 -0.2631181945070507
1727 -0.5946000084423333 2.0476382392953703 4.850261349048972
760 -4.30306521959369 3.2642113852153662 0.09487634138997919
723 -7.585149511557785 -3.3993042368092943 -4.873310262422367
1276 -2.8826364922769017 0.8815404742757538 -1.4245998744913173
1821 0.6180654672313739 -2.6638122684525216 6.007538533655058
984 1.331045186530926 -1.0232980007602712 -4.285708447174028
1316 9.069741686934899 1.199874665173313 3.932597140491825
2117 -2.161088740840597 -2.061477830432178 -3.0472970270171684
579 -0.5100056051953812 -0.8124560293993396 2.7495570898600117
933 -0.5556885302081631 0.914647411140505 4.754634425814133
1635 -1.1600800529840223 0.9850232968650271 -0.2902850142790983
556 5.253719796330887 1.8732602446654762 3.0528550838400617
864 2.8405731283941416 9.100750534387178 -5.662904953415802
1314 -3.4504038342324734 -1.2036528975843352 -7.806388957086348
1364 -0.5926594491137696 -3.4814567229295363 2.360590119661668
1717 2.1790332809620065 1.2982226627127385 -6.258778330025388
1941 -4.7688176554094985 -2.12904246898893 -0.3899694647327412
135 1.8467452632757348 5.715490071427089 5.088862857170045
1014 -0.7040425669154582 -4.7908635657298655 2.9555022308015664
1532 6.739758912620869 6.951121678033722 5.5452832814159505
488 1.1461150786979524 -1.378834080139506 0.553146471643404
2138 -2.4710010471797945 2.1366059133223922 0.062166137824866956
946 -3.650075881587543 1.728669262821387 -3.810570500089768
1624 -0.8749463608527769 -1.095242862001498 6.44975179424948
355 -3.056755534229718 -0.5469783974494912 1.6279145883314101
591 0.30238784474074226 -4.2266604373443135 2.4478156304731806
1841 5.135073856087118 10.85448549667039 -2.535509184923361
1462 -5.605741589800567 -4.127329559302911 -2.4320334896679925
1751 -1.8728125321395823 -7.793909986279118 -0.23521110884111554
1437 4.613367302944154 -0.851849609792523 7.98323308606457
3 0.8555274523666144 -3.779429908475605 1.611344328626765
780 -0.8558148749392198 6.256661871872195 0.13499307471996982
892 -5.721005179082756 1.8326902032473789 0.4640391041184334
2022 -0.6906412853544368 3.789489122747389 -1.2264735416269759
28 2.030042552167281 -4.017032428764076 3.1990176950329867
619 -2.3297313414149046 5.327341383680095 -0.5027828494354655
1127 -3.00537655977756 1.9454689413118809 1.6881502535589807
33 -2.0096842697212653 2.8780311246078223 -2.7915665166541475
1164 0.1935934424825278 -5.007185795578167 -6.842836292748727
19 -5.993995651751308 4.50219818947612 -6.871635691381346
277 4.906899293379238 3.514638595139934 0.21532633762966671
699 3.073613732760184 2.814300308532853 0.5036903436186522
1003 -5.611074339016786 -3.337539276934402 -2.189131978366406
1301 2.545781347972147 3.523969728239034 -1.95964788723805
1538 5.570224424402029 -1.8793576185197336 0.7842088142878247
2146 1.1457523456738068 5.62277168723098 2.3689329716979035
808 -0.5515725488544928 1.4068265357739809 -4.4277230491790265
1313 6.29695880275327 -3.588771146802891 6.52993616360609
1836 4.002265335678331 -6.467052830805258 -7.566242419510949
408 2.5858096830387614 4.662510909691569 2.1946518842250806
71 0.7872475912039193 -2.785252172486728 3.2936458489168565
281 1.4280523671624477 -2.1891422480221108 -0.7458153280495406
1393 -1.2446648263818496 -6.61589326839586 4.141887158947528
527 -2.3386535912444644 -8.646058458559787 -0.010886829466395681
376 -1.5915608454937527 -0.5667857176802983 4.198478867685571
1699 -2.2090287563233693 2.460279347822325 2.5830048307047067
2044 3.6982622725794125 1.6446912653642027 4.421762549545252
1793 -1.685823795664028 -5.057044707242753 2.064334100581928
1835 2.9330155010977443 -6.891266773182096 1.409795315333431
196 -3.782795843123802 3.385520201710001 -2.8844472283135634
550 -2.4653852342334246 -4.184877412546391 3.9411211528747776
942 7.604948332831014 2.1960775197621993 -2.1125391664393667
62 0.2490045717470647 -2.731780577920041 -5.834706314935552
1442 0.45224762686562126 -0.9193236426918804 -4.281398581105229
1412 7.0441973521142485 0.8143152096932073 3.990890081708304
851 -7.435123803817174 7.779535808504292 -4.243825622430924
1167 0.8753303312905719 0.19025275214400703 1.133515155768679
816 3.1505094965317246 -2.2364658581275005 2.6855655537743734
887 0.6798274927327685 -0.19291853161869177 3.795807891079883
479 0.413575037998085 -4.947475068597195 3.774065468067982
1829 3.7892577122748596 4.203508588973183 -3.1232987913346224
218 -0.08918610960027933 -4.765371184852659 -6.614789566371855
2016 0.13282517723165937 -3.815338145861917 4.93251847950319
1523 -5.505695906900008 4.151501730167654 5.933452574713995
2158 6.523742406141397 5.458962691817381 -5.190314789572635
1293 -2.385844525675861 0.02854528683597064 6.881436952267124
1489 3.844974400609948 2.3626003217214055 -3.7349086000794323
460 -4.6712974980098885 -0.22433456708591543 4.4941586065063825
1342 1.8512283436969614 1.4585969133383185 0.8320957958788456
1053 -8.434278674125101 -3.3928601739009374 2.0667705037781907
263 -9.956865642238155 4.101709009857733 7.432056332832315
729 -6.9527399560474015 3.168577547022723 4.12285365193933
865 -0.7607117818304555 -1.5967187737119182 -3.8341339548143143
1638 1.316640958133174 -4.39675748389607 2.568445673843132
461 4.731384828460919 4.544928123961426 -1.0793061274892533
1481 -1.9304753149025153 -1.5373251673080202 1.4258928980236292
687 1.5784293923389165 1.064848562852582 1.4285027674699826
499 8.890156336916643 1.272417623393906 -3.953862806533752
1346 3.915814927296509 -0.12309416196470685 0.528966263619917
321 -0.4028931523224932 -0.5406267455848319 0.23533783549482054
829 0.5001640221881808 0.9000357268877559 1.35007979210307
2091 2.152290153652002 -4.785753654588517 -0.27678841202789656
2036 0.294537268727263 5.114842881263113 1.870360566401506
1533 -1.9865440267107106 -0.8688368987532956 5.116430704457142
1731 -0.4179683011351003 -1.1739777697300338 -5.138903426646859
978 1.6540082564517784 3.0162413927258775 2.0160167959578223
565 -4.858750946692431 7.544211796306477 3.1164228925327944
535 7.552539139399832 12.120060002776047 -4.4338199155525375
340 1.1586606508065596 -5.2826399251415 2.788429778775751
1691 -3.9598308200229173 -0.4496959543622353 2.0427401728791184
915 2.0230795384935054 2.5211173202956036 4.338375140944349
690 -2.250066365834848 7.607000501305446 -5.0521423796049305
1589 3.018107645733587 -5.780666632500956 6.211714205309754
1413 -2.015166680117156 2.161950464023015 -0.6873233865875246
1721 1.4295171679460559 3.406426769961343 -1.32533165024224
710 2.0467420585860574 0.12494360559814925 1.135924099467433
103 1.8485626661666874 3.0846640499478157 3.6564661759944364
548 1.0837985144110691 4.725032353521693 -5.734437826419536
489 0.411005551421784 -1.4136606308766804 2.495757318112239
388 -5.557780621129494 -5.08707623029805 -3.9269182698885747
1678 2.6810276057555744 5.865072496571314 -3.4018106847261382
733 1.0671086142985111 -1.460015177594021 -1.7235716962084422
883 0.01740917700969789 -0.34230479834969163 1.2387569954316768
1664 8.401749443180005 1.2092967723238162 3.4198809601973323
107 0.2055136787737319 -12.587103792345962 3.123394724109209
1093 -1.2269833309837421 1.6400953867702197 -1.100221554011163
969 4.303607950773046 4.858607863338846 4.061744354963033
595 1.784216314646545 -2.6827996258999294 1.9271422104175862
608 -0.5727905866792569 -1.178231294771513 4.72035318192799
436 5.294559949017758 1.0623958049189468 -1.5475048708075325
1932 0.8521355628492367 2.3822227323448053 3.554734524885634
2141 -5.159071692220735 1.5877403294528576 2.0461412333525075
1031 -4.641707989038597 -5.628302331083918 -0.3567577974105456
272 2.3124829089109014 -1.2695573248668877 3.1772555026215348
162 4.39785760809995 5.745104256308715 -5.052686239701706
433 -0.8661801611767207 -2.4378116196495614 0.7067659564442236
1483 -2.4822457615946436 -2.999405377913805 2.353105475738082
1375 3.184445629733327 0.3895163685657232 -2.978392667735613
1895 -5.075530356933753 -0.29607570502534825 -1.666286475273828
1954 3.2776588395700563 -0.7829651787901385 -2.9303627633577682
544 -3.4926339022845583 0.26624030885448735 -2.468397296252438
1756 -6.43929489887759 -0.732602062685336 2.0266926280716726
298 -1.3873638640347945 -5.472426130266016 -4.757135398738632
1067 7.656056602623437 -6.181705617507287 -8.29566082687442
1216 2.655160037505744 -4.996014881765498 0.7924061481799236
1596 -0.3811072104442896 2.363037205316991 3.721759909149374
1486 -5.035905774229367 -8.828070492990488 -0.8239781527726129
2083 1.588912787915028 9.3299311977913 3.9583857332904127
435 -3.3399440992019436 3.335165566114125 6.671183576208308
1366 -1.7372145454804042 -10.17083825457459 4.250972306230305
331 -0.026628363871308337 -5.486712099427284 2.0082797757235604
904 1.3816847750887171 -2.7399211888026564 -2.646098429800492
368 4.159815460274602 -1.2428730496416853 -0.2775760260746586
607 5.962897537737653 1.920603402878734 -3.263374174602231
1881 -1.0048094234493596 1.0056505469818784 -3.6456788286106203
1761 -11.01292283688481 5.716362367998299 -3.2417344755585256
1417 -2.0966047013923603 0.6648585043179759 2.1905653097039997
1163 -1.5623009311563159 -0.49993947125270366 1.011015040455336
400 -0.8806068993613247 4.699834447807614 3.9688459657493382
1927 0.9814261813633629 3.8073449990243557 1.9542844724976103
555 0.376580388969915 -4.0821467585658295 3.1821979604511994
1675 -2.3311791662283414 -0.19652917491768232 1.0613842089744978
2065 0.7480866602091059 -3.620061371389091 -0.6109425123198433
111 -3.3397878451260032 2.394653456000736 -0.7765734242903067
234 3.6061496971569467 2.227732180410138 -0.988565069911996
2048 -5.856494983921376 -3.760166637726605 -3.631365237171219
1530 0.24816505145695947 -5.195157450497173 -5.79924086661157
443 1.0648254438653955 2.6146478063856815 10.072042265690326
1312 2.7667966777005915 3.109622781114046 1.5361518795834102
1332 -3.052092421726722 -4.870295575246094 2.963928664965626
1689 -1.3989655497464122 -1.352846756107505 2.4752636902771927
700 0.886254717019754 0.27244508439205967 -1.4529442283692728
173 -4.004458830657241 1.6165008611283418 0.6994707625043489
909 -2.336706428421736 -4.699355295371751 -0.0668497884853779
655 -0.8477388310901193 1.1632244701301577 2.171848389152463
300 1.4344104578972545 -6.148472894022281 -10.861195495267067
1480 -2.407477231084318 -4.097381435240432 -1.4477679120736795
801 6.693372157724806 -3.9357460251765595 0.4816988449348577
2110 0.07348259630835523 -7.118956087888757 1.5118259558969833
2095 -0.31167903946229014 -2.3407583152753477 3.835270594765947
1792 -1.8093076969324766 0.5796520478508147 2.3556094220202275
1893 -4.68142425488294 10.544833716565412 -1.4527050303194757
418 -1.244366660126793 0.6617055779473677 -0.833025906079353
1823 4.003094573855894 -6.574144745587895 2.124050288006069
1780 1.3466872443013862 -0.351656751035877 -6.740069612679665
784 -0.8790726403505997 -0.07630016817655604 -1.9437521018737887
585 5.364556654743661 1.9100159908099352 -3.059124658902357
1351 0.11140668562973682 1.9916087289122133 6.950479771742751
1977 3.087200075040885 -0.2851334046211042 -0.9576802190885105
901 -3.3515578319330412 0.37587876484682087 -1.720633992055057
671 -1.5459844755280903 8.572873013314348 5.1163372316798235
584 -7.754270928544853 -4.150481110449952 -2.6418698491842534
940 2.743334569078703 -0.5909988463472623 0.7366193503253763
1041 2.606629110852352 -7.937648614292725 1.2393759093888899
1347 -0.06553951222636767 -3.150706237217102 -6.6653921689011595
330 1.4875934479334532 0.12057479005187341 -3.077903101998076
1290 -0.6844933890028301 1.2989463050148236 1.0210932715135472
469 2.1097338034384063 -0.028613724229978113 -1.014655431758364
606 -0.22650144988828247 -1.8782570672564007 -4.918466091305483
569 2.1635619319830126 0.5173326280598756 -2.7902029913620523
398 -0.013557460429680927 0.09764931352815573 -3.2218781803198273
850 1.1324755575356231 -3.558570411543381 -9.333287823705076
1550 -0.7625650810423125 -4.004735131080786 -6.150025207849609
1007 0.04105019038246245 -6.55255017018827 -0.18774198844693082
709 -0.3227668873638371 -1.8895182765435583 -1.4529401483847177
774 3.2006246652943404 -5.390272919982526 2.392249846660821
467 13.060561999291984 -13.79300246581581 -1.1533306680789237
1603 -2.2440629370458685 1.2150317744423171 3.1141267116518936
490 -2.460732893870942 4.77686177011415 -3.3416150523736796
1669 -2.258324566865221 6.848339046460614 1.0670324205072517
1582 5.073323669455233 -1.3923224784600103 -0.4800323017052787
941 -1.10842347996337 1.1115370193594636 -6.602327228377614
2114 -1.2149984417341155 2.701526894371047 -4.373599154818878
1423 0.8699630465343667 6.6365219445234995 -5.829242307993291
1000 -1.2151948220406519 1.375270081069345 -0.982644189478407
2130 7.3054575732228155 1.7669678078311506 4.8949835443345435
2144 0.6818519532499042 -5.183470536040835 -2.4098750635438684
1508 -1.1626183708530538 1.9294475581304387 -5.338909521341847
2017 1.7711031126673886 3.804677224683044 0.6602071942348955
2108 -9.11316056825627 5.4082704662442405 -3.993921470300515
6 3.4985759525697917 -10.860949196805201 -0.4933840918228203
740 0.46646574568300914 0.6505959180853169 -1.3902068518525172
482 -6.234587984330215 -2.8975281204402705 0.9749794181849849
1353 -0.24725100387864407 0.4028372892789538 5.898077703035555
130 -0.5417314651513596 -1.6516690966402945 4.079280968293916
167 -4.365780731595229 1.5969558692885575 6.703113619658579
2103 -3.832631383448217 2.2442653482357353 -0.7259837443721742
2098 -0.12196765582173885 -2.791650678705776 -3.100366439707607
1071 1.150765380822419 -0.5242794479575122 -3.5411032633005246
1474 0.3689334643163465 -4.350211637810796 7.928867449003557
1441 -4.414926943750442 0.8173233361718367 -0.9920087289338353
944 -0.672238417749975 -3.486254886323775 -4.22730878022335
717 5.130003905853936 -7.198171713206074 -2.2236660294332675
447 -1.8393086258216604 -2.3760397452695368 1.649601995256155
1099 -0.2669665500832851 -3.5727862789896614 -1.2450931048413787
224 0.26676633286402407 2.55043385731327 -3.0267753125607197
961 -4.374851313126201 -0.07032386051269021 -4.546309801230371
473 0.9597267687819292 -3.7649313564890057 -6.374458677020988
2015 -0.14262353012965387 -4.0653791080473765 0.5969517391503251
1554 1.332156379838145 -6.813072615787626 -2.476150044097446
236 4.596879131343537 -6.679258364345664 -0.05818600884992723
1106 -1.2401699562460577 3.210426902857944 -1.947282645819867
86 5.140119674543036 -1.305880649788161 2.3687698151493968
1847 -1.5996378180563864 -5.2718897088330525 -3.264593815810601
1515 -0.8428513278747048 -3.206551194681137 0.9048912135025767
1434 -1.4951354819406835 -5.012790348445617 1.9605562255558266
1341 0.8747902078598846 3.817320317001909 -7.930070593121404
1775 -8.94018283357683 6.091903837584032 -5.996962966544563
1983 2.5412884421929127 -1.9805374020002695 3.0164705014305455
911 1.0383282959598557 -7.00603842304851 -2.5167661531742356
1285 1.6265953012295864 -0.19087521689688658 -1.8543973602950212
1781 -0.7143189894392323 2.4500124253252205 3.4695533924349125
1716 4.532546660732491 -5.813566864571553 -0.14279534788814888
5 7.098784134377296 1.0844757596390397 -0.38619556250990456
1052 -0.318296433285846 1.2170704307291762 -4.034318040848603
770 2.103069855455464 3.7839528416961574 5.834227929343797
2059 -7.815745866716822 4.55622464964848 -0.8552546588142915
938 -2.7668358668222868 3.18780169781858 3.1579707415308884
1602 -4.036144537066191 0.8020585871510206 2.2313081555862704
51 2.4616648931205938 -2.0221377564211944 -3.316831413570335
154 6.830209785785387 4.9133872044769324 -0.8095111545888283
288 5.378953202827943 -2.7631194289695644 -0.9657160446419861
520 3.9810446742155614 1.12893411947255 -0.5337287853484469
1722 -2.9519348199083217 -0.8849921143367412 1.2276002299515199
1102 0.7784235931977346 3.2512748153072026 -1.0141244011685213
350 0.5970571110337712 -4.41817067477663 -0.0739195716396504
483 0.030568722328467197 -0.6775364604369439 -2.11853407996438
1733 -2.7397097918902387 -0.09202827901621435 2.0172556822757213
614 0.5231409855788508 2.5886111671186476 2.5866382930903464
1917 2.378687228899043 -4.424195170593932 4.066195201338968
756 -1.4359587178247988 -0.09104639844558503 -0.5246411017253049
1334 -3.834038000218259 -2.0414527747606224 2.3281275440916085
1209 2.3578803210504238 6.695158416446572 3.041921089063762
458 -2.5302105972362137 5.163418815874909 4.610062633739272
1811 0.9317372246050276 1.6544588087617185 2.8413866202797755
648 0.525399403690515 -0.9946051973277361 3.4552444583087074
1188 2.009907398195914 1.7260870996439515 -3.0435874660543307
1840 -4.0988368261593555 0.6525083346401772 -4.257062834259616
1217 -0.545017442299922 2.458113703243213 2.221785647820608
1601 0.34343138902182785 1.053104844829528 0.9147597079792598
1529 6.818971010350246 5.848653819808353 5.281743319091896
1670 4.643968961120319 -1.697650941981971 0.2825614823157824
2013 9.866892116898923 7.072229604304069 -5.605087773629146
521 3.0701067163846347 -3.315538888899107 1.2423191272584286
758 0.624532443566018 -4.017110767266402 2.9598210095442243
571 -0.8217657917910802 0.3033624206810821 0.41868771215601236
1242 0.4387117395318033 1.0929289024914477 6.796054284924013
1324 -0.5724553482317027 2.2814015411128032 -1.1307473724895112
1470 -6.500646060373534 -5.29228217118852 -4.565036108450126
814 4.350445466366091 -6.176323217661369 0.19825374073852678
1296 -5.51824495108214 -3.2239308631115273 3.921644300633414
1548 -1.9317039122620645 2.867288362072638 -7.749662930358821
472 2.9615649453438126 2.6969000682052164 -2.6103377257633116
109 -3.963361867335142 5.436213732262648 0.32091274029844885
1286 2.198228706611986 5.471557614733874 -1.7727653054984276
1629 -2.45248055611902 -7.08431460741393 2.4884206749074087
1064 2.5752050235219683 0.18452574666596502 2.9042344398847675
654 5.465962838362479 4.179660909296405 3.4945480918277836
1080 3.8803188759111453 5.144255797538005 3.8585081747548466
888 -3.7688917877146393 -2.447745294808889 1.4097736104209246
1876 -2.851514534141822 -2.9460000310681367 2.6051493963919308
252 4.335771804058848 -0.3146566152421652 5.252010607891216
1467 -1.2439104178651552 0.4415335156255477 -0.09955869099352106
580 6.162322458978527 -1.4589660111058522 4.371798657351998
646 4.253320912904411 -2.1708780779530743 -5.860136613245232
378 -9.79192227668246 0.16609651881496 -3.601444058126196
590 -0.7520230113093863 2.459332255215825 1.5591505229800766
1278 -2.1544865593430913 2.874014761201903 0.3154799414935545
1642 2.765102635657321 -2.9264862315598177 -0.16679686359873275
1994 1.3812028017349927 -1.7311431982095198 1.6975942351024147
337 1.1271712850413758 2.659986982338144 -1.799231585509127
1148 -6.05543636327757 -2.0310964822822073 -6.687309418532822
1389 0.21037421375095675 -2.5382012232943905 -1.5014253922478
523 -4.167590046549422 1.3039079816197805 3.569970439097403
506 -5.141066671200625 3.602881394979611 -1.8208857109701
1240 1.9430434378100283 -1.3295813414192088 1.1345000273996777
1037 -0.13978126615803455 4.929707511448522 -0.6103958204112601
1101 2.3989240346211638 4.761881690261393 -0.9124582608727178
576 -1.6968314293471445 3.9029477238410397 -7.225458322269543
824 2.34368006803471 2.3360720352449404 -4.742020163625021
665 1.7782913377039606 0.11956591035364532 5.683548612323828
998 0.4730599230825823 4.003572231958534 -2.784104249264982
2118 5.807340473246264 1.9868077478979378 -5.546293290457362
24 3.3987713285275194 -2.2486854329805617 3.8793875129277153
2115 -0.515062243353215 -4.345121093275923 -1.5940087288159757
1029 0.7198760933107369 1.658177730630863 5.393946362408453
1764 2.7631245986658093 -0.5752979634988162 -11.41729914974782
906 1.9427694862947769 8.217914231513772 -2.906949576764324
1695 2.716464577902255 3.2810998631132504 -1.1321311885622054
1173 3.969948515701218 -0.3449698873056838 -4.181247603818858
999 -2.695526903995944 -1.5294473133439135 -1.3589054333594661
1130 0.1842999710854505 3.5204406741499437 1.9176935574716079
1662 0.20002741748233496 0.5646166056019143 0.6767846389290515
402 0.7825235213737204 -6.4702315416748695 1.6098276155220776
158 -3.4651121645925933 -0.7500116898589155 -0.46030171716196766
357 2.0541357237107754 4.218447748152095 6.02700508974305
156 -1.1861702760325235 -3.7832374952209853 3.502323607225146
1610 0.001848745957579317 -1.1862411794645624 6.16577975039667
647 1.5638559881549976 4.969867844319181 -2.7865935735907814
1299 2.291524888054096 6.040262749144957 -1.3348521429008753
1989 -0.18958616880684556 1.7443257482188896 -2.337359343033202
988 -2.773027929960289 -1.2282457486769136 0.9184092239687838
363 4.988475560993356 1.704319830665555 2.874170043183492
1416 -7.821294138470991 6.62570092547937 4.401208272932215
918 1.8789506886559146 -5.304342058646837 6.796859197681794
698 1.356017413480511 -0.9950424988987054 1.731467446994241
1542 8.334409396270573 -4.330627902699841 -1.6814617910389793
1701 -4.94996114541094 -2.861717410508419 -1.710208634755938
890 -0.4144028962154316 0.9620787609192749 -8.095321720302964
102 7.951008805995208 3.3017468649455917 6.268551259948733
168 2.2365068206084437 -3.5157069741418656 -0.6938779925827558
2020 0.4106007818645539 -2.3680133348245493 3.3657933500807924
491 -2.2609398289782723 -3.0146186754778874 -1.7189150666956372
2010 7.250595505016932 -2.136671615828566 1.4322116974790366
477 -3.577328661895355 -4.774022441000674 -4.30954892646097
64 0.7764551643611507 -0.2940903907627109 -3.4997167197627523
264 -1.3626723030298982 0.49221660611225876 3.2944319637660016
960 4.972204759746885 -3.403048705582273 -0.59789597851108
1414 -2.3955157963476528 2.9204695332580224 -1.454695693294584
531 1.668697907902309 -2.614366772149165 2.3210625219869825
1320 -2.388066266687878 -0.41323043526185615 2.0112723126395955
1109 1.5015129676194867 -3.0139747298512427 1.604709291474222
837 0.453977274428254 0.4126210291345369 -0.5348366252693278
1340 -3.9428301396625303 -1.68406517022939 1.9043443673328877
1159 -1.8704100386434233 1.5356059400770385 1.2413168413692575
841 -3.792746546985747 -1.091486391957966 0.7890336129512968
2082 -9.768131130303678 2.0946185216108586 -2.3866783262803373
1796 0.23962510256472636 -3.623307335571056 1.8786346484317562
1820 1.5772927348908166 5.843473757472303 2.158822023623554
84 0.04236798468618038 -4.008672234250279 6.110287031481094
1090 4.437379218797087 3.405710082045919 1.9894272908251802
1619 4.260122197324546 -0.8269884068102892 3.6919516031157134
1371 -2.4255045814059253 2.6211090460101136 -3.8099794614578193
1410 1.3402569242026272 6.030324518894603 1.6178064560362784
1022 4.123081997036039 -5.5976030050406305 -2.0179535646542393
2039 -2.6461473613855087 8.106192702806567 1.978271869510401
1179 -2.22228495594332 1.25581482809387 -0.3965717977738288
185 -4.452887127717975 2.2285101643384793 -2.9694217125875233
1001 -4.811816462835554 1.365625446890719 4.589761557259559
1868 -0.460417356291211 -0.7900683688947319 0.140390172314588
762 -3.2740394869251617 -4.559937912460253 0.5454335972818902
686 -3.9188663646517203 -4.46762145867077 -3.5312835500542286
788 5.673696328486337 -5.893641303174817 -2.8162734099659876
293 -1.2413061117435997 12.101529550730877 2.601011908548418
566 -1.072219835924532 -1.3422991371705864 1.7471776988356977
119 -2.03779033060579 -2.430646659076645 -2.07016855869221
511 6.837366788341539 -9.22594766285104 4.159584771408173
1791 -0.6280815802114866 -6.508185114058531 -0.25733457456317094
1556 0.06425402039452065 -0.6613497946297309 -3.8451887356413628
1030 4.194264046049142 -4.063044053706943 7.24958335572761
1472 -2.457102501518352 2.8202573930509964 -3.7788833380255484
2019 -2.422345472187572 0.018338442786912063 0.1464542470472101
1544 -0.9695701755874911 -1.426952574205246 2.266657140866143
1026 2.1528425453914544 -1.9091649981709844 2.7119816402754315
2026 -4.597995718159053 7.133838955554366 -0.8473840812578181
203 -1.6112780628953642 -0.46864026888847254 0.18848006630738365
1013 3.390226083674309 -1.4549603219008114 0.8826586761413059
1142 -2.8946823957937116 -1.6097660788873127 -2.931652978094731
451 1.5394830145880336 7.081568289701792 2.2976528906505265
1310 -1.1518896468814501 1.151342681432366 -2.384681500207948
572 -0.7159907442480447 4.3432995184923975 7.1613310076178305
2037 -1.810382691544492 -3.298748680753339 3.0890595396827982
747 -0.22491538146313927 0.9942163714907466 1.984078428962913
1640 -0.07537515726705975 -7.823789222350361 1.5059225214318657
858 6.679556809898359 2.7875811679601714 -0.42699166338575184
1974 2.5448241627998995 3.1862586232605614 2.04670813041278
268 0.16938560985764517 4.983404188641458 0.47884165528748934
669 3.5560381717966973 9.284499471953295 -1.7521403480117241
836 -1.4701113020693608 2.0209583202066423 2.118124596306966
1564 -1.6720258248014765 1.037034870591702 -0.8301118838799196
1004 -6.066772434221151 -6.010260482872626 -0.5668680823441495
597 3.2471979255563173 3.588338674822753 0.2339392299641879
529 -1.407521813586977 2.2596925775060233 -0.04923313371852001
1207 1.2680399555508157 4.705474640414917 -3.1955700672475604
1600 1.0631993704040372 2.9773652232436283 4.340327350231674
1325 1.676686077217618 -1.8944554235236772 0.8509606231251543
1707 -0.3506207933615971 1.6829584382782308 -2.158503751581315
1522 -4.883829905964173 6.409348871620765 8.406128211758707
424 1.2523576354218957 -1.046708402144343 0.682731354007229
2069 5.164461075923215 -3.3604069225887114 4.0756657254720245
894 1.2606428994783239 -5.570332109510816 0.9600160473537341
601 -1.5581067604536365 -0.9786575867964208 0.9253115897948628
322 4.788116593464672 5.698849259253443 -4.829336847470425
454 1.431212412001742 0.06332947399197522 0.6758979807743297
1198 -1.7974007696488898 -8.413087828443539 9.500009175096627
1190 -0.8328147277439806 0.8551343675893887 -4.566511721010272
1913 0.37429340235599873 -2.7509125073386294 -1.0981581143156351
1168 0.4184823980790081 3.935142720360294 -0.36999365830380215
1970 -3.236184826171102 -0.5272245843889628 -1.5540783727645224
1302 -7.21637610862226 1.4771754448147274 -0.06337041392168381
1398 4.94674314060722 5.218460564552691 -5.319050622473837
2058 2.1328952512836987 3.5185836195831803 -2.6597343225055585
428 0.9334556390787312 -1.2519773465001818 -1.1923324449431987
1597 2.292835476483084 2.018290388737051 -4.021030650809521
70 2.1846334232363116 0.6347376145443536 -1.6265139859427582
429 -2.6098263311731724 -5.228831269860215 -1.9306677580250362
1128 4.524410662883972 -2.170223400802901 2.3111825513087174
1966 5.66614627249695 -1.8753866813494597 -4.6132276474566085
1322 5.661117013511066 -0.595287686975385 -5.5702711314157085
1463 -4.362732840519831 6.343287397832319 -4.568559483933669
1227 2.362392108263307 3.6294458538204655 1.99410806863579
754 -3.0454285669699472 -0.5614812680502765 2.618175361727286
371 6.373352191446878 2.7114581548309657 -3.221214519297578
1951 -3.5004377670821047 2.8480702116184435 -1.8940071795123536
325 -3.230864741461623 -3.938872286479928 2.2082358719949875
935 1.6847479369192206 -10.000120522519858 -0.9701642355092385
1630 4.944470093338647 -0.22958520606563942 -3.0868531869872213
1012 -1.3768024366989742 -3.204559539877899 3.099184529143818
1401 7.314544938475063 0.11561030413746155 1.478039692349034
1498 4.278565386127725 2.1004999478598885 1.3438145730130144
2 -1.7398774193328053 2.414711834974889 4.356400059616969
127 0.1385186371348286 -1.2606411707871235 2.3675666059865574
604 1.5129787351479038 2.7983909179710973 -0.7247950892919091
993 -2.7267130151682135 3.2315164852576097 -10.287165031867804
1798 -0.6280258068007991 0.6701646122398309 7.9769047180609025
1369 -1.8406059734006288 -3.2466902196258918 -1.7059780824485509
2064 0.03942850087759339 -1.233563798585577 -2.819739893455702
916 -0.39328484499445404 1.5691331208410204 0.5273081774697289
1063 -5.208888996919194 -5.174130202382798 -0.9914498949859839
713 -2.683058578886283 -7.41788191366403 6.200564257937963
805 -1.706204830968528 6.824224199526683 -1.5285285420725117
318 -10.41977641573501 2.848771970651685 -2.0954428254992807
992 0.9180604524273498 -5.877180009711346 1.723305784374881
2006 0.7049200653264142 4.88928040693634 -1.190326241083859
1979 -0.3317148406555991 5.247626139297029 -1.351977177407418
1882 -8.28938749161991 -3.4984125089807794 -0.7185614581311245
1525 2.957750249777121 5.350765116553147 -4.618525092897874
1206 3.8425058880821377 -4.887703710433006 -6.817081544794632
688 0.15059259230341518 -0.5431670535647121 -0.7844896907001448
1277 -0.9022008745914899 1.2126185132249052 10.839065709080314
1477 0.4221577574873085 0.1281916316369879 0.28816965746477624
452 2.464336354780452 0.2263239853380885 -3.6847385368095646
1747 2.8408067846813467 0.8618168037471047 -4.658555646434469
1191 -2.9654078929468075 -3.548509270246002 0.4883698848064846
538 3.35638072205139 1.6679914157162106 -2.0167546228247772
2133 -0.1822635860086307 0.7719187465080394 -0.01462189811908069
1694 5.668370151834036 1.262421833097587 2.7146946102318084
1355 4.0720709729059275 2.5530207017637534 3.2208407067472877
1176 -1.006867292932006 0.7938932352533716 2.1134641344907723
928 1.7061375942259043 3.5275836362758795 -6.417942873668451
1789 5.694751380276702 3.211468135091402 -1.7451986637248824
1245 1.578411116141466 -4.2482198617093365 2.9036179998175946
1113 5.807507852150673 -1.798755100053879 -1.3840093481336344
2097 -9.033223028951738 -9.475536889935695 3.6688683199539223
966 -1.6723495023657937 -4.021092816194509 -4.392745449404927
1931 7.142583997202399 1.0480914666212382 2.1253791629166687
1971 -0.7779981325370294 5.021277100053464 -4.444437984132804
1126 -3.3641712528308676 -0.8307057687634695 5.553988911246199
1541 0.8880126330874187 -0.5539722706181429 4.121187372139236
1962 3.1141034014680473 2.1282136346182057 -6.7326336756964436
721 0.1359895895209476 -1.5479434797206677 -3.089001644467573
1273 -3.9187856479135643 -0.9107015852999927 6.044792315791216
896 1.0583295367699277 -3.029289340540757 1.9104466203676533
1152 -2.656702335448529 -1.971433244053344 -1.2067043724910487
965 -6.95909870015905 6.711615808461629 -1.517843054033969
1580 4.524699871537272 1.981597643841453 -1.8023260081003019
628 2.9088247150263595 3.2976065556222354 -2.634320028264508
1617 6.170523250794224 -1.673284508148853 2.40285370217789
541 3.1706830464285662 3.7634000478519125 -0.1456265238966617
1077 -0.14150061505774925 -0.6824050369938759 -2.4271560874121643
830 -1.4848612771718899 0.4908631328628411 -5.367205042686062
704 2.8760992856780545 5.140729997443942 2.8738146910128175
846 -4.786568000877927 1.5811875099954846 -1.5654540782112987
640 3.2708112020115134 -6.6005549404916515 0.17366880106995064
1247 2.233676076742878 4.284222733069105 -2.817181692835309
1907 -1.092830461392335 -7.202188541717728 -1.5717934666815727
1153 -0.5263747589284051 3.8068274167010445 -1.7846826895768566
844 2.5273186336371567 -1.7003839657382318 1.6526208492772823
679 -0.12167601345998806 -3.5620474367270734 -2.3355419486786926
1616 -7.32746369756569 -0.26903568820873514 4.087146843318112
1180 2.6671151084566347 -0.6471649481886895 -7.637689512968771
764 1.6900584154380751 0.34597549593245563 -0.1988002189611628
871 1.4565173310328117 -5.38279837008743 5.126132129935327
329 0.08239453486064759 2.5012828447209046 4.114391655626001
1622 -0.4255272521886288 3.490110107301885 -2.434864322462503
1049 0.880702452283771 -3.286446757406611 -2.936301337748324
1246 3.21200101595515 -2.146173114267896 -3.171673071174335
672 4.232734726385471 4.515584850450643 2.1352006423796803
374 -0.6896885189093739 3.557397907934736 0.6862358041133192
1473 -3.656055498823856 -4.0316316418588185 -4.282931264699448
270 -0.6783009215744407 2.699354799296301 3.825001371827228
1718 0.9793023203186769 0.5351839474188627 -3.416828599295708
1805 0.2850891818810853 0.3963697746777193 -3.6711281622592
1739 -3.433781726776413 -5.6624085072669414 -1.5255682239272106
554 1.4433329001036104 -6.678441665677316 -2.082447863665776
164 -3.635599285667324 0.9466284693196446 3.0674993864905575
389 4.550810723432343 -3.010384359263918 4.187750211016865
15 0.5911078495490458 -1.9762669786309146 2.778582891119843
1505 3.5430077197913366 1.3365439080296186 6.702580384295718
1239 -0.2129259320073774 -2.353883579010369 -2.7300825436955334
1291 -3.26286960936934 0.06376705672369372 -7.670509916584992
1005 -0.7787961119328393 4.796909857678513 1.9308826422217054
39 -3.8174042412203284 -3.184213630376553 5.53211839760149
953 0.10850653407544976 3.9457313459535275 0.8138244522154715
1112 -4.594679868083739 -0.6807373701051409 5.38066048576993
1143 -2.6886538651068537 -3.8199691001463725 2.234825850255931
478 -0.01831064019028177 -2.6600918950454813 0.5651140392300285
1396 -1.4191262251696102 -1.2289260569689469 -5.864572094094771
209 1.6457364614054792 -5.556950833941998 -0.9761622205534696
1025 -1.9178028590065794 0.37433994815221366 4.240230119461865
532 0.9495049546498102 -4.438088087627272 -2.8353122972026554
47 -4.784609165715195 -0.5998343049010991 4.967446832476498
1409 1.6416614186238292 -12.528276356709615 -1.476108649419924
1499 -1.42879139522783 1.7401257972972395 1.7968453361194776
1911 0.3667566966617037 -0.033663427786573163 -0.6960000671140348
1184 3.236110716426729 4.778175771531352 -1.106103337024132
176 2.7600680823603985 2.389781405706898 -5.08168175183761
1777 -0.1799427850577082 -2.1095641219750134 0.47206327173654816
2154 -4.271110044690497 -8.393264372491542 1.1839633734447381
2080 -0.21055068126245072 2.283828168534527 0.799717133206775
2096 -3.531597640479186 -1.3137682280136969 1.149982686422178
1110 -0.24778643953249346 -0.5526746291540314 -4.528981428414211
962 1.8277745410307626 2.1863615190814603 -4.648911154639716
1942 -10.386325655063372 -0.894230277039193 2.364045982789434
53 -4.508816733661938 2.0929694273472226 4.161398691578384
57 3.498119831654612 5.867468544973535 -2.3424020179532232
925 -1.7702602426723273 2.1910664013801537 0.08913456490391472
863 -3.9085556919616646 8.026626415229082 2.0231470904289894
823 0.37537603583165097 1.0463750769413978 6.131392946467521
913 -3.463424439023672 4.593542962646166 0.03617047304738616
1365 6.660157983787812 1.5844738951935227 6.023723498236513
914 3.8694219796870306 1.425788299926052 4.316791433843355
1019 -5.953149658699051 1.4102059709334387 -4.138115271460883
1213 0.7650838136861956 -0.07407737031192167 -0.8565972330428837
23 -1.6170612564878848 -1.6768777501310184 3.269543372565554
581 -0.08931745557022844 -3.5356135592745135 1.7613946531413516
695 4.8502650886340675 -2.765401206042286 0.5257366057895082
496 -0.20476198690272435 -2.0621924347067555 0.6944055923139849
970 2.4280275901546022 6.639443037268116 -1.1571052480069852
1587 2.5373872767715757 0.3965397048349205 -2.9351704494940027
1349 -1.3000810552994457 -1.7768919767039524 1.1562841240917858
1998 -4.457560318485532 -1.8012159984708955 4.102921588097894
1655 1.1875084687218225 -5.05483008462213 0.21735276569421638
2045 1.96326846794942 -0.07834608235830201 1.5302968060784097
637 -5.480535236031999 -1.8897389426845193 -6.162810150844024
657 2.6728507981425698 -3.4733960739104015 -1.9858506508510865
1121 4.369179951724492 -2.1361295040365262 1.6661601842705627
361 -4.473239904384181 3.3163925228579676 -0.1612432227927396
1175 -10.929376005624187 -4.925455606108898 0.620147583186697
32 2.0522672631509002 9.896137182164145 -5.204724271297171
1788 0.9609523809508645 -0.9606945505943922 5.045981982065188
620 0.37154355163557856 -2.253391625565058 0.2736634137896531
1659 -0.972279834173142 -2.6352336100174103 0.22498733154021214
860 -6.6479964287709965 -0.838203736912382 -6.440867747351638
2073 1.1876236732669738 4.180376057438801 0.18082663500280993
1692 -2.4399390465620967 6.746674879459991 -0.9513603027874609
1822 -3.2420985896992423 0.6688615860922208 3.8840484450132386
973 1.0751746847044006 -2.079215395065709 -3.3194726735864903
1771 -0.7451649759455101 4.575729616806123 3.974318782308586
1249 2.988491585000425 1.1693762429772532 0.45274869266838047
1149 -4.310173151696447 -1.3470807669785736 -5.259105430298166
1910 0.7953563258741418 2.6976939403092164 0.21527337960433118
1769 3.821710249427307 3.3315933039166308 3.2369942957716855
621 -0.381037652722379 2.205965221501217 -0.08417848792087641
1656 -2.0369764940822335 -2.414477955013327 1.734199660883898
1066 1.4356427784609909 0.2620717813329943 3.6870893560919846
285 -0.5286242553617096 6.484451292934643 -3.960204703921916
1765 -1.0973607924387905 0.6479212618260515 2.192826841429778
778 -5.502094939690716 -0.7887535996125419 -0.40434032128100916
777 -3.324350952661729 -2.5153831982682875 4.944995113648336
1535 3.4996187189939674 3.212732525076786 -1.3149528695725676
1082 0.5101226519070226 -0.45778105696117094 -2.7898968207999166
465 -1.0910212703305078 -2.923532821961139 -2.0155093812961637
1406 1.6543854841734207 -0.6779772760224422 -1.3407482316739947
1929 -5.253070541087936 -5.550236236345425 -5.432231038999333
611 10.342972679602028 6.086918327983895 -6.842528737631034
843 2.658581189900962 -1.3782453242754575 -3.993519616864018
641 8.351104616810783 -3.9436349400823083 2.5639431151679264
1934 -3.140956939052091 4.725918642721945 -1.0749980480264882
1973 9.264082538927726 4.794437604542106 2.403274928243978
715 -0.9232388406650907 0.7817613121299825 0.8657315139657038
885 0.5303125490919042 1.8957454594497156 2.9547485713436044
926 2.507308072871701 -1.9173329042898326 0.17711348765079135
1651 1.699367884781546 -4.178123689611653 0.6328381239812729
1493 -5.258042592203478 -1.2489446891715288 -3.9276872251346924
1458 9.282541552747677 0.21349214903946398 -0.7152760136893956
1378 -1.0222339831067722 1.8019175230816074 3.3849641477632737
385 0.6515725000371887 -1.1074512861806525 -2.1223365065134154
802 -0.6621822372683251 -6.814197351013804 -2.198542101740397
367 3.758977849499474 -0.33670846381706854 0.9187469835358045
1623 2.8418691162438523 0.7354324604630113 -4.042062907547849
1986 -4.387090445316336 -1.931685674494438 -2.8064839363541676
124 2.065263650352591 1.3483509621592387 -0.526500549931472
2156 -2.4277711729303473 -3.729366669198255 -2.1213016703860923
1212 -0.3207115257675017 4.942558660536592 -3.598595811270775
736 2.9471412280651723 0.31622027516360957 -3.62000662257709
1294 1.2835180994611413 -2.9328318471264323 2.710461450381644
674 -0.6946310293845532 0.3961323583267471 2.2643808023442356
1494 1.3759520413306434 -5.413734472604102 -3.089221729401112
202 -0.3271105337229435 1.4960897296269988 -2.7779627262887123
1594 1.6238914099567043 -2.246344870232528 -6.730195393519298
508 -1.0760018031973249 2.587958861751081 0.28398627683585725
732 7.6871669838009895 -0.2242504369790684 -3.9564803847297
1734 3.018588206706052 -4.331708249937363 -4.222101776093822
74 1.1482511876219996 -6.171413408192368 0.9661204494695473
2003 -5.0804652708013025 -2.5145147572611717 6.464818906427539
937 -3.7371195841682816 2.1125424409342206 -3.7079459668561565
7 5.606431219190519 0.010044893020027635 -2.9752041649826717
1404 3.0954441122416014 -0.8480637413546159 -3.2487784648258193
1060 2.230280401634069 -2.6768971935996815 2.755315180433386
1736 -2.163146537649025 1.0556310847872168 4.332323581137247
360 -1.1843289042724763 0.611772114659702 0.12421854047605724
853 -4.38446115894669 2.4321461250219887 -2.606241526588662
1854 0.5741936320535712 11.436198794214398 -5.0519071813440934
2129 3.1632032004544426 0.560917418707584 -2.554362004727541
1036 -5.868417697033342 -1.0706789957451448 -1.1304731655009688
1759 -0.5101499323243903 2.543479109257745 -7.571406913038277
1385 4.287582428804961 0.1265930861201849 -3.778765166289389
49 1.3354223853348548 -1.6275560328293057 2.3519498833325994
714 5.641170437267418 4.010153387904352 0.39806121563136304
1448 -4.08530204358187 -6.117457119141699 -1.0636612786956077
1205 3.361532151005122 -0.9770977585309804 -1.0617129141616237
976 3.5830527240301207 -1.2715868499902092 -0.11233987562025169
1953 -1.4315505508930715 3.4752486234910513 -0.48484165371660615
878 -3.339821347360591 -0.013191233303689834 -3.155342316717434
359 -7.171262274049365 -9.073648723303661 6.069598048067115
1507 -4.925240416606704 -1.003114938734834 8.40773639293793
1155 -0.4688040420312482 0.5538010282581232 4.390020675288921
1697 -2.36219982787114 -3.8643331098472964 2.5288485370982654
617 0.6297114660261435 -3.455144816380552 -2.511261652015707
1356 -2.4768173044147224 10.327568763556812 -3.124458881015152
2128 -1.159937692380319 2.002298636810685 1.8799952737909347
1614 -6.760345382098769 -1.9911034247992134 -1.350383871234208
416 -0.8824271769261409 -9.30284161021911 1.7325615008335657
589 1.9526767869985666 3.2595503174882694 -4.282058063666359
1520 -5.866982494945927 2.575304627200232 -5.5191988388045825
1443 -1.45787655212894 -5.372017919397373 3.5018089197185303
1613 -4.212866513211653 -3.977818297734444 -0.7753730266549266
54 -2.928174277025531 7.562592963999959 -0.7636986600316547
613 1.5672973026032797 -4.010765956412013 -3.4269675862334057
142 4.467840039248372 5.224949035682599 -4.37398392427543
1335 1.6646201945384187 -7.048848630775131 5.036205640838341
659 -1.2271442199784997 0.40030122069009716 -7.377427189847051
664 2.2095269402444 -3.7791912126035094 -1.7444994896372217
1869 10.334695220418048 1.8663565656765568 -5.831612653582969
214 7.148693719007064 -1.80988987406137 -0.552610437793095
1958 -1.5156489816985457 -1.0501016391756512 -4.241755111173125
1044 -4.256334584928343 4.998516782049329 0.3187131168762625
509 1.3566154969596909 5.808762371415719 -3.6810554519148537
1238 -2.799306107970771 -3.807626394802467 3.0919022351321015
101 1.2587140380954718 6.1129049622427365 -3.3685956591483994
1146 -7.784630499846513 3.4737397662907736 6.967271983258132
1283 -4.418828649733343 0.1734898257647852 -2.218746042604742
1282 2.170951278045281 5.478462357138716 -1.1474798467746083
2122 1.3092381961875192 -3.868255662775497 -0.025827384869910843
1562 -6.194738479364287 -5.826937969242912 4.170182502865792
296 -0.39877711815498595 0.9907583469951207 -2.275737191828399
1800 3.752891675380135 -4.24459295086569 -7.507915539525003
696 -5.385431549584698 11.573770648786432 -3.3187935731547875
825 2.957067461107861 -3.805100474015223 -1.7004713614141402
2152 -0.3279767777799988 5.216924165789109 6.00898593715477
735 7.303525131635779 1.3146648000342835 -0.15722197142350167
79 -2.0241339576968302 -3.7328536008063984 0.7347778658610031
1017 1.698685285199828 10.288550229485951 4.70727951988717
1135 -6.141932962588825 1.4976497962760116 -0.5261052540124783
160 -1.2411546280525185 0.2671323050698018 1.420245672135145
932 -7.347016814314385 1.9110471232174857 6.123833286183864
312 0.27678196005719286 0.4507916013498921 -6.701173106150562
1459 0.17663123872945272 -5.128459085935312 -0.6027512892904817
1315 -3.6567605859786054 2.534645805548438 8.270085753974303
1528 -4.656051043099894 -1.4631733909844604 -7.244769602861458
237 -1.5219515072463354 -4.647325294918664 4.662239093196503
1676 -2.0201090507346136 -0.44923844793978457 -7.112072811853498
776 0.8244181847462133 1.8670082134011523 -5.553606702008046
118 4.157961062851027 3.732851164227084 4.386901713260254
1784 -4.156093655027395 3.2169782201316885 0.22415076226975325
1838 -0.0833007080054216 4.37092143585994 1.423964141944517
743 4.559117259570881 1.5878186758517272 -2.1827929467107485
474 -0.9656062346748329 0.8642180818865247 0.7930307497154847
1969 -3.094006772811536 -3.0578537491092908 1.373238686837714
560 -3.105777832511647 1.1630159538279143 -1.2421092725532008
1858 -4.722430205060163 3.4695419364143083 2.171014606375525
171 -0.5977943933304057 2.2243335295692868 0.1797650914122912
2106 0.06903383624462767 2.047379658794566 -3.450306924102465
1428 -4.52905535170048 2.765717413865936 1.0551900059741925
232 3.540392557015518 -0.947990294216129 -2.3463551708043116
1778 -0.2130012744250124 0.07323981313941855 -3.7133618198448306
1999 -3.138431436581874 -3.989129059413752 -3.4993624476176994
344 7.186716255972929 1.3587602371679284 -2.2655590010105238
811 8.290614804234409 -0.6735578768632535 -1.4987854435750836
304 0.5857954345715111 -2.6478712347138487 1.083697983150457
1939 -2.30223535327407 0.20867368988540727 0.12018432300730807
855 5.4288875394285 -2.797241440183531 -2.8030646584216448
1199 1.5152851382068526 -1.6896703454580504 2.1909362550013673
193 0.8723969203538278 2.403051963627877 0.858392420141292
126 0.7082569946646329 5.7914185471295925 0.834395735933208
2134 -1.289313134081872 -3.714273961450736 -6.842423739455914
519 -3.970233771264371 -3.149883606214967 -3.758013788580087
1738 -0.34481735861174917 -2.968508503755061 -0.8567991212288232
2120 -3.283229608005808 -1.676481870452611 6.058220557099161
616 -3.857921647651185 -2.354418684707816 1.553393725906428
1959 2.0918338035205846 -1.9598218448681224 1.239914230293703
2051 -0.8765413689883411 2.3365126116663593 -1.981632814965522
1073 6.660930306553144 -0.11077865332960234 -5.985187729935023
1492 -1.0964861820822898 0.07225265408571292 0.21426886932448852
235 1.7660917861072674 2.42787435200732 4.4373201483336615
1905 -4.828836427809627 5.525903430689165 0.2571003181931438
1503 4.74631028830694 -0.8406461562798391 2.151830059477301
1834 -1.0636530465585328 -2.9193481793917613 5.039889914039634
459 0.2836878719493163 3.170793774690335 3.127344260821513
668 1.0040958972494913 9.505350235635968 2.1401765644990514
99 3.2787960937586735 -0.6970444737862094 3.1425020459328543
1079 0.16605134821405027 -6.502385780697472 -1.0481298660625669
217 -2.671110863125203 2.177684574278444 2.5775988256909357
1411 3.8537403842590656 3.7350145761622193 1.7485168053849807
251 0.030377086815337104 1.8915766439600246 -0.05837710284780558
1195 -1.712565064101654 -0.7801117255185193 -0.8713840827735697
151 2.4354890668205544 -0.6959861888233061 -2.223870781276104
335 2.4093464967314864 -0.6753379125776171 0.4788471131696836
370 4.21947632885746 -1.767832771105435 2.824306477237697
1139 -0.19337376954214208 -5.41466474509367 1.97386805318375
387 4.804108189871925 -0.49783661450966965 0.05379837739056272
61 -3.560608864066364 4.962295120591322 -4.792224501142704
1745 1.5031019436188755 -1.7260248591349507 4.831248364162781
1915 0.4268539525510244 6.821241632668469 5.790801219565842
13 -1.010168312943201 2.535906587210062 -0.23366971885705126
1908 -11.792453450796273 3.0084250379765116 -0.20572506495897738
1709 0.26375758396568855 2.5981866038436534 4.932319138486365
2032 2.9441362794092103 3.094948033199914 3.2624345079184778
2057 -2.6771232942007903 -4.845674401765514 -0.9498730983769188
2126 -3.317030095589447 -6.826230917123838 -2.449556631283384
1403 0.511525391515212 -8.274540996358873 -0.03318272196101448
653 0.676188707846024 3.183172717419427 0.508743050040414
1450 1.9396702122690752 7.221767490503469 9.266552906975548
29 5.514945119715488 1.7122864601511598 4.086632014710929
1839 -0.4519532346771517 -2.1116902075950015 -4.994724088797788
1627 2.930330829084968 2.262102493006336 2.0789523550336146
2027 -2.952570478539014 -0.030032893484783933 2.4577306403562535
1938 1.9026109303226748 2.8788649899456704 -0.72966708159302
1141 -1.5282658569280825 -3.3401795188799586 -1.3677771093221018
827 6.058210413324932 -1.2857032540153053 -1.400940184167379
1208 -0.7659256582985068 -3.9063988649086645 -0.9298198719221689
1816 3.333527785795192 1.3351521349884676 4.827828332826561
1880 0.8892210055365628 2.731398979057036 -1.2387324340364065
1308 -1.8231642702614508 2.760311405490354 -1.1680146332567192
1637 -1.790575598669299 -7.07751580901912 0.4428406095867266
1818 -0.1686435881247973 3.8046533742403192 0.37157746794743035
786 -2.954200054254819 6.452864011354537 3.157913194828217
1923 0.03391394558870913 1.9063687004441865 6.0408747646155865
1665 -5.582217867703606 -1.0816523988153726 2.004730495398877
1491 5.382265978451541 2.93439703768634 1.6757404785327386
1960 3.849760996847774 -0.946953444790768 -0.5888050252737925
1181 -3.503997462396643 -6.68318222657157 -0.9727882074454908
189 -1.9577903015674247 -2.514296090708386 6.6791706545943486
951 2.267262551930051 -3.713816414981463 -0.6235905333850765
1540 -4.036224236439974 0.48955214143623194 1.0664207970978719
1350 -0.19767710785655443 7.1386037603059895 -2.4584177608449993
1028 -0.703281647028016 -5.0142788165829195 -8.445441647811931
1808 -9.847657312375778 1.321056552479502 -1.8120867365192894
2060 4.2036355609635585 2.4586667897150982 -0.40436812492909924
1103 5.80104906102233 1.8201255085753247 6.699821200918374
242 -3.922314330315049 0.7153849787627592 0.209818105946051
623 -0.888400587269112 -7.3692432343427 -0.7853668922172523
707 -4.178883943845984 -8.084130145250265 2.455151142791132
1083 -2.0797056424623155 1.5895800046759379 -4.010298486052962
1487 -3.610473475045533 -4.099192982730691 -3.25038157070698
1842 8.811893713884317 -0.37535488809877643 -0.041111090265004355
1265 0.0002808894894071757 -0.6167162468860701 -4.161692974953327
1768 5.793844210385053 2.6947295369955584 -3.1322742590836192
1926 -0.6176351421531098 10.165777283793563 -0.1954501703940911
1321 1.5539091388484378 -3.1929150694259856 5.793093432570002
68 1.384374225737145 1.332484997032397 0.41216447086321395
55 0.503106208116875 5.09493323642348 -5.3020584875463435
1096 3.4217203337107325 -0.673271529851581 -1.9447019191057875
1819 -4.760837272691352 -0.38144810556226966 0.38771530469336046
314 -2.384528674082737 -2.889337660924753 2.022756102189017
1766 1.580703436786186 -2.2201653517909774 -0.3181911744755663
1809 -1.6582240303521967 2.0080805749975594 -5.689547441153044
1400 5.881180148878443 9.752482072768156 5.380402681087171
1440 3.7350838526371404 2.3512505096627203 -1.3051917662760972
902 3.096079725724378 2.823094978475253 2.5041329450339322
1712 -2.7422627936156103 -0.5531855605480412 -0.3191787790972535
2034 1.7372465480441672 -0.1056307503957162 -9.38280617115286
1479 5.658997545554865 -2.6804182659945783 -5.828804445270158
108 2.245613016186984 1.1390231795463162 2.5426560800409015
1648 1.023008432508844 0.856694867822658 1.3278609563061934
612 -3.02687902815544 1.6569199180533196 -2.959609935463803
1865 3.4735171633257815 0.11605079827321073 -4.590906038748173
291 1.3654168261365207 -2.9546842498287784 0.8246979180307784
1903 0.7612283964279113 -3.9317290940800214 -1.099413207510239
1581 2.3511171261174066 0.5507338347456513 -3.581032237418084
207 0.40387916988643435 -0.6692884827330864 0.353610671772808
1904 -2.7299604207462242 0.2590891388128683 -1.3267765929625286
1680 -1.9424126168310503 -0.11001219230078049 6.490457798447094
627 2.1333201504434762 3.9363560576350265 0.2903621807630693
1485 -6.125219694209665 -0.9397712597499777 -4.4096839447231035
1874 -0.4588328560990008 1.2813127116380651 2.0779460463738535
893 4.158670045374464 4.826826354697764 2.8510855352434605
775 -0.7441166518640655 -2.1542496967257376 4.332525227195986
1886 0.8508481235175616 -1.753831007170209 -1.9767194984429879
643 -3.368007108190083 4.522419005743848 0.6371652015500038
1038 1.7193872282086975 2.3732135038665336 -6.868615058114814
676 3.1568897568478382 -3.5146086427756 -4.934791156005914
609 1.5922311602998518 2.2173109694358506 -0.6296246177799383
1418 2.7924709173519844 3.7252164062449378 -0.4718397929862178
2157 -3.895873040255196 0.9796772324943991 2.7705270597637353
1956 1.996176113302911 -5.545799650239751 8.646859820279701
1338 -5.844603948755154 -0.5557300608385023 1.2414329305064034
105 -1.6211924809126383 4.055652254842727 -0.4834438699973891
1468 1.4103770476255344 2.4882342721866295 -0.1176358303000579
1857 7.55540037633112 -5.276442776684301 0.5050406472821475
833 -3.565762847392444 2.0474562825180143 -3.467115128787247
790 -3.1918345297393325 -3.4768134505157446 6.318229790745813
738 -1.338399382815177 -2.2467670114711225 5.102718722210495
1866 9.865914545905358 -4.124033922795247 -6.425180869319569
1873 -0.2693753859267234 -0.8757036730088026 -1.0801002426938369
273 -6.493250794395097 5.653970230036834 -0.29571416181154603
246 -1.4644179240763298 6.493641755424973 -2.6925555371485173
401 10.437863313783302 -1.5850679672939207 -4.781531266574029
1309 -2.0887059987100307 0.8585191113625644 0.7170623057318971
934 7.061368629809403 -4.286007840582793 -1.0793697178432946
347 3.349085266280043 -4.638156128505495 -8.16601633561392
494 2.7577815770312006 4.253456053489921 -2.41216604962358
2132 6.415925394449995 -6.407939709624549 -0.9730385900371605
94 0.5765151019515883 5.057104220906216 -3.4198894529682615
1513 1.3117110356017294 -0.5175982945745676 -1.314182220380497
840 1.7021380154383117 2.424666602945774 8.91348017284013
131 -1.980458533678773 0.4171844498371928 -2.755477300193841
1735 -5.5683955894587855 1.1778095934582367 -1.1336217344076145
1813 0.7560102258777373 -3.6112013061768633 0.2333211873885492
81 -5.536755553561142 -0.7631622784846464 1.0710901934727628
2054 -1.0367653975854816 0.5755893965669816 -2.670064686263378
971 6.004530437483613 -7.097593637716664 7.57778881306734
995 -0.34638401085528925 6.871308888643372 0.6016771939674231
375 0.6910300784520171 1.4932048728560408 -4.732191708769653
810 1.3346826499509576 -9.248976019927065 0.10765065236913125
575 2.604118705217357 2.1262665947249206 -6.287253235060986
14 -5.019991553434588 5.969416433399962 2.5130569283953714
1546 3.589770635812211 2.05058699388907 -3.2141777262007625
835 -4.995203993272322 -4.3272986872672075 5.372284957158603
1850 2.3508975953527123 2.0727172351391165 1.0584926435307427
602 -0.5414563427990913 -1.8889541173097226 1.7124619057199355
431 0.41790153215897163 -0.8082295690425999 -1.9209979779604907
1976 -5.347748206257714 -5.1803808779340805 4.918245105688179
662 0.9714687670846013 2.352572377231394 1.1258007925527203
274 1.1297429886769144 -3.2202766110532117 -6.682470962026564
1947 -1.3542486496107717 0.006810694475203135 -0.4427353356327143
332 -2.0772699859681683 -0.7560225895373485 5.18640014611171
1392 -2.7749721466248727 1.6292491669995761 0.41754463221672555
1641 0.08583655475093142 0.06791056457484901 -4.209011019163809
75 -3.4166522574100204 -0.25856070433831363 -3.639627550109748
2088 2.0678878586396663 1.3226831183736178 -0.4310122001904545
1046 0.5717493000888857 -1.816440526363969 4.332275108374518
2000 0.44123989946917197 -0.8005790352503882 7.776012723622368
980 -1.8920519542275644 -3.9576911478921475 6.90702196007112
1737 0.5604381151789738 0.4356397083530028 1.6038469188934898
1849 1.9973178721172247 -5.3760528554794496 2.4853333063471044
1571 0.45132253585247817 -3.8193984052141468 0.19437496450947594
1253 -0.03037006437162479 2.938188345787729 -2.2112578701685885
1856 -0.9196420351026451 -0.034891791153116976 0.49174622141231544
1300 -0.07392401420689808 -2.7031800537822503 2.043981019859946
1687 -4.6531778389953775 -5.730449064748132 -5.203067755979051
1832 7.032506371928215 -1.5388469235007982 -1.944695779707119
303 1.6648876293134562 -2.1164495998638557 -0.0340032010704812
1421 -1.2970176686448014 -2.9847366133505475 -7.860759285261971
882 -2.379635453217004 -3.436704989968584 0.7013613532402782
179 -6.962923107343836 -1.768456493081669 3.061173161869675
1599 -1.0778725735856856 -4.0743731859198276 1.4148933633770029
870 -4.899575489391614 4.274595053872347 -5.778816624651601
2068 -0.7483902486351333 -1.1351506154473048 -0.20769444063057454
1859 0.0565694554807704 5.414842672227154 -0.19030215042216486
1088 -4.3142721310110215 2.3924486692548808 -1.8989297431782137
1888 1.0255514900814071 1.1197974914865003 0.3432055915599141
922 -1.947341321543716 -0.3303947173871464 1.7971668556071132
445 3.285955241405075 -4.833832116232965 -2.2911271934786117
1268 1.0442249067784846 -5.210639412025944 -8.27027072399527
1323 -4.692803173038905 5.209767479801312 0.33121023541454825
804 -1.2434393990874466 4.2430821546598025 1.0856860682462257
1547 -0.13160387404222 3.488860555474228 2.4841258461607922
1215 2.470113636119712 -7.951228019504592 5.878296712433776
241 -0.6914309956679964 -0.7880021343819823 1.9481493161883763
1650 -1.3701827234203405 1.5335810254110807 -0.05361116692642691
1785 -5.209962194112498 -4.126544505344494 -0.5504815469990553
213 2.7338982866316606 -5.5199034080746925 -3.252274909466611
2135 -3.2535568346628883 5.014906261362122 -0.9563480695012203
349 -0.8746397535723737 -1.576180455083359 -3.5775597512318558
873 -2.0549518463087275 1.2789306566895586 3.6988561237741884
328 -3.023852799259363 1.801201000835549 0.17997255923343708
889 0.3579542699740429 -6.008210673302008 4.330430358042103
546 -1.7685100883835694 3.373610880849926 -0.8229491298518337
1729 -1.198683692210393 1.826134703873885 -0.12596874651616682
1230 -2.111662922030456 0.7681140628553812 -4.579159658697709
1639 -0.5053200336280981 -9.92694545273211 -3.8319492899662078
133 -6.539485334467706 -1.6791376756957757 2.2386053248549374
1719 -1.0284347073008437 -0.8855941626676349 -0.554635410946302
955 3.6157301697642814 -1.4518062169704997 -2.202677116080514
256 2.6775564118370996 0.13397965208490295 -1.4034029523493807
990 3.387655876959813 3.973630924917409 -3.8669334037358882
1930 -2.095217810268664 4.785429895199627 -1.7672900889094527
545 -3.9093066188270416 0.360079261988522 -0.07947796781678179
266 0.5391710581144382 -2.5568594563548346 -0.5132186405587345
680 -1.4368316793920806 4.4694521327994705 4.1429256745936005
1311 0.1796939536433273 3.5067998365402677 -3.5620992127145414
1748 2.457328897055969 -8.430434460832032 -2.823648604057642
11 -2.8911060783053677 0.30356580025679963 -3.97280752780956
1517 3.433634193074833 -10.576647811140466 -1.4002535956213313
1287 -3.8413666500551473 4.132891905308395 5.159605946522349
536 2.653590234930547 -2.069166495630711 -1.633299285557029
1943 -8.450498151696435 -2.4779262107067535 -3.2992554333447273
1814 -1.650979457199002 -3.468460892391292 3.2141241035943926
1376 -4.423486819240277 5.58440162371775 -0.2847902546117244
2067 2.9721751678146315 -1.5292715807176753 1.5245777685731965
1763 0.9490395658675278 -3.175496606632723 -1.5054341354290404
1918 -4.52705437176827 -0.8804442882530338 -6.199610513918006
727 -2.2614342619183194 3.741181731113118 -12.659889768783044
875 -3.715121321682627 1.0350022684266407 -0.4723299101751494
1358 -2.1635516328079665 -4.285634347082083 2.819132724960559
2023 2.222483474023477 4.557145055473261 0.565573111480938
1068 -3.3079720685776457 -0.29723415718439256 5.8420050595816715
146 -1.4953009843707026 1.6155278894307306 1.652832508684715
1255 -4.218833179235751 -8.411134980680982 3.7145474665136207
1922 2.672353521173368 -4.5029131276826915 -0.4891656757053689
525 -0.869240574792902 11.10936064837917 -6.044419152210088
856 0.7034924420998477 7.900870483453005 3.789554919269826
1618 4.527582810635017 0.696623177325049 -6.533297877949791
1746 1.5654166626480104 -4.0547365345403135 2.8862773171473717
897 3.5128586683511855 -0.8959640820042027 1.8628581948043863
1720 -1.9645451806197232 2.268636901390181 -0.9948403599630834
1059 1.0662544663339917 -2.348761127564789 -3.6932031751016985
480 -0.9804957498707627 2.5310302558804025 2.724858641450849
492 0.5843784251176921 -2.8541708955208778 -3.7222247679248803
959 0.9593284191551896 0.5445846968927239 1.3805015533036542
1348 -0.9921403880685175 1.4700633249436583 -0.3932359128412806
924 6.517596244592779 -1.8808076762049284 -5.456387419381126
820 -0.6943581371694201 3.333985458303194 -2.0928134928102278
390 1.470080936966811 1.4399259299924625 -7.262144632610894
501 -4.657307122865248 3.8310982108101737 0.19566046377712998
753 -8.05889526573046 6.120680252288448 5.106419731561605
475 4.456313365002916 1.5109381324883013 4.3955656701631955
294 -0.19892139210141782 3.6690023679150445 -1.7611887625231928
1395 -2.0563700048890157 -5.155193600747314 1.2251252502356882
1147 -4.920031139896193 -5.379245725628103 0.9606709635775245
377 3.0350393202456893 1.4643302418268422 2.7969236002520863
543 -1.7404946728771276 3.315023988668619 0.5989528195549054
1824 -1.0123262754105713 -6.480972565729765 0.08612942842876671
645 -3.0760144013823094 4.6444146841794645 -1.285022863288142
1137 0.9753685719113993 1.1112393978262358 1.0792237831369025
1425 2.5263196270157895 0.8442772098004688 2.9564175632442278
1576 2.6739770335132143 2.269593273386394 0.8437307057090914
920 -1.4726753274848496 5.0010616483948525 4.714373580706428
1955 4.2956624936620855 2.7935494734213115 5.453954928328171
697 6.553250609035958 -5.593551733255854 0.052563473945108456
1961 7.957203478205566 3.3671599577624307 -2.476707454609861
1982 1.6440380571886994 0.5430905513716869 0.7700765689030203
1723 -0.36338818146331875 2.932596376546342 -0.6537197536516584
182 -0.9357858282923097 -0.539936161101303 -2.167666626763937
1604 -4.8171199338670005 6.9023770434380545 0.582910779037921
1559 -1.4500461370741884 0.14477570559454475 4.873287726506236
968 -1.8017357160920249 3.8476083708950872 -1.7811836667324057
438 -12.111183133626886 -2.5395150206254278 1.829313015093414
626 -2.5099641018196923 2.6151055378267456 -0.9895527434896396
848 2.8295175146945404 -6.750441112643697 -0.986748360894609
718 0.5353462806868357 -4.301943310491419 0.8991848772596379
983 7.69511024157234 -2.5005420664314943 8.523993827773149
2035 -0.9288445812517454 4.532840074898063 2.013385793041215
1527 -3.7839352036628453 -5.187208570894953 -0.08938829568238327
178 0.6759287233296348 -1.9065396482745836 -6.696002677672308
2050 1.2375304106223382 0.2141410347368899 -4.757068645997347
1280 4.729785720234718 2.0468140363512752 -5.311185416755621
1848 -0.13631590307889133 2.026317632112907 4.3511351710983295
181 -0.3847008974449561 -4.3176478546517645 -3.6535583596831063
1032 -4.386986888387311 3.437059182931245 4.825054609589542
1465 -2.078137058031774 -4.746180446397484 5.043492323325549
2011 1.8946667358816398 -7.055571829439616 1.5676354485243436
165 1.7143996699113664 -0.6896313546993346 2.7575936644788355
862 -2.6231387026155346 -5.246325367468934 4.528332137418392
748 -1.2513676250711847 4.337888505085622 1.480883985424429
484 -2.842714827969032 -1.3881426780408739 -4.341661169687778
537 2.4426493504790576 -0.44049369239992625 -3.8410464339659036
1633 4.308832764722878 2.387836315430268 -0.4254704693691075
1831 -4.997627475116381 1.7321743148982778 -2.32171031230287
373 -1.9750244011737843 1.1545092720224572 0.44184458447454544
1397 4.254015790026059 5.4651818112683515 0.8530744994895996
921 -3.8253184889613725 3.448316050917469 -1.4038832091363946
1058 -0.6104652297582164 4.658829614301766 1.7890257794029583
821 -2.1187602287857015 -0.3775841987418831 1.0053339190736157
1435 -1.0332355653534435 -1.0256199761131812 8.012183290234008
798 0.7523262671160748 -3.1769626125001884 -0.2597941950528239
172 -4.333779266012452 0.11113412815007219 -1.391988538786628
1045 1.2328087953006712 2.373961019065098 1.9738269441685512
1390 -2.6091092912226994 2.5962066571622695 11.053808497102908
872 -2.647613364260657 -4.3348567584724345 -2.685511153535592
765 0.9720429060450918 -0.6047134445957442 1.1246961314798753
313 -0.8768610069679575 -2.6388485772084236 0.6288585470787902
757 3.418774506934322 2.7274161185950674 0.5513148551742133
369 4.557775016052796 -4.0697352034893255 -4.632841778029356
2042 1.227939560205921 2.1586348576006973 1.0686143073367766
1303 2.906203091046759 -2.2916673580839113 4.014349623197643
25 1.5226238244177535 3.6154365109830104 -1.2293582161400607
1008 1.6503988734580213 -1.2177431724603442 4.373666482607403
712 -6.705933134109848 0.5664633921818196 -3.59847283046843
1679 -3.4039020864567915 2.9131091375356313 1.7680242168021214
323 -3.079399215975414 -0.605228232126074 1.7647031410307332
1935 -1.5972806270997995 6.03795906655254 1.8649221489721834
1495 4.470982730726896 2.6115722276752034 0.490146495359552
1609 4.533962730833366 -1.8212397596202028 1.1842035964770332
17 6.975909817907076 6.904784665858517 -0.019557840783994276
2153 -0.3219412853399803 3.0292551965981436 -2.148585657554471
593 -4.026475702689159 -0.04398910820116222 1.8076825139337487
636 8.457360353219459 2.747063345371472 0.8963198679392006
279 -3.6907180389052496 1.7744528030982245 -0.850923512179129
563 4.815645831718392 1.8114260752793685 4.005895475767728
573 -5.307593603634103 -2.5393045383828103 1.0815999465914976
1776 -1.9297034589344173 4.843706421488545 -4.447096972151862
2004 5.341699560586507 0.787801754615742 -4.212859082011401
716 0.33228657882424073 1.5519171579949018 -4.783565773468944
311 4.161220103667015 -0.7124340120817382 1.5415589520411814
455 -11.19326025514794 2.8340043064222455 -3.1343874627833017
175 -3.0008113428198366 -3.7722063895787312 2.0174115195109743
2150 -3.415799926260417 -4.361269231224784 4.43103677564259
650 0.14036350629071612 1.6435858253912812 1.4462677902680237
1211 0.7475267468435962 0.9582016540367894 5.883119794704294
656 -2.8590892201534976 -1.3997590774900608 0.10035115141293796
1108 -1.1792510798234617 1.2111661598754584 2.93600222280462
1827 5.706358921667989 1.265975098157531 -3.7758700176642432
113 8.548739096019055 -3.0846284068314547 -1.0717830367153096
59 2.5139766025831034 -2.388477542264239 3.8023206897005575
115 -2.0920381042041645 1.7943347174322135 0.23637400101020967
1672 -1.0621250830923339 -2.490756755181755 -6.3501154353723015
1634 -0.12587828598330242 3.299402233889474 0.36070121785312603
610 -1.1040037214279141 -1.16803995507922 -0.1461658607127869
583 -3.875950496473312 5.260241087755956 -1.6750840869653985
276 -2.883521592703522 1.6935331376211704 -2.2875249117984384
78 1.258762455350295 1.160938351181874 -1.6151461147001729
2137 -0.20082987014161377 1.4044166386370347 2.005989807017579
42 -4.719094283897056 -0.6720126757262436 1.9194449848624238
1136 0.37061672310096266 -4.267906891133602 -4.885991688144019
183 1.5602125930812165 1.6567975059877338 1.2605634196096582
905 0.15637906345226915 -2.5714775167291033 -1.9500216139603732
1357 2.7121466357333084 -0.9112481530818942 -5.072636752424354
31 6.113575063392348 -3.031943805046317 -0.5060723800294942
1319 -2.3149618345082827 0.17435096915344875 -0.9259635326914276
287 5.650208631262227 -8.295824363435967 -2.9808514288750625
1192 1.0790240577332688 2.9928223772379945 -0.6656869052649699
582 -3.392601017598646 6.248169804011763 -3.193921936628329
1968 -5.944757982272085 -1.852053469627587 2.256425295353887
1949 -8.846080406039503 -1.7935431841713863 -1.238889106083981
177 -5.285365599335533 -1.184650653526614 2.7468045868351147
1708 -2.791646827981259 -1.1404313339656906 -1.9141227415505286
249 -1.847997794248922 -0.3772400028904259 3.3648683089798634
1693 1.935938406496148 0.9574664661947914 -2.011233232218169
975 -2.383907125684477 4.752435568257578 -3.7517679196821447
1591 -8.406142328583394 -0.3733471848541942 5.983065669867155
441 -3.2455194179560074 -2.2580889236990935 1.4419606766418134
1509 -4.547988247682343 -8.661784927967512 -2.6171524842016356
446 -3.8550330154165593 0.7568042538697952 -1.7388434160092099
1688 1.200639319692232 4.97166547176881 -5.310393544959286
2099 1.771483365637574 3.7299444740745438 -0.5324242340028911
957 0.997358217367762 2.990255752927812 -3.4610323554989453
1704 -1.560164783969122 -2.4279346533976267 1.931275818888482
412 -6.966957002868938 -1.8203294574919056 -0.8830786139056129
442 1.4450577880864135 9.47785517786654 -3.0711323017169065
93 -1.7760378954674676 -1.311476130640046 -2.7195962685707484
1284 -2.893938988460542 0.6493440584429049 2.8141437512491327
505 6.32285029439077 -1.2452948781027673 -1.4636223629828917
1500 7.200806343326616 -1.6118896355308339 -4.015503327571061
510 1.074217049247561 2.1438145917735945 0.7600650187176186
557 7.423465054963512 -3.6798512462985644 3.7020748113068813
1742 1.0444051966385497 -0.22518805439706005 -5.763353127590737
1266 -4.231222297595947 1.313723299649367 -2.447230759941427
997 1.4607440596492944 0.5400640319485067 -1.103669668707786
307 -3.141023557584075 -6.730154777556517 -1.5691013034025858
1543 -1.957226096268856 -8.423106615740078 -0.45940042394986014
92 -13.13259125949805 -3.504277913505944 2.563129158637653
726 -1.976628588511048 0.40513791026063756 5.360312571143348
110 -0.06835405606690267 -3.3034577196856465 2.3029643167179388
46 0.7935598828879733 -4.373998566918608 2.815972172621245
781 -0.2126347949557959 1.8290508859367343 -0.6551553059976579
2159 -2.467180337404795 -3.3805042784739614 3.961203813451771
822 2.2239377539646568 2.1490869314331835 -3.214551340586034
819 -1.4338195209158089 1.325678692307673 4.464865829905043
1054 -3.697874821897849 -2.8065436503574404 0.148332037110773
464 3.2392253234478545 7.685197073806164 -1.252263777637932
1713 -1.6875723902619724 0.9178749497376953 -1.8201881084618976
1802 0.8831297015151484 4.335475668836979 1.4965451548334465
1833 -3.087527005769353 -1.8691829933461968 -2.779044512732784
1047 2.412143096839123 -3.4353916407712957 0.24383095801148633
744 -1.1889287754008835 -1.9619750517615018 0.5986296551098527
730 -4.307449915682212 -3.9260736609661366 2.436316383631389
1132 0.2537963089190438 0.18600481642086697 7.579451082605091
692 -2.812548244917384 1.1443085045740022 -5.545316510703793
831 0.9261239731082688 1.1635399697236357 -0.20724694653916628
324 2.017404875537101 0.47285927748217343 7.0021337075943455
1889 -4.900162955928138 -0.31326490721731715 1.7324212937055283
1288 5.759645392028156 0.9734357537649105 0.7993265983438768
629 -5.971615857689463 -5.329873555038554 -4.380941368287255
132 -6.915608674161436 4.352976023494963 2.9954170716768256
1504 -3.256515955252079 0.8885984583689069 1.2883406881917878
1328 -3.2383415533236133 4.429605536520783 -2.0300764229033743
1531 -2.5045802865069757 -0.948115328059489 -2.4786798255271814
244 -0.17992097458322398 2.921772072005454 0.929538977684591
1772 2.906805391680591 3.0339909742837565 4.312995277416847
1810 -1.6295139566670465 3.914287844477294 5.437381387954054
1078 -1.7345674292246054 -0.7108790547773577 -7.235540204198844
1743 -0.8387314507938075 2.2535793896948633 0.8774915035972769
1673 4.413668603962726 -0.8936836977556761 1.3130894805584366
797 -3.930411733384893 0.2694771336302988 -5.521256320606705
1779 -2.5457669332190425 -1.5269670443945071 4.08052062251389
1666 5.490327579825942 -3.7706942281087596 7.3638549548660395
847 -8.457454342678652 2.9835076884596807 8.718788801418825
1466 -0.3013271007805649 -3.0833560785653296 -4.634840301143053
1992 9.25807100283465 2.463148811477207 -0.36366718728248476
2040 1.822826828364728 -1.297174664201117 -0.11458293893644837
87 -6.621421313890814 -1.6370516864033615 1.5759763116583634
2024 -1.0841895442503289 6.387404045082098 3.593938794160357
1872 0.8684302851755269 0.702858287021682 1.043923077775512
1682 -1.8465445634709299 -4.779815591946019 -1.2321687998266153
1157 -2.4349640721539103 2.105248862913901 -1.0226437472239294
1628 4.102178600979847 -0.005619286096482861 2.3204090194205818
1202 5.317717768779732 -1.1586104999658864 1.7333198444496116
558 -1.8374870714379457 5.5193212876548845 0.5814152693607375
2043 -0.1280106931529713 -0.5096476085305005 -4.944176093718413
1795 4.278534230792573 5.241869042791277 -0.9060424456226159
1565 2.0499750766595604 5.538420208548399 5.01394773809944
362 2.159956370313865 -2.971492762130382 3.127804329647001
1985 2.0908244910479112 -2.0038531118020217 4.904353548822115
1379 4.376217067613665 1.079677402019421 -4.218138964825376
289 4.439415838786076 -3.6237847541166066 -1.5292868041209091
1750 2.849328814081924 -2.654637312324911 -1.1928745892221078
497 -6.564566545992355 6.3171287793601945 -5.52247775213865
100 -7.2437528277520995 -0.5322021035446804 0.818307319542391
1431 -3.4641155525327494 0.2645861678699155 -2.2761492994163737
1916 -4.388977475604607 6.150981173941967 0.5063952397298845
192 1.5249478322137844 -3.41893142317918 0.7651753019154001
964 -2.040727179629569 0.936603000985232 -0.6049421780415793
1232 -4.838750343179431 -0.3946528448472774 -0.14553445476974147
1298 2.674750602405693 3.560919549307264 -2.27661996528667
1399 3.0500672249696645 -4.273382151404232 -2.846981147191539
82 2.2174921736336684 -3.090218829963566 -1.832305811668719
1138 4.639602615000372 -0.9777385940907162 -1.2921436332750265
1177 2.8603242310298693 -4.703359172510941 -0.655712321891282
936 1.0870202619403282 -6.123416866147139 -4.188564360524335
18 -1.3749327986878057 2.452755976578019 -0.7655321153148397
809 7.5226965759222795 -2.3652082278425084 -5.163769647062783
1117 0.4649100757802941 0.6756449252018881 0.08278146390791008
1557 -1.4855722260892466 0.7480031072982819 3.194539779549316
534 3.8945476290688656 -2.094630463010636 -1.4640250310102514
1367 -2.7353952825049337 4.388170914674472 2.4419421908650705
1812 3.2366816030765864 0.22588329950375083 -0.8541164477286188
1476 3.0820176786675373 9.605910466468584 2.3397645564254823
1909 1.3046483341486153 1.646622877994272 -4.035177269574789
694 0.8714933501611174 5.304761133699336 1.4339415520140029
540 -1.7594803982645821 5.235437082300411 -0.10401146630383325
772 0.9685806140196405 -1.3302177550890302 1.4425019134180619
199 5.3399017381574785 -0.3450532895421477 1.5289188838079812
1586 1.3026790007712648 -4.4222160660263645 0.7732113850935795
1643 2.023861710802145 2.9905164264603177 -7.433398872990321
2052 0.0768054499796795 -6.992750744478347 -0.8611690910720046
1454 3.7497938622859497 -0.6506358618087698 2.596859425960697
420 3.237899172214659 2.8402712810582846 -0.28022001455070683
406 5.5800960630918075 5.130276063013934 -2.060054691563907
1946 -0.3163870979273183 -0.8759548120675611 1.4897724179912997
258 -5.912853423640117 -3.6384965114531633 2.734015688867466
1496 2.5966912709598744 -2.5779784798024092 -1.789670740138037
97 0.4401691994221693 0.23342900650071474 -1.1565630723983258
1595 -3.4058801649374773 0.2568554460069604 1.5494742003985744
1741 -2.6108347002751513 3.6372386275786273 -4.812680297842225
204 -3.2060118294947038 3.196951466642575 2.7670944343113875
742 -0.06007965220542114 4.09488809410272 -1.5629959059034217
832 1.7589754937915616 0.44174294965454025 -1.765841323969743
1652 1.9200198537461846 2.8013584294943157 2.4076407908958917
1891 -0.2561655503749485 5.7596064995065 8.88422769434104
1419 1.7118912753526963 -2.257689939596586 4.2748175431144935
1075 -1.202571217947654 -5.164467699416741 -3.27316604089964
1021 -2.8268804754928305 3.771066946689676 2.9905675452046587
48 -1.1955654843115553 -4.2995497642296225 -5.559845842481565
861 -1.6442472370633265 -2.520901751782904 6.902419531411461
1661 -4.151188540045683 4.548422480009937 -1.765295202149598
974 3.7222432711151137 -1.3938068787237303 -0.8012324721363377
1510 0.33821088001125044 4.639875592254447 -2.2698187035503445
2056 3.952374652065088 -1.1882106794225742 -0.18374086049364385
1906 1.9315897873683563 8.613120592837578 0.8966628343702686
793 -3.7045050415424186 -0.5071318904346438 -1.716974259708724
1584 -6.207316325563462 0.5331394052012848 -4.212840775127737
211 2.7963196441759828 -3.7565563719095607 5.37377981957182
456 1.9690857861193243 0.9680722387394366 -0.8847364560309064
1237 -2.7941645891137457 0.713523384392793 3.021539531394824
345 -4.537743613361654 -1.1094065166482823 -0.35905184282396435
1797 -2.7239444152826238 5.680740589156386 -5.8874863895874325
1359 4.693696981721824 -2.3647181159353554 -1.711318343246191
570 -2.4701454881525935 -0.7059850531438127 -3.0450335405544164
269 -2.1841198972503415 -1.720340749484557 -1.6132693857191036
685 -4.239876186423697 -0.1677734470445829 -5.438834392554315
1174 5.6730591218006765 2.7858602839678785 -1.4625827696416804
854 3.204201177660437 -0.17167962916941987 1.4287211763795238
250 -3.814366209202498 3.686617941614341 -2.4465372870568753
351 -2.0501529046619624 -0.03144198195777594 5.383512030598745
356 -9.351536537691317 8.898504243905528 -0.02166038532052775
1402 -5.198558872140034 1.973394716713275 2.8384964483959982
994 1.909905445458388 4.781972216158714 2.107476942322949
422 3.622110699430302 3.7593428721801434 -3.707724741732435
2107 1.558704195132329 2.0622204497784993 -7.566590368441026
1674 3.1180688511269548 -0.9253486576392052 6.477267903707941
813 -3.6961170589718932 4.0221906563836765 -3.996062836408155
1170 1.4107658097895481 -3.6368332266787986 2.2691660405301937
1549 -1.3471493051920342 -0.266039211165787 0.1828488742938222
1786 7.464147507255583 0.41095880035601645 -3.163716201894012
923 1.065843711682701 -3.6433320099740962 -2.89989468257548
719 0.4939916821827759 0.6273075567276467 -0.09434353490029954
397 1.3696822057985816 -0.38127674158700225 0.7988492011648468
1568 1.9765673465806044 4.484402208079114 2.97397247681915
1950 6.661070468142257 3.244494526014595 -1.019581769653601
427 1.440576328553396 -2.8138209544404544 1.8277053408156874
1204 -0.6322406661855908 -6.9507518910946 4.423656038901396
958 0.9587058365368667 0.44590562619142826 2.154298614473939
1631 -2.729549526072984 -0.5209228119075843 4.659313651176321
1744 -0.9640497478744332 2.774917355572774 -2.2226195151022354
317 6.318590709827281 2.72859965694361 3.3439711723968295
689 0.09584114183645566 1.7820447934964325 -1.089466463541262
2049 -5.264721547394342 5.586708088870197 4.015305173689239
339 -5.932289217428449 -2.854607553390197 -2.8324621672361125
1275 -1.4073389064309132 0.8221594365913214 2.707885059695783
900 -6.4756575460302255 -3.7037945966503982 -0.8300146815574901
1574 4.43479160665144 3.947822414121922 -4.259060277864829
1579 5.56882484577552 -1.696246692048622 -3.82356694310366
1862 -2.107540757530243 -0.9480774559425195 1.0978237412792153
1267 0.3046166833349427 -4.068810081313123 0.27058470438007354
227 1.751340005395257 -0.5349771877719283 4.3314555158332695
1725 -4.629841089384321 -5.572122592852891 -0.7958022263368869
128 4.540522373501479 -0.7931627856564546 10.192684974360706
440 -2.2243885068941283 -5.6909419737750655 -0.24678071939253393
1767 1.2186584040844022 1.8212767114163646 -3.8696270584173855
1871 -7.826623772502159 3.415786326477687 -2.4467312388703966
2071 0.5013364106289314 -4.52932807311836 1.4585856525053584
2053 -1.4642053578735585 -3.3147402205112373 -3.2177633216892687
85 -2.4919997957306954 -0.4715505440576675 1.7408950222006991
404 0.04917143104116893 1.0001164575960206 1.1214242332437037
1991 -5.3462979744723365 0.9410970665934499 -0.8746746313816812
36 -9.027651985785464 8.659858690171555 5.409094813902531
95 1.3697896475492861 0.010461488304556269 -2.3146628726956826
26 -3.9395648672697914 -2.6512992982908195 3.002422114673361
705 -0.20528365566618528 0.005863466277090929 6.026535112927243
796 2.6115339945169924 1.7260361885684707 0.995614587337036
1605 -1.2276117913626885 -0.5516543708245248 1.2695052664728186
1770 -6.867489445483957 -1.8022363124292884 -4.73187128247198
1937 -3.2796857524654386 2.4121074663136763 7.0168302138825585
1667 -2.3037162764173975 -0.10793569732128354 3.4390535674508422
1898 -4.7493039849032135 3.1406920304530503 0.22763155593752685
1344 0.24852852133618739 0.6959273615779041 -2.8821877279746593
1539 2.6645241110307016 -6.395395801267826 -0.33251843699764966
468 5.2095423290596425 1.459343204930544 -2.36559865928873
683 10.215807125055044 3.5068197910235472 3.441016924313731
2041 2.8838716408276754 -0.6803061784144249 2.6823918512811606
1200 -3.1242092986925343 2.2925195700420935 2.4877441558434215
1098 -7.666148215762837 -8.966548754398184 2.7121587720555156
1034 -0.3127158507710948 0.19928732369558882 0.22267690836325016
2124 0.741833088686322 -4.907242294425977 -2.926251238694568
1552 0.7036151550951152 1.7120999393125773 -2.3800616851070564
996 0.7730855373020784 5.990201060653469 -4.135231367771969
513 -6.4208144749982345 -3.4156063425804835 -1.0336383803153528
661 -0.6652584605780463 -1.7624287259240197 3.91163050857513
977 4.6365917381003054 1.7181973151195102 0.9909193421133802
10 4.753853171933619 -6.167379640251019 3.511176250525624
987 3.71559922999408 -0.9285765113634464 1.3060043291571495
1235 3.4936742567915178 0.01724128840719509 -2.131659309029527
739 8.634488195887867 2.1584971515972815 3.227222933114192
1125 -1.7702559070724337 0.1402569666206978 -0.41098746630092947
1123 -1.9270897551433628 -0.6421230234404023 1.9811132267015046
603 4.692620121209014 -6.057183690584605 0.4256444494427184
1879 -1.2619442255815294 2.7526717578625313 -1.91849006988602
625 -4.96531949072318 0.9587098152857669 1.541048859375869
1615 3.3431455449570553 3.0108464644099606 -6.745549593633646
1512 -6.774998624109289 -1.0360157366536036 1.8608519141060522
1469 1.2700291530290952 3.1066713455153687 -7.387518179230458
1225 1.8787472340007438 -1.7350583499182572 -2.0863309958582765
394 -5.202321891107777 1.919015015033217 9.094052462064605
191 0.9048924453001624 1.3684930096351267 3.8611446674648247
2139 -0.05614036791360737 2.623854239146838 -2.7012857425901986
260 -3.1947619343568108 6.629387297350865 3.7423738835810956
80 0.023588255581284988 -1.3869064764535985 -4.682922492462689
1330 -4.522315141766951 -2.362886478914839 -0.4367229800480518
553 0.48653507086549924 -0.4597808127985403 -1.6034556715237223
40 -1.748338972249505 -2.5231947652463975 -3.892552376203453
1260 -2.851643768551006 -1.6696396231673079 -5.663020445381263
58 2.4073443228273828 -8.60630659235311 4.008178144970145
1057 -2.043504910087493 -0.11600899197218258 2.4599897529963664
2025 -0.011342090475164497 -0.5530945625701971 2.3281520253952643
495 -0.164455184318988 -1.668000207346522 3.874068496792171
1062 -0.5896473952407574 4.020314148942981 -9.545312158988482
114 -0.0687215217878784 0.28224128326858144 0.09949280220835123
225 -0.7714793268010133 -0.7084536923248609 0.21172325770859526
1377 6.412126923293178 -7.045260854494712 -1.0995632443400674
487 -6.042671346960327 -5.234728601915286 3.751479451107784
470 2.422648107940323 1.7124847679674273 -3.371800921015462
2148 6.501302433361897 -4.676222855405156 -1.2346723300062483
44 -7.9078468756149025 -3.8158123217787105 5.21153514287243
1588 5.9822376887558555 -1.3165948447094138 6.313709075961413
430 -1.0940183163283341 -1.1453215569276562 5.018434737517161
1297 4.009149389915035 -2.324924721956992 4.164411745809462
463 -0.4476035963249371 2.539866659273953 3.814818809835558
681 -1.8861189472435027 -4.553292986879554 -6.18360795748503
1551 0.5222315252330603 5.8451088785656085 2.2296858302398643
624 -0.35652634671106154 -3.9390222341340055 3.74117723569797
1011 -4.306864301297188 2.098326106519829 1.4610432068747738
1018 1.808186561037056 1.527979810376019 -4.357931063118979
1091 2.762553572608259 -1.4169878752107739 -0.5654185606648744
1936 1.1001850776581632 -1.2580797778269517 -0.2197906796400278
336 -7.161585453260088 6.553499847338964 -1.0341361982206372
1843 6.2958140683534705 6.308824597841772 4.104070790722653
1706 -0.37795200639921134 1.203477195911591 0.6367481820816623
622 0.2587701778272155 -1.6467454855209696 4.353849921810736
333 5.7621949261827785 -3.5739450753934525 -7.314607471300863
1901 2.174421471370786 -0.35949591575539347 -4.224703942413068
206 4.7670843821793465 -1.0550783675602078 2.962026461894239
1081 1.067057149732706 -1.185178638470214 1.116918029137707
881 7.9772113136141884 2.995615760945888 -9.024942142482868
1087 -4.101943711794298 3.948890239321178 2.1293498702096194
383 -0.24609914961425614 -1.9809025808704173 1.9690886856439336
666 3.372539476410558 -2.8632272860196046 -4.674884768314352
1154 3.687544806650209 -1.1928709451872435 -0.10858023088639045
2143 1.9657308023874869 -1.216189722533202 -5.750996559131314
1264 -4.538617455506132 6.681002874989509 -1.4885659130261681
37 1.9418820120889162 -1.6006828766127081 -5.473557609404136
215 -0.7891840539200512 -5.209178288723855 0.8964624662157145
1484 -4.65154999902211 5.46580555017111 1.8587936305849457
1259 -5.928444329372891 -3.644854135350698 4.954175945931438
12 -0.41158157343965196 0.6304323335486482 2.095583797154296
2031 4.0071052948712 -1.0090027995982467 -0.24055390363655918
1573 3.9765825311286447 -1.4918839989640365 5.893790101063085
799 -2.4600860274153384 -6.785911407037064 1.6133819349247172
1815 -0.9398538506722046 -0.7032318242976968 -3.883911196593692
787 -2.28738125545395 8.23918536277261 -6.921058133365131
1050 1.76087991461914 -1.508323438562268 5.575999146463733
842 -0.265086157347638 2.618881151237737 2.3082072349037714
393 -3.812994931749002 -0.7052463658084157 5.590661120256622
1578 3.737322705185574 -1.6686124832033447 4.061122691266904
1023 0.5552487735398912 -0.6936417815640483 -0.3380508885771252
2081 -0.7232008834018019 -3.7327001094330448 3.5844689670116483
1380 3.3700837962687102 5.338100540105235 -1.1031305486831933
1965 1.16173318903821 -2.668646992928762 -2.7149923734817896
749 -3.5607638213822876 0.6119707247702983 -2.6393283364210136
1160 7.596862118151625 0.4924748078391278 -0.8223319560837922
2007 -2.7327312026233463 1.3228164247957612 -0.4359406045503584
1902 2.0128911216917205 -9.074655004160608 -1.461064242197661
137 -5.207629166035237 -6.038975359736911 -0.8885217720210855
1436 -0.8337155950785714 -8.229545321555701 0.22632296674522107
1116 11.38095913308698 1.115075984847028 5.539976376951781
1945 -0.20744153510822197 2.432327289510575 4.148074602760298
1069 -0.7666789064414906 5.531096211345577 3.783620000629444
779 3.5666275979943247 -1.2177709841345665 -1.5872244929149975
755 -1.9389896075995323 -2.2201070499680666 -0.6383126408536778
239 2.1103874434564087 6.808898605436044 -1.5230845960552626
230 -0.9597754198226561 0.3385217240853126 0.16346178222366242
1016 2.119564529256234 -6.912535723686089 0.11613311341228473
547 -2.1345363496560728 1.8293059069478652 3.776206753667205
634 6.973911344408782 -2.311884033460677 6.697675489977473
1382 -1.9987309990965691 1.413334576044782 -3.28078727180596
1890 -4.0445691491829425 -3.3855708061209455 -1.8848871873914885
1424 2.0381872538284584 0.3816373190224324 8.396829033576365
1394 -2.004595839311974 -6.566038162081045 1.2365257323223244
411 1.2425445853246042 1.705618048802476 0.052919049462744824
1845 1.637485610751837 6.418446230025097 6.5456804813122105
346 3.450207090969479 3.351948707276126 5.163591894543067
711 -2.663438459069606 -2.0685042382219314 -3.069289448351121
221 -0.5689203720878775 -0.2597035389898655 -0.4101923313063499
1252 -3.315685437815476 3.9479314831478463 -2.169115775956516
1439 -1.917404733449458 -2.641621533573851 -0.2933065642212054
1085 6.0275357185661464 -5.2265645621686465 0.9993226236207496
1993 -0.44305714854063283 -1.0579192711232117 -0.7150248840413018
117 0.03671071792923306 0.9148241165308871 -1.002694056122647
212 -4.575238627249667 3.779327690475271 1.514031213581599
766 -7.740252897115744 2.8781162196656918 4.014960405155448
1020 -1.5984957795537014 13.691642147978717 -1.4821640826023927
2149 -1.6265733788735206 3.0216849807317216 -2.4507284182758453
1621 0.724204568388036 -0.31869809302498303 1.9563841931782417
1387 -0.1468582297109317 -0.016103757305368116 7.229174390512336
358 -2.2181315631055543 -0.23447158713008331 -3.175124967231172
125 -1.9432642040170394 -1.7698503335482936 1.4167949959390504
2078 0.9656300483247461 -2.792350382155945 -2.7618412595307023
1654 0.49165652861354153 -8.468403263156345 2.6330188224394284
1122 -0.5855204982349335 -6.6790514945166 -0.3995364162555674
504 -1.8424473534636445 0.5416598578362026 2.539987925439206
1817 0.35988456508273425 -0.4725113698771133 -2.553509711970498
1585 -0.7863767191370467 2.437341290169548 -4.971225572060521
366 2.9950956342148416 1.402128112490445 -2.490720613946645
43 -2.4370741451484044 6.005440992742553 2.1343481954732018
220 1.0729422426160093 6.7776705916657844 1.0555290376796052
1447 -0.8626888301061773 -4.822580480705745 6.77776868154092
1194 5.342402433369669 -4.5566640122637265 2.582182039190809
265 -0.9564466282482266 7.590246623795614 0.6668757265693137
391 -3.6122933489610625 3.708858136897246 -4.616999038833696
1855 2.680680020432365 -0.7714303948479554 -2.2454700578522466
1632 -1.0349490105639882 -3.4665399736763463 -1.9275413147813387
1801 3.797549174757316 -0.32658378328445786 2.3726250142551404
2029 1.4370136576370325 2.4968214479388706 2.516041805280186
35 11.073670534691649 -8.453589645814679 0.7793083250242395
826 -3.1765946986142013 0.6152435708942176 0.2554487337991703
198 -1.3292231592105284 -0.7612500902508905 1.2876532833206853
782 -2.772635354613225 -0.75646631036996 2.227217979107856
919 5.735238682583234 -5.931377946928327 -2.9907795901160457
1975 3.6988889122740183 6.709725182264159 -7.434526929943633
326 4.870442107157452 1.2612173891622185 4.084696874026126
652 0.6108214667492999 1.1769980897174166 0.5634798587281774
1644 3.800230564695836 -4.306104383048983 -3.6111042627115033
1251 3.9630462192862312 -0.5729094976386687 -2.56893973110546
1072 -1.776438851388935 -1.505497231785506 -1.0109471932937257
1231 -4.260342290275331 0.08434672187206914 -2.1565946594332863
1988 -2.21189563069921 -2.656346449582287 -0.931508501165967
1914 -2.2086963629607825 -8.418665917682866 -0.21273608354396334
1086 -2.338306055582815 0.7292068928683826 -2.8489850856176937
2077 7.433643357950995 0.6712092774715884 4.736394560639388
526 2.701909294744599 -1.1526055023557074 3.1562008875713428
562 -3.1903282254634915 -2.2748196119267248 -2.8277498393011564
1187 -7.755208728423139 -0.24637315904027257 -4.1889947732536825
2085 2.662818167296481 1.437495620940318 -1.2777844550257946
1870 4.388154951787314 -2.7056306287982292 -4.100650472176795
1488 -0.477872395125759 4.822162368596875 1.5314220102906504
2127 -3.3996876893406713 -4.887450656254294 -2.4725255888497246
783 -0.8899498217013646 -0.09045650795308245 0.0814348216903053
426 -3.187720183739571 -7.310652219967202 -8.759102235592891
