LAMMPS (2 Aug 2023 - Update 3)
  using 1 OpenMP thread(s) per MPI task
# S2'-3  E-V 스캔 (BKS) — 7net 과 **완전히 동일한 절차**로 K0 를 뽑아 비교한다.
#
# 왜: in.ev220 으로 7net 의 K0 = 43.08 GPa 를 얻었는데 BKS 쪽이 비어 있다.
#     밀도는 3자 비교(7net 2.219 / BKS 2.312 / exp 2.20)인데 탄성률만 7net 단독이라
#     비교가 반쪽이다. BKS 는 초 단위라 안 할 이유가 없다.
#
# 출발: 02_run/s0_requench/sio2_bks220.data (ρ=2.20, 재quench 산물)
#   -var s <선형 스케일> 로 등방 스케일 후 원자만 이완. etol=0, velocity 0.
#   7net 런과 같은 부피점(f = 0.94~1.06)을 쓴다.
#
# 실행: run_ev_bks.sh

units           metal
boundary        p p p
atom_style      charge

read_data       ../s0_requench/sio2_bks220.data
Reading data file ...
  orthogonal box = (-0.13095199 -0.13140962 -0.15165528) to (30.269865 30.375648 35.055481)
  1 by 2 by 3 MPI processor grid
  reading atoms ...
  2160 atoms
  reading velocities ...
  2160 velocities
  read_data CPU = 0.017 seconds
mass            1 15.9994
mass            2 28.0855
# 전하는 data 파일에 포함 (O -1.2, Si +2.4)

pair_style      hybrid/overlay buck/coul/long 10.0 lj/cut 1.5
pair_coeff      1 1 buck/coul/long 1388.7730 0.362318 175.0000
pair_coeff      1 2 buck/coul/long 18003.7572 0.205205 133.5381
pair_coeff      2 2 buck/coul/long 0.0 1.0 0.0
pair_coeff      1 1 lj/cut 3.0 1.50 1.50
pair_coeff      1 2 lj/cut 4.0 1.10 1.10
pair_coeff      2 2 lj/cut 0.0 1.0  1.0
kspace_style    pppm 1.0e-4

neighbor        2.0 bin
neigh_modify    every 1 delay 0 check yes

change_box      all x scale ${s} y scale ${s} z scale ${s} remap
change_box      all x scale 0.97258883 y scale ${s} z scale ${s} remap
change_box      all x scale 0.97258883 y scale 0.97258883 z scale ${s} remap
change_box      all x scale 0.97258883 y scale 0.97258883 z scale 0.97258883 remap
Changing box ...
  orthogonal box = (0.285709 -0.13140962 -0.15165528) to (29.853204 30.375648 35.055481)
  orthogonal box = (0.285709 0.28670746 -0.15165528) to (29.853204 29.957531 35.055481)
  orthogonal box = (0.285709 0.28670746 0.33087912) to (29.853204 29.957531 34.572946)

velocity        all set 0.0 0.0 0.0        # Press 를 순수 virial 로 (규칙 6)

variable        epa  equal pe/atoms
variable        dens equal density
variable        fmag atom sqrt(fx*fx+fy*fy+fz*fz)
compute         maxf all reduce max v_fmag

thermo          100
thermo_style    custom step pe v_epa press vol v_dens c_maxf

min_style       cg
min_modify      dmax 0.05
minimize        0.0 1.0e-4 5000 5000       # BKS 는 싸므로 넉넉히. etol=0 (규칙 7)
PPPM initialization ...
  using 12-bit tables for long-range coulomb (src/kspace.cpp:342)
  G vector (1/distance) = 0.29904981
  grid = 24 24 27
  stencil order = 5
  estimated absolute RMS force accuracy = 0.0012983226
  estimated relative force accuracy = 9.0163518e-05
  using double precision FFTW3
  3d grid and FFT values/proc = 9424 2880
Generated 0 of 1 mixed pair_coeff terms from geometric mixing rule
Neighbor list info ...
  update: every = 1 steps, delay = 0 steps, check = yes
  max neighbors/atom: 2000, page size: 100000
  master list distance cutoff = 12
  ghost atom cutoff = 12
  binsize = 6, bins = 5 5 6
  2 neighbor lists, perpetual/occasional/extra = 2 0 0
  (1) pair buck/coul/long, perpetual
      attributes: half, newton on
      pair build: half/bin/atomonly/newton
      stencil: half/bin/3d
      bin: standard
  (2) pair lj/cut, perpetual, trim from (1)
      attributes: half, newton on, cut 3.5
      pair build: trim
      stencil: none
      bin: none
Per MPI rank memory allocation (min/avg/max) = 6.264 | 6.342 | 6.65 Mbytes
   Step         PotEng         v_epa          Press          Volume         v_dens         c_maxf    
         0  -41536.802     -19.230001      157681.25      30040.29       2.3913241      5.8703242    
       100  -41728.845     -19.31891       12168.402      30040.29       2.3913241      0.1122938    
       200  -41729.48      -19.319203      10308.865      30040.29       2.3913241      0.15267448   
       242  -41729.658     -19.319286      10991.54       30040.29       2.3913241      0.11164518   
Loop time of 1.37074 on 6 procs for 242 steps with 2160 atoms

97.5% CPU use with 6 MPI tasks x 1 OpenMP threads

Minimization stats:
  Stopping criterion = linesearch alpha is zero
  Energy initial, next-to-last, final = 
     -41536.8019455393  -41729.6584609556  -41729.6584609556
  Force two-norm initial, final = 101.19669 0.40603858
  Force max component initial, final = 5.1592338 0.097975492
  Final line search alpha, max atom move = 5.38431e-08 5.2753042e-09
  Iterations, force evaluations = 242 630

MPI task timing breakdown:
Section |  min time  |  avg time  |  max time  |%varavg| %total
---------------------------------------------------------------
Pair    | 0.93134    | 1.0191     | 1.1029     |   5.6 | 74.35
Kspace  | 0.22267    | 0.30654    | 0.39444    |  10.2 | 22.36
Neigh   | 0.0031247  | 0.0033127  | 0.0034518  |   0.2 |  0.24
Comm    | 0.031893   | 0.03232    | 0.032996   |   0.3 |  2.36
Output  | 0.00012169 | 0.00012912 | 0.00016508 |   0.0 |  0.01
Modify  | 0          | 0          | 0          |   0.0 |  0.00
Other   |            | 0.009348   |            |       |  0.68

Nlocal:            360 ave         372 max         335 min
Histogram: 1 0 0 0 0 0 0 3 1 1
Nghost:        4966.33 ave        4987 max        4947 min
Histogram: 1 0 0 2 0 1 0 1 0 1
Neighs:        93515.8 ave       98979 max       86502 min
Histogram: 1 0 0 1 1 0 1 0 0 2

Total # of neighbors = 561095
Ave neighs/atom = 259.7662
Neighbor list builds = 2
Dangerous builds = 0

variable        Vf equal vol
variable        Df equal density
variable        Ef equal pe
variable        ef equal pe/atoms
variable        Pf equal press
variable        Ff equal c_maxf
print           "EVPOINT ${s} ${Vf} ${Df} ${Ef} ${ef} ${Pf} ${Ff}"
EVPOINT 0.97258883 30040.2895734418 2.39132413432029 -41729.6584609556 -19.3192863245165 10991.5402966869 0.111645175741523
Total wall time: 0:00:01
