LAMMPS (2 Aug 2023 - Update 3)
  using 1 OpenMP thread(s) per MPI task
# S2'-3  E-V 스캔 (BKS) — 7net 과 **완전히 동일한 절차**로 K0 를 뽑아 비교한다.
#
# 왜: in.ev220 으로 7net 의 K0 = 43.08 GPa 를 얻었는데 BKS 쪽이 비어 있다.
#     밀도는 3자 비교(7net 2.219 / BKS 2.312 / exp 2.20)인데 탄성률만 7net 단독이라
#     비교가 반쪽이다. BKS 는 초 단위라 안 할 이유가 없다.
#
# 출발: 02_run/s0_requench/sio2_bks220.data (ρ=2.20, 재quench 산물)
#   -var s <선형 스케일> 로 등방 스케일 후 원자만 이완. etol=0, velocity 0.
#   7net 런과 같은 부피점(f = 0.94~1.06)을 쓴다.
#
# 실행: run_ev_bks.sh

units           metal
boundary        p p p
atom_style      charge

read_data       ../s0_requench/sio2_bks220.data
Reading data file ...
  orthogonal box = (-0.13095199 -0.13140962 -0.15165528) to (30.269865 30.375648 35.055481)
  1 by 2 by 3 MPI processor grid
  reading atoms ...
  2160 atoms
  reading velocities ...
  2160 velocities
  read_data CPU = 0.018 seconds
mass            1 15.9994
mass            2 28.0855
# 전하는 data 파일에 포함 (O -1.2, Si +2.4)

pair_style      hybrid/overlay buck/coul/long 10.0 lj/cut 1.5
pair_coeff      1 1 buck/coul/long 1388.7730 0.362318 175.0000
pair_coeff      1 2 buck/coul/long 18003.7572 0.205205 133.5381
pair_coeff      2 2 buck/coul/long 0.0 1.0 0.0
pair_coeff      1 1 lj/cut 3.0 1.50 1.50
pair_coeff      1 2 lj/cut 4.0 1.10 1.10
pair_coeff      2 2 lj/cut 0.0 1.0  1.0
kspace_style    pppm 1.0e-4

neighbor        2.0 bin
neigh_modify    every 1 delay 0 check yes

change_box      all x scale ${s} y scale ${s} z scale ${s} remap
change_box      all x scale 0.96548938 y scale ${s} z scale ${s} remap
change_box      all x scale 0.96548938 y scale 0.96548938 z scale ${s} remap
change_box      all x scale 0.96548938 y scale 0.96548938 z scale 0.96548938 remap
Changing box ...
  orthogonal box = (0.39362354 -0.13140962 -0.15165528) to (29.74529 30.375648 35.055481)
  orthogonal box = (0.39362354 0.39499912 -0.15165528) to (29.74529 29.849239 35.055481)
  orthogonal box = (0.39362354 0.39499912 0.45585477) to (29.74529 29.849239 34.447971)

velocity        all set 0.0 0.0 0.0        # Press 를 순수 virial 로 (규칙 6)

variable        epa  equal pe/atoms
variable        dens equal density
variable        fmag atom sqrt(fx*fx+fy*fy+fz*fz)
compute         maxf all reduce max v_fmag

thermo          100
thermo_style    custom step pe v_epa press vol v_dens c_maxf

min_style       cg
min_modify      dmax 0.05
minimize        0.0 1.0e-4 5000 5000       # BKS 는 싸므로 넉넉히. etol=0 (규칙 7)
PPPM initialization ...
  using 12-bit tables for long-range coulomb (src/kspace.cpp:342)
  G vector (1/distance) = 0.29959636
  grid = 24 24 27
  stencil order = 5
  estimated absolute RMS force accuracy = 0.0012701884
  estimated relative force accuracy = 8.8209699e-05
  using double precision FFTW3
  3d grid and FFT values/proc = 9424 2880
Generated 0 of 1 mixed pair_coeff terms from geometric mixing rule
Neighbor list info ...
  update: every = 1 steps, delay = 0 steps, check = yes
  max neighbors/atom: 2000, page size: 100000
  master list distance cutoff = 12
  ghost atom cutoff = 12
  binsize = 6, bins = 5 5 6
  2 neighbor lists, perpetual/occasional/extra = 2 0 0
  (1) pair buck/coul/long, perpetual
      attributes: half, newton on
      pair build: half/bin/atomonly/newton
      stencil: half/bin/3d
      bin: standard
  (2) pair lj/cut, perpetual, trim from (1)
      attributes: half, newton on, cut 3.5
      pair build: trim
      stencil: none
      bin: none
Per MPI rank memory allocation (min/avg/max) = 6.267 | 6.345 | 6.654 Mbytes
   Step         PotEng         v_epa          Press          Volume         v_dens         c_maxf    
         0  -41462.097     -19.195415      214662.79      29387.239      2.4444647      6.2654441    
       100  -41723.563     -19.316464      19604.578      29387.239      2.4444647      0.18877195   
       200  -41724.833     -19.317052      17512.865      29387.239      2.4444647      0.17565084   
       245  -41725.071     -19.317163      17195.8        29387.239      2.4444647      0.044451217  
Loop time of 1.30213 on 6 procs for 245 steps with 2160 atoms

97.3% CPU use with 6 MPI tasks x 1 OpenMP threads

Minimization stats:
  Stopping criterion = linesearch alpha is zero
  Energy initial, next-to-last, final = 
     -41462.0973131655  -41725.0711617248  -41725.0711617248
  Force two-norm initial, final = 111.16717 0.35558076
  Force max component initial, final = 5.4969845 0.03104516
  Final line search alpha, max atom move = 7.2187644e-08 2.241077e-09
  Iterations, force evaluations = 245 590

MPI task timing breakdown:
Section |  min time  |  avg time  |  max time  |%varavg| %total
---------------------------------------------------------------
Pair    | 0.90848    | 0.97348    | 1.0424     |   4.8 | 74.76
Kspace  | 0.21404    | 0.28313    | 0.34818    |   8.9 | 21.74
Neigh   | 0.0031528  | 0.0033093  | 0.0034525  |   0.2 |  0.25
Comm    | 0.032317   | 0.03258    | 0.033014   |   0.1 |  2.50
Output  | 0.00011735 | 0.000124   | 0.00015517 |   0.0 |  0.01
Modify  | 0          | 0          | 0          |   0.0 |  0.00
Other   |            | 0.009503   |            |       |  0.73

Nlocal:            360 ave         373 max         338 min
Histogram: 1 0 0 0 0 1 1 2 0 1
Nghost:        5035.33 ave        5070 max        5001 min
Histogram: 1 1 0 0 1 1 0 1 0 1
Neighs:          95610 ave      101926 max       89565 min
Histogram: 2 0 0 0 2 0 0 0 0 2

Total # of neighbors = 573660
Ave neighs/atom = 265.58333
Neighbor list builds = 2
Dangerous builds = 0

variable        Vf equal vol
variable        Df equal density
variable        Ef equal pe
variable        ef equal pe/atoms
variable        Pf equal press
variable        Ff equal c_maxf
print           "EVPOINT ${s} ${Vf} ${Df} ${Ef} ${ef} ${Pf} ${Ff}"
EVPOINT 0.96548938 29387.2390368051 2.44446473413078 -41725.0711617248 -19.3171625748726 17195.8002101954 0.0444512172946624
Total wall time: 0:00:01
