LAMMPS (2 Aug 2023 - Update 3)
  using 1 OpenMP thread(s) per MPI task
# S2'-3  E-V 스캔 (BKS) — 7net 과 **완전히 동일한 절차**로 K0 를 뽑아 비교한다.
#
# 왜: in.ev220 으로 7net 의 K0 = 43.08 GPa 를 얻었는데 BKS 쪽이 비어 있다.
#     밀도는 3자 비교(7net 2.219 / BKS 2.312 / exp 2.20)인데 탄성률만 7net 단독이라
#     비교가 반쪽이다. BKS 는 초 단위라 안 할 이유가 없다.
#
# 출발: 02_run/s0_requench/sio2_bks220.data (ρ=2.20, 재quench 산물)
#   -var s <선형 스케일> 로 등방 스케일 후 원자만 이완. etol=0, velocity 0.
#   7net 런과 같은 부피점(f = 0.94~1.06)을 쓴다.
#
# 실행: run_ev_bks.sh

units           metal
boundary        p p p
atom_style      charge

read_data       ../s0_requench/sio2_bks220.data
Reading data file ...
  orthogonal box = (-0.13095199 -0.13140962 -0.15165528) to (30.269865 30.375648 35.055481)
  1 by 2 by 3 MPI processor grid
  reading atoms ...
  2160 atoms
  reading velocities ...
  2160 velocities
  read_data CPU = 0.017 seconds
mass            1 15.9994
mass            2 28.0855
# 전하는 data 파일에 포함 (O -1.2, Si +2.4)

pair_style      hybrid/overlay buck/coul/long 10.0 lj/cut 1.5
pair_coeff      1 1 buck/coul/long 1388.7730 0.362318 175.0000
pair_coeff      1 2 buck/coul/long 18003.7572 0.205205 133.5381
pair_coeff      2 2 buck/coul/long 0.0 1.0 0.0
pair_coeff      1 1 lj/cut 3.0 1.50 1.50
pair_coeff      1 2 lj/cut 4.0 1.10 1.10
pair_coeff      2 2 lj/cut 0.0 1.0  1.0
kspace_style    pppm 1.0e-4

neighbor        2.0 bin
neigh_modify    every 1 delay 0 check yes

change_box      all x scale ${s} y scale ${s} z scale ${s} remap
change_box      all x scale 0.99328839 y scale ${s} z scale ${s} remap
change_box      all x scale 0.99328839 y scale 0.99328839 z scale ${s} remap
change_box      all x scale 0.99328839 y scale 0.99328839 z scale 0.99328839 remap
Changing box ...
  orthogonal box = (-0.028932771 -0.13140962 -0.15165528) to (30.167846 30.375648 35.055481)
  orthogonal box = (-0.028932771 -0.029033881 -0.15165528) to (30.167846 30.273272 35.055481)
  orthogonal box = (-0.028932771 -0.029033881 -0.033506994) to (30.167846 30.273272 34.937332)

velocity        all set 0.0 0.0 0.0        # Press 를 순수 virial 로 (규칙 6)

variable        epa  equal pe/atoms
variable        dens equal density
variable        fmag atom sqrt(fx*fx+fy*fy+fz*fz)
compute         maxf all reduce max v_fmag

thermo          100
thermo_style    custom step pe v_epa press vol v_dens c_maxf

min_style       cg
min_modify      dmax 0.05
minimize        0.0 1.0e-4 5000 5000       # BKS 는 싸므로 넉넉히. etol=0 (규칙 7)
PPPM initialization ...
  using 12-bit tables for long-range coulomb (src/kspace.cpp:342)
  G vector (1/distance) = 0.29746927
  grid = 24 24 27
  stencil order = 5
  estimated absolute RMS force accuracy = 0.001382851
  estimated relative force accuracy = 9.6033688e-05
  using double precision FFTW3
  3d grid and FFT values/proc = 9424 2880
Generated 0 of 1 mixed pair_coeff terms from geometric mixing rule
Neighbor list info ...
  update: every = 1 steps, delay = 0 steps, check = yes
  max neighbors/atom: 2000, page size: 100000
  master list distance cutoff = 12
  ghost atom cutoff = 12
  binsize = 6, bins = 6 6 6
  2 neighbor lists, perpetual/occasional/extra = 2 0 0
  (1) pair buck/coul/long, perpetual
      attributes: half, newton on
      pair build: half/bin/atomonly/newton
      stencil: half/bin/3d
      bin: standard
  (2) pair lj/cut, perpetual, trim from (1)
      attributes: half, newton on, cut 3.5
      pair build: trim
      stencil: none
      bin: none
Per MPI rank memory allocation (min/avg/max) = 6.257 | 6.272 | 6.288 Mbytes
   Step         PotEng         v_epa          Press          Volume         v_dens         c_maxf    
         0  -41635.998     -19.275925      15684.1        31999.439      2.2449165      4.844829     
        86  -41726.532     -19.317839     -12286.22       31999.439      2.2449165      0.032810505  
Loop time of 0.687116 on 6 procs for 86 steps with 2160 atoms

97.2% CPU use with 6 MPI tasks x 1 OpenMP threads

Minimization stats:
  Stopping criterion = linesearch alpha is zero
  Energy initial, next-to-last, final = 
     -41635.9977211807  -41726.5318449442  -41726.5318449442
  Force two-norm initial, final = 81.080017 0.18254962
  Force max component initial, final = 4.520525 0.026557365
  Final line search alpha, max atom move = 2.0321621e-07 5.3968871e-09
  Iterations, force evaluations = 86 336

MPI task timing breakdown:
Section |  min time  |  avg time  |  max time  |%varavg| %total
---------------------------------------------------------------
Pair    | 0.46646    | 0.50777    | 0.54869    |   4.2 | 73.90
Kspace  | 0.11815    | 0.15904    | 0.20028    |   7.4 | 23.15
Neigh   | 0          | 0          | 0          |   0.0 |  0.00
Comm    | 0.015408   | 0.015692   | 0.016034   |   0.2 |  2.28
Output  | 0          | 0          | 0          |   0.0 |  0.00
Modify  | 0          | 0          | 0          |   0.0 |  0.00
Other   |            | 0.004617   |            |       |  0.67

Nlocal:            360 ave         373 max         339 min
Histogram: 1 0 0 0 1 0 2 0 0 2
Nghost:        4782.83 ave        4803 max        4763 min
Histogram: 1 0 1 0 1 0 2 0 0 1
Neighs:        87791.8 ave       94677 max       80670 min
Histogram: 1 1 0 0 1 0 1 1 0 1

Total # of neighbors = 526751
Ave neighs/atom = 243.8662
Neighbor list builds = 0
Dangerous builds = 0

variable        Vf equal vol
variable        Df equal density
variable        Ef equal pe
variable        ef equal pe/atoms
variable        Pf equal press
variable        Ff equal c_maxf
print           "EVPOINT ${s} ${Vf} ${Df} ${Ef} ${ef} ${Pf} ${Ff}"
EVPOINT 0.99328839 31999.438676874 2.24491654945364 -41726.5318449442 -19.3178388171038 -12286.2198758805 0.0328105047614123
Total wall time: 0:00:00
