LAMMPS data file via write_data, version 2 Aug 2023, timestep = 296, units = metal

2160 atoms
2 atom types

0.5339199207433681 29.604993459254857 xlo xhi
0.5357857872959467 29.708452732703133 ylo yhi
0.6183317720506232 34.28549367794558 zlo zhi

Masses

1 15.9994
2 28.0855

Atoms # charge

863 1 -1.2 2.4008029179241146 3.4602584897720012 1.2658069621217407 1 1 0
1360 2 2.4 3.5113955199698603 3.090725079409621 2.407064941732699 1 0 1
729 1 -1.2 4.592807472604013 2.080992300083179 1.7157504681399551 0 1 1
1744 2 2.4 4.926528307352571 0.6782365560482327 0.9720233518935891 0 0 1
91 1 -1.2 7.790665485417229 1.625606516839619 3.351512133085687 0 0 0
240 1 -1.2 9.053092831149371 3.3474488154446074 1.944439816532707 0 1 0
891 2 2.4 9.277831472883575 2.1344429742287967 2.991779391648965 0 0 0
1961 1 -1.2 10.040541473794178 0.9274320245942717 2.207231913823238 0 1 1
398 2 2.4 17.410886197916934 2.909712920147868 2.147029724345675 0 2 0
486 1 -1.2 16.862892673492755 1.756579025223068 3.1530704488300008 0 0 0
750 1 -1.2 17.891962434517925 2.3894677482741984 0.6462090477376702 0 1 0
1784 1 -1.2 21.060417819715912 3.4295483382076997 1.764613143819236 0 0 1
1459 1 -1.2 25.962385421376954 3.062120596958735 2.8886689928546043 0 0 0
63 2 2.4 25.094175119469465 3.3914228755531814 1.5378967475697853 0 0 0
1783 1 -1.2 24.75175473595576 1.9191490686638486 0.818612276567561 0 0 0
1569 1 -1.2 29.064411673906513 2.416241221687079 1.1167647167248032 0 1 1
387 2 2.4 28.947309321542257 0.7978281111361614 1.2097674710560204 -1 1 0
1213 2 2.4 0.8969209079653488 3.70894687970561 0.6514213304707551 1 0 1
567 2 2.4 5.47925231713411 5.53651137493623 2.8842157211191095 1 0 0
1632 1 -1.2 4.32703165504146 4.381339771639913 2.9975607377413085 0 1 1
82 1 -1.2 6.906649210519298 4.810418561956175 2.6448975051184234 0 0 0
1730 2 2.4 8.387034797281457 4.820551949543218 1.981105320177066 0 0 1
803 1 -1.2 9.285692899623891 5.701347584902588 3.0003567225394194 -1 1 0
1919 1 -1.2 13.834600941514097 5.511475766548373 1.8405829119883785 0 0 1
279 2 2.4 14.909862444393339 4.5617197191075345 1.0805961415065433 0 1 0
204 1 -1.2 16.198399790139405 4.01495117877924 1.8943381016952483 0 0 0
913 2 2.4 20.249173542700937 3.5818218672960693 3.1649098540323823 0 0 0
1075 1 -1.2 18.65729079939559 3.7039151709703906 2.8359979713547467 0 0 0
132 1 -1.2 21.71939613782935 5.759774711223576 0.7283569146534331 0 0 0
817 2 2.4 22.230935876992078 4.223198366026164 0.9722648454076668 0 1 0
900 1 -1.2 23.632772592806933 4.116123660444474 1.8298823540732674 0 0 0
1344 1 -1.2 25.937785222868243 4.538257807493304 0.6725313227753466 -1 0 1
848 1 -1.2 29.254218765987094 5.026155625153167 1.2611959056792024 -1 1 0
239 1 -1.2 2.456328307638406 6.360961412306812 1.9963628296623621 0 0 0
1899 2 2.4 0.7971542213221102 6.40369135521946 2.0340745432031944 1 0 1
485 1 -1.2 5.1759573955094496 6.492430887959156 1.613787741632815 1 0 0
2138 2 2.4 3.678480416773703 6.6237290066301835 0.9829137802779258 1 1 1
368 1 -1.2 5.233397508918201 9.124606914348185 2.7581731243221395 -1 1 0
1471 1 -1.2 11.382659042817258 7.078024397275652 2.5984927948709045 0 0 1
2034 1 -1.2 9.353745024481526 8.008875290650275 1.0410147615286942 0 0 1
1804 2 2.4 10.780950486934149 8.346566744173867 1.744928289710829 0 0 1
1837 2 2.4 14.246657268928775 6.897555338932445 2.697520044740256 0 0 1
1389 1 -1.2 14.228511352017698 8.192474953497161 1.7143910960898672 0 1 1
799 1 -1.2 15.732283284853237 6.414263621552351 3.140949866839358 -1 1 0
275 1 -1.2 17.50932391547103 6.9497145289971005 1.3473408907878284 0 0 0
2012 1 -1.2 19.92022834756919 7.067445519017927 2.1771229575094906 1 0 1
1408 2 2.4 18.426043889033437 7.528747113906522 2.5983556486179435 0 0 0
1543 1 -1.2 18.307648346924964 9.177247496880215 2.7067317642816686 0 0 1
1189 2 2.4 20.789652016269233 7.094328004669282 0.8063349346150891 0 0 0
212 1 -1.2 21.67938794114723 8.44008491318603 0.9636488249989765 1 0 0
635 1 -1.2 25.584177636536495 6.871736941333633 1.952978323096939 0 0 0
1984 2 2.4 25.350606808511095 7.625622203137677 3.3728753331910033 0 0 1
719 1 -1.2 25.456551676394632 9.254232873784018 3.2424740681637036 0 0 0
958 1 -1.2 29.153009231239515 7.756092086249239 2.757791744062094 -1 0 1
1526 2 2.4 2.072587075714568 11.38412945090034 2.7641844613691915 0 0 1
2100 1 -1.2 2.7549643314231425 10.80846854333495 1.4296600544860243 0 0 1
767 1 -1.2 1.0039051938457968 10.27917157152325 3.2208532348998715 0 1 0
1040 1 -1.2 6.097173184045503 11.572011842704637 3.1108187663358757 0 0 1
388 2 2.4 5.971540711455467 10.37743948833711 2.0025607832365293 0 1 0
934 1 -1.2 5.203560996086995 11.044219476851724 0.7099395005247269 1 0 1
1272 1 -1.2 7.393071562830953 9.823541727718021 1.413984025354168 1 1 1
724 2 2.4 11.438430502861971 10.957865961858527 2.8877641943074197 0 0 1
1992 1 -1.2 10.498599997978772 9.634229959487566 2.7393025789011687 1 0 1
1629 1 -1.2 12.898429091548964 10.530498579655182 2.288350919565962 0 0 1
530 2 2.4 13.32894408565939 9.45501715222897 1.1453976332180185 0 0 0
742 1 -1.2 16.23828715361173 11.546775371864193 3.1285847188648357 0 0 0
1960 2 2.4 16.84569967921014 10.016961035947169 2.861685528729664 0 0 1
155 1 -1.2 16.398463169233477 9.822708683498817 1.2819042010637052 0 0 0
2073 1 -1.2 21.41069078414713 12.069797950172253 1.049634237663112 0 1 1
1967 1 -1.2 22.793820272862394 11.609563760484965 3.2189899543818887 -1 0 1
1231 1 -1.2 24.081053135032107 11.992837438952215 1.0667497170918545 -1 0 0
340 2 2.4 28.80034218705605 9.311501221817295 2.9797590124303883 0 1 0
706 1 -1.2 27.88707949925901 9.955338228680661 1.8044997577636175 0 0 0
2107 1 -1.2 1.5229829361853482 12.885959079852027 2.3691296379538986 1 0 1
2029 2 2.4 2.341574338867368 14.27970763056955 2.682733698143231 0 0 1
1315 1 -1.2 6.068785223018191 14.346099325177013 3.11416869666912 0 -1 1
716 1 -1.2 3.7748460294174815 14.344188476286455 1.9050661370026865 1 1 0
654 1 -1.2 8.238368590997787 12.871033318763255 2.6796293961472424 0 0 0
748 2 2.4 9.512127480174291 13.218253077452951 1.6970631463628296 0 0 0
1260 1 -1.2 10.782586260014947 12.317990617197696 2.237935941331284 0 0 0
1774 1 -1.2 9.677976726719098 14.85915096245528 1.8798665901477523 1 -1 1
1055 1 -1.2 15.677070795394895 14.037217855487313 2.7078652949058206 0 0 0
1873 2 2.4 18.78690153921557 14.231836878128798 2.388263110572001 0 0 1
919 1 -1.2 20.267204659290893 14.790426951272844 2.112933320873248 0 0 0
1578 1 -1.2 18.294200960183655 13.403478286627454 1.0829091856647044 1 0 1
34 1 -1.2 22.74458320163208 14.099291712895004 2.2473726056966004 0 0 0
73 2 2.4 22.756431390495983 12.497999216300403 1.8715615343990588 0 0 0
1524 1 -1.2 27.722078775911246 13.363850442735261 2.3910467421397517 -1 0 1
1154 2 2.4 27.628062563096137 13.414288984304163 0.7816141855070702 -1 0 0
270 1 -1.2 1.3909364070561445 15.47466229217475 2.092269199657209 1 0 0
1916 1 -1.2 6.072049716829765 15.163297060020437 0.6339510619448977 0 0 1
759 2 2.4 5.1982462775055165 15.146009918989417 1.987823843003135 1 1 0
1511 1 -1.2 4.8480392646142025 16.706064991880567 2.288208003790916 1 0 0
806 2 2.4 4.523009260933646 17.87531949592255 3.355767629322432 0 0 0
1146 1 -1.2 8.088859929544329 16.83937723561581 3.044802204420076 1 0 0
892 2 2.4 9.432352187140491 15.882521389750456 3.1586891592744863 0 0 0
66 1 -1.2 10.674146167988031 16.900068933875428 3.323891285891939 1 0 0
994 1 -1.2 13.16739837436495 17.39970632439945 3.39678728021281 0 0 1
105 1 -1.2 15.63988063867017 16.67074907229028 3.3328327779264595 0 0 0
627 2 2.4 16.197641211411515 15.512230666665996 2.345984751671052 0 0 0
1638 1 -1.2 15.734923681784734 15.57490488152939 0.7835754563733751 0 0 1
536 1 -1.2 17.81469843292525 15.533830709335815 2.5364110362172294 0 0 0
685 2 2.4 21.735648459313012 15.390388622687405 2.4084488269839497 0 0 0
1872 1 -1.2 22.038422372732157 16.567237641515884 1.2800201658402366 0 0 1
1111 1 -1.2 25.10744712194082 15.95233515688544 3.013366527114171 -1 0 0
1550 2 2.4 25.381728134882156 16.958371367563 1.769946707102798 0 0 1
587 1 -1.2 26.962238996764874 17.398865664749685 1.656534383741076 -1 0 0
1162 1 -1.2 1.3400102640927636 19.65827161202111 2.939389398653202 1 0 0
2104 2 2.4 2.635970605578162 19.685258046069748 1.8898817620937292 0 0 1
1794 1 -1.2 4.000566456582673 19.3058512445692 2.733295173755348 1 -1 1
22 1 -1.2 6.838441487695151 20.6634184906703 1.1930683968103393 0 0 0
358 1 -1.2 7.995559272486331 19.57719214539193 3.2090829479790353 1 0 0
1567 1 -1.2 11.356457348969561 19.31038178675341 2.5530377892471083 0 0 1
289 2 2.4 11.296603044772331 19.553050626670906 0.932784370877385 0 0 0
29 1 -1.2 12.122211258625097 20.929142478914375 0.6183996718412066 0 0 0
857 1 -1.2 16.931168176061906 20.319940226661878 2.2263678911640454 0 1 0
26 2 2.4 17.91774303185991 19.755668210169564 1.061300691736587 0 0 0
1520 1 -1.2 19.458497903775864 19.734202089150326 1.7439078488052402 0 0 1
182 2 2.4 20.927267586532707 19.75301391961534 2.5507937535681053 0 0 0
1482 1 -1.2 22.28467221479888 19.74795101709271 1.6152868052095541 0 0 1
738 1 -1.2 24.498939469207734 18.29822114735834 2.0482103749310854 -1 0 0
170 2 2.4 23.921789269861282 19.728725266584448 1.5134512214912188 -1 0 0
1433 1 -1.2 2.4410730263873788 21.204699966962934 1.3380009379997295 1 0 1
1742 2 2.4 3.1591735468893645 22.62947756706622 0.9877977510833583 0 -1 1
1098 1 -1.2 4.408067084870091 22.60707583119167 2.0441274954658013 0 0 1
169 2 2.4 7.3753468501186 20.99985490638426 2.6976656938405874 0 0 0
1351 1 -1.2 8.45970036364515 22.22511904666991 2.9145248531369274 0 -1 0
1252 2 2.4 12.198598626583289 22.559337082839352 0.7681456355750979 0 0 0
570 1 -1.2 14.936229139502995 21.858658195383725 3.283717763149024 1 -1 0
432 1 -1.2 12.848545527786282 22.95386233306585 2.1857546150428955 0 0 0
1 2 2.4 13.954761263400952 23.16910806689377 3.3590025819834306 0 -1 0
59 1 -1.2 17.421111855823757 23.61056943577719 2.4807508345574565 0 -1 0
1193 1 -1.2 19.613808541589066 22.609828293624915 1.5444211543394468 0 0 0
568 2 2.4 18.884211354933626 23.066264545070634 2.936534488726921 0 -1 0
907 1 -1.2 24.534112937865196 20.981472621742526 2.3819299130991265 0 0 0
1991 1 -1.2 28.380935831441885 21.397757416253288 2.42344645611188 0 0 1
1912 2 2.4 28.06007524863058 21.1611503897374 0.8583418893732697 0 0 1
2070 1 -1.2 2.371087094466268 24.027287813150878 1.3364884632824998 1 0 1
1807 1 -1.2 2.0014414420902793 26.787472618353203 1.9144679661271604 0 -1 1
2008 2 2.4 1.486417897692006 25.401175097238866 1.1965580565775569 1 0 1
323 1 -1.2 5.023689346302861 25.798342396993906 2.1384640116573617 0 0 0
1948 2 2.4 8.870660086004776 26.07856447211958 2.670388956105223 0 0 1
753 1 -1.2 9.335724822673804 25.366749671583005 1.2747276508446794 0 0 0
1205 1 -1.2 14.97850470307303 24.429746045039888 3.0996542868361945 0 0 1
328 2 2.4 16.18673448479187 24.581915807585478 2.02228289164173 0 0 0
164 1 -1.2 16.80358653588509 26.076125064152475 1.964402633403452 0 0 0
1824 1 -1.2 23.00712169957494 24.62272763000316 2.3254434618784487 -1 -1 1
1444 2 2.4 22.833381972196364 25.857055664986902 3.361368924079018 0 0 1
1251 2 2.4 23.090315501102392 24.30395598788775 0.7342295736009642 -1 0 1
1462 1 -1.2 26.59600425822364 24.414097797331163 1.1399517995854829 0 0 1
1666 1 -1.2 29.065906363093053 25.0372722519561 1.7420766930131297 -1 0 1
134 2 2.4 27.649656206199133 25.64492705037841 1.1991838786811657 0 -1 0
1782 1 -1.2 27.24469567061259 26.75174013480098 2.2914885281853254 0 0 1
2088 1 -1.2 1.364230815061278 29.320117442099974 1.26041285953418 1 0 0
290 2 2.4 2.416280730079152 28.36052185617353 2.0519634645595284 0 0 0
576 1 -1.2 3.875463475900249 28.668435926883863 1.3846233092548115 1 -1 0
294 1 -1.2 6.400525779341801 29.36274956461332 1.439913613505039 0 0 0
171 2 2.4 7.355302271987898 28.1049507510906 1.0729604121928584 0 0 0
1280 1 -1.2 7.810112980278921 27.283874575951526 2.3963456961427845 1 0 0
823 1 -1.2 12.076506505782655 26.82094975105735 1.6080568052500852 0 0 0
255 2 2.4 11.742861666350851 26.831879349269528 3.220795466501616 0 0 0
417 1 -1.2 10.104145881388181 26.8427402476212 3.4042085030621996 0 0 0
48 1 -1.2 16.561142585262672 28.637834138782306 2.1080121386886876 0 -1 0
1849 2 2.4 17.143678156815028 27.44746331858412 1.176773065958665 0 -1 1
311 1 -1.2 20.591743719409596 29.082006644873246 1.8764465100662393 -1 0 0
1054 1 -1.2 18.756285347852877 27.465547417177046 0.8847252820954151 0 0 1
1081 2 2.4 21.860194979002852 28.6879009442682 2.829441149312374 -1 -1 1
477 1 -1.2 21.91661173869694 27.060516554242803 2.7512988050135956 0 -1 0
104 1 -1.2 23.188324251826284 29.46138505614765 2.2664930085688977 0 -1 0
807 2 2.4 24.332996248545296 29.509567474821537 1.1017517297429635 -1 0 0
1521 1 -1.2 25.67918859029343 28.770723659717884 1.5892864480454942 -1 0 0
84 1 -1.2 28.091309292134806 29.355254078630363 2.4626860723309996 -1 -1 0
397 2 2.4 26.856127458495838 28.293579673511847 2.583298514126085 0 0 0
211 1 -1.2 2.7766611705421775 2.339001270695019 3.651482540752021 1 0 0
4 2 2.4 2.1862304842995113 1.0581409316625474 4.459427353939472 0 0 0
1483 1 -1.2 2.825940024467304 0.9935111108100545 5.956179090705543 0 1 0
1163 1 -1.2 0.5935681745722424 1.2776724523700158 4.656380080119833 0 0 0
583 1 -1.2 5.7713062408025815 2.5160144533463633 4.831590927774557 0 0 0
13 2 2.4 6.947189164053245 1.3816889493863405 4.69401119690819 0 0 0
379 1 -1.2 8.026212754642428 1.4888669941977777 5.891207890793153 0 1 0
519 2 2.4 11.67143219684723 3.164506770519727 4.446226488919632 0 0 0
1043 1 -1.2 10.118314432623759 2.6278141844689604 4.311063663110578 0 0 1
1042 1 -1.2 12.600762309597524 1.9006380971332641 3.9550516074530964 0 1 0
190 1 -1.2 16.73947108287632 2.1308401780369475 6.2635477982103955 0 1 0
1374 1 -1.2 20.485721784450693 2.251663357520791 4.058585922683336 0 0 0
184 2 2.4 21.579766568821984 1.4775147516944425 4.972064950037253 0 0 0
791 1 -1.2 23.059731552581177 2.1739162287479155 4.94577121382286 0 1 0
697 2 2.4 23.815740756756977 3.336075655137264 5.816516911824284 0 1 0
2140 2 2.4 26.60992769784569 2.9922761654699452 4.40027000547701 0 1 1
192 1 -1.2 25.375262414196023 3.4502927924680926 5.384134732766069 0 1 0
1307 1 -1.2 27.03315956807182 1.4604810835941935 4.832345009712267 -1 0 1
1705 2 2.4 28.392430258341737 1.0210258399091354 5.643670900300833 0 1 0
188 1 -1.2 0.7432304763865321 5.555180097056134 3.599591003958823 1 0 0
47 1 -1.2 1.3355554875399203 4.380686390858612 5.976475026212373 1 0 0
1572 1 -1.2 11.712374163873045 4.529678550209637 3.5008974354637292 0 0 1
1089 1 -1.2 12.11929226835296 3.6646129593556434 5.945095555705067 -1 0 1
1207 1 -1.2 10.724873872594978 6.308056698691267 5.1644154024530415 0 1 0
1803 2 2.4 10.786180996010216 5.895340284943674 3.5846730670193447 0 0 1
1565 1 -1.2 16.682568243532987 4.56371157553492 4.910449496248619 0 1 0
145 2 2.4 16.274714336553796 3.7037071484684323 6.25041722064206 0 1 0
818 2 2.4 16.619086946580385 6.150998580756322 4.477651159784989 0 0 0
1761 1 -1.2 20.817385481740075 4.865194043409713 3.9855502455257574 0 0 1
1561 2 2.4 21.571068787778767 5.424939505406293 5.311901027133938 0 0 0
1787 1 -1.2 23.057796757477647 4.75978244854852 5.520201612336436 -1 0 1
577 2 2.4 29.191048956883233 4.924936270039004 4.942592786264025 -1 0 0
833 1 -1.2 27.981599714522037 3.8605448470216426 4.539367484929769 -1 1 0
995 1 -1.2 28.409538986464575 5.973912619416574 5.91761392421036 0 0 0
278 2 2.4 2.784776602499499 8.032569353134553 6.086079235001169 1 0 0
1978 1 -1.2 1.2327096900921541 8.413436381891678 5.719614335999188 1 0 1
288 1 -1.2 5.517677277439334 6.65594940649007 4.092864367002989 1 0 0
1206 1 -1.2 3.7181720158214104 8.450988480858864 4.822708113835399 1 1 0
1504 2 2.4 5.192265553854108 8.276228181050898 4.16135477796292 1 0 1
535 1 -1.2 6.308125929948104 8.987766827987885 5.112446787076377 1 0 0
985 2 2.4 7.7914430157864 9.011787628921192 5.725562075605079 1 0 1
728 1 -1.2 8.57385256949199 7.648575527520553 5.324921170764979 0 0 0
434 2 2.4 14.203541945471766 7.275398159432118 5.654024962010453 0 0 0
282 1 -1.2 13.590416748049169 7.364821018421666 4.127980250197316 1 0 0
401 1 -1.2 15.826651486287014 6.929455175485673 5.699478684827199 0 1 0
588 1 -1.2 18.063947511815044 6.773104301032989 4.0209718853869125 0 0 0
341 1 -1.2 21.646564006845228 7.0431216801469985 5.223027383222842 0 1 0
2125 2 2.4 22.890224565970197 8.094498359116773 5.153993253720026 0 1 1
187 1 -1.2 23.859699049549526 7.427275087223875 4.015128424650628 0 0 0
1726 1 -1.2 26.50656862846199 7.09488146443799 4.394290298314589 0 1 1
1443 2 2.4 27.11965886059439 6.93805768941765 5.894465956826252 -1 0 1
173 1 -1.2 3.0885713865400417 11.616816689447901 4.026378698581496 0 1 0
1304 1 -1.2 8.63413973758313 10.355476956047973 5.311706989988799 0 0 1
1222 1 -1.2 11.695964951272309 11.301351255923832 4.452407270696912 1 0 0
1760 1 -1.2 16.43352178085797 9.281807765710928 4.319454564464719 0 0 1
1470 1 -1.2 17.9104991228259 11.222971784967468 5.133765711495796 0 0 1
1453 2 2.4 17.213201928743114 9.872292096265012 5.682166075874737 0 0 0
668 1 -1.2 20.40704451796401 11.308026322482876 4.37771016600827 0 1 1
1165 2 2.4 22.01569408473602 11.160626923787934 4.554562959534837 -1 0 0
1536 1 -1.2 22.34956552706166 9.592933623250863 4.822056399625285 0 0 0
629 1 -1.2 26.20498631668688 11.721328426295056 3.6852775480165567 -1 0 0
208 2 2.4 26.32284981268743 10.201933742066247 4.245143816510996 0 0 0
384 1 -1.2 25.715923912552096 10.227241617330689 5.762752302874758 0 1 0
2061 1 -1.2 27.847315783679367 9.596963893176834 4.291327114565209 -1 0 0
1420 2 2.4 2.9314812145326723 12.821547069674674 5.128637477276902 1 0 1
752 1 -1.2 1.6640368180508625 12.574304591875402 6.113179996345947 0 1 1
787 1 -1.2 2.659385399693391 14.242449068951474 4.309422609190243 1 0 0
1342 1 -1.2 4.286896558311084 12.775419660270725 6.017585347172944 1 0 0
909 1 -1.2 6.820625663458128 13.04852659674787 5.1870993868981286 0 0 0
578 2 2.4 6.834931921619123 12.964741292557958 3.527167385249301 0 0 0
888 1 -1.2 9.371146977407728 14.93259566409228 4.4889211974003 -1 -1 0
1259 1 -1.2 9.858014755228178 12.633345411036018 5.7414510398856615 0 0 0
1828 2 2.4 10.320299595383204 14.167616392567389 5.565204461292476 0 0 1
395 1 -1.2 11.870281750465628 14.008617242796735 5.028572150545785 0 1 0
631 1 -1.2 13.78791341864947 12.665686810484923 3.6986533883955786 0 0 0
130 1 -1.2 13.373012455134873 12.13614129939043 6.219002599598231 0 0 0
580 2 2.4 12.655739201151619 12.567798727212761 4.852162689411178 0 0 0
673 2 2.4 15.403866571710354 12.833381367310976 3.724401640827917 0 0 0
152 1 -1.2 15.78432291470064 13.378925370033539 5.20973619910183 0 0 0
1465 2 2.4 19.16934627029167 12.216270340967752 4.888046463330627 0 0 0
248 1 -1.2 18.773318740028945 13.315661222935269 3.74786112489246 0 0 0
226 1 -1.2 22.44646864317753 12.218296158336802 5.7148997135681645 0 0 0
219 2 2.4 23.496917748693082 13.407108423337714 6.0718762023046455 -1 0 0
594 1 -1.2 23.866397857618477 14.330341088029696 4.781772942319191 0 0 0
161 1 -1.2 26.510219211446746 14.258204189946976 4.484641935186964 -1 0 0
966 1 -1.2 28.460577549107327 12.534995241305424 4.853146152607146 0 0 0
373 2 2.4 27.23740679874364 12.964418089989291 3.8732581693247323 -1 0 0
316 2 2.4 2.8880049430237746 17.778253898452157 5.768733710395581 0 0 0
1292 1 -1.2 1.3553644938841645 17.29845515692382 6.089133033349543 1 0 0
405 1 -1.2 3.319183673288904 17.279251840622923 4.27947973336661 1 0 0
1867 1 -1.2 8.242818583919947 18.095067073331947 5.347318967809011 0 0 1
1393 2 2.4 14.630263019106902 17.76823379250576 3.992567388523595 0 0 1
898 1 -1.2 14.67956227263856 17.826987687553206 5.633397816052508 0 0 1
661 2 2.4 18.706217484430645 18.00324977217921 6.241989625101133 0 0 0
1607 1 -1.2 19.50487538061508 17.103669167869842 5.123649902269113 0 0 1
244 2 2.4 21.057943931901562 17.338111953558503 4.646699288927787 0 0 0
643 1 -1.2 21.744346554505245 16.02776748070192 3.931102454890991 0 0 0
163 1 -1.2 21.900381261421867 17.82785015429551 5.9809449811221365 0 0 0
1792 2 2.4 25.202798760915922 15.204435719041966 4.450653645763022 0 -1 1
504 1 -1.2 25.37242885719355 16.2844789104377 5.634170052735599 0 -1 0
1892 1 -1.2 3.1047954179590778 19.395453278045995 5.758237595496892 0 -1 1
228 1 -1.2 5.940226401845711 18.151906780397198 4.112390445498238 0 0 0
1262 2 2.4 3.7641462865909565 20.852818280744742 6.0650816823544 0 0 0
1887 2 2.4 7.557943438372274 18.16046782097219 3.8876955357007392 0 0 1
2102 2 2.4 11.715148926382044 18.101759169479458 3.6037802624671995 0 0 1
840 1 -1.2 11.755608520054071 18.661397105819805 5.130144191946503 0 0 0
222 1 -1.2 14.947025594219825 19.260889791629793 3.471526689746399 0 0 0
268 2 2.4 15.886883835315615 20.571254929068193 3.471731669264615 0 0 0
527 1 -1.2 16.623884480316487 20.711233589646483 4.934511288104807 0 0 0
1172 1 -1.2 18.835031807950795 19.605749417844496 5.805592393720015 -1 0 0
2081 1 -1.2 20.98209191391084 18.420206275944686 3.454455436543578 0 0 1
765 1 -1.2 21.964909926038555 20.411953085846427 6.239004569055313 0 0 0
1950 1 -1.2 25.852120892022413 20.49345839782229 4.561208977104504 -1 0 1
412 2 2.4 29.347892767122396 20.76296379708542 3.56784462617708 0 0 0
439 1 -1.2 28.46146087138441 19.9961585448737 4.702714761798984 -1 -1 0
977 1 -1.2 26.79784591106535 18.434079781391446 5.922736165914611 0 -1 1
291 2 2.4 27.049535631133267 19.965037979208905 5.514489104384681 -1 0 0
1529 1 -1.2 0.8693106471766974 22.119124880721824 4.2823941275740856 1 0 1
522 1 -1.2 6.121981840434774 21.45460844905087 3.6360047722175675 1 0 0
2033 1 -1.2 3.811309688228466 21.78221124057455 4.711984055272318 0 0 1
553 2 2.4 4.850601508025425 22.456593473099993 3.6197038675458493 1 0 0
334 1 -1.2 7.923735481312351 23.135661790735437 5.351562269304079 1 0 0
1240 2 2.4 8.741824595059489 23.47052630601918 3.9770862306682817 0 0 0
525 1 -1.2 11.086325706671088 22.873429764939445 6.06201519442768 0 0 0
271 1 -1.2 10.331760534779127 23.78637788766338 3.994754608679223 1 0 0
287 1 -1.2 13.129861416585847 23.311168327551815 4.743991699260866 0 0 0
1743 2 2.4 18.16766153267071 21.06029359882969 5.350277875340985 0 0 1
378 1 -1.2 18.708659288404117 21.823446380277627 3.995978751118108 0 0 -1
1735 1 -1.2 21.184379787667503 20.974975948081386 3.625459141332966 0 -1 1
939 2 2.4 21.957559659138862 21.460026874735444 4.9874807152981 -1 0 0
1758 1 -1.2 23.50845888013953 21.771313714886034 4.675479704913805 0 -1 1
1796 1 -1.2 21.223218904982946 22.833226677344776 5.461788146865436 0 -1 1
109 2 2.4 24.892312860408033 21.596770662583186 3.857565465416138 0 0 0
200 1 -1.2 25.598524230920166 23.093063426559425 3.9498913317706075 0 0 0
841 2 2.4 29.366994395158773 23.137248923812262 5.438449083274972 0 0 0
402 1 -1.2 27.79493482735314 23.576277913720585 5.291982524265209 0 0 0
2090 2 2.4 2.3495295005999455 25.644164810485755 5.574314965042141 0 0 1
1773 1 -1.2 3.1805731353930646 25.7701464538535 4.16316320595822 0 0 1
1257 1 -1.2 1.2697256639644268 24.43453924482011 5.436549361838785 0 0 0
1105 2 2.4 4.766185810546194 25.54022455484308 3.743676931531968 0 0 1
1289 1 -1.2 5.1677114291286586 23.990613812763225 4.090880548056967 1 0 0
149 1 -1.2 5.620748318627005 26.56422623502598 4.697413829524102 0 -1 0
1711 1 -1.2 8.083369029958863 24.91915139259682 3.503444029526456 0 0 0
674 2 2.4 11.67342753502158 24.135820313810015 4.961395464149365 0 0 0
165 1 -1.2 11.538984987037836 25.336331808656926 6.1062913684686775 0 0 0
557 1 -1.2 12.280004976556416 25.435201269697668 3.8374190352610094 0 -1 0
2142 1 -1.2 19.778903279180003 24.216633749405702 3.698034307709769 0 0 1
1946 2 2.4 20.800801028305568 24.33350373130606 4.984269163727996 0 0 1
285 1 -1.2 22.13524833180226 25.20093266617183 4.661726846008804 0 0 0
1114 1 -1.2 24.239177987385975 26.56711740744422 3.7082079901658767 -1 0 1
1940 1 -1.2 26.177735355958454 25.60489376351631 5.096811261426684 0 0 1
1490 2 2.4 26.20601273846026 23.971696506952338 5.220038304096697 0 0 0
800 1 -1.2 1.481794034924483 26.97498668527312 5.994286565268345 0 0 0
2085 1 -1.2 2.4604887676747262 28.840292354369325 3.6223934388858834 1 0 1
363 2 2.4 5.868682381548152 27.866983413606516 5.631631648253502 0 0 0
2109 1 -1.2 6.285216625753208 29.07641181971222 4.625235975510295 0 0 1
1592 1 -1.2 12.971811560368007 29.54768066837821 6.07936372224909 0 0 1
794 2 2.4 13.127927610005738 29.570089709476207 4.430698497924704 -1 0 0
346 1 -1.2 12.348088165866441 28.25246387956471 3.8366865823719345 0 0 0
390 1 -1.2 14.676431562105076 29.532700885770264 3.8998210030280207 0 1 0
1166 2 2.4 16.252136668715032 29.43673607485527 3.48336119655363 -1 0 0
407 1 -1.2 15.40081346528666 26.955515198228344 6.138837862186285 0 0 0
243 2 2.4 16.815898791832318 27.797157795879894 6.0762055007884115 0 0 0
813 1 -1.2 17.00353870272335 28.596623483626047 4.6697154647092205 0 0 0
633 1 -1.2 21.662755660192722 29.133009923806732 4.384025062861597 0 -1 0
433 2 2.4 25.397361760989924 27.00234311341921 4.754378362803137 0 -1 0
418 1 -1.2 26.353185731046192 28.148558450829285 4.117747924123996 0 0 0
403 1 -1.2 24.724183910222116 27.83506633721015 5.985783629425266 0 0 -1
1700 1 -1.2 28.457154492567636 28.605406149189733 6.119764401937486 -1 0 1
1519 1 -1.2 1.3874322353476218 2.012084400904581 8.62911408233443 1 0 0
638 2 2.4 5.302735628218636 3.1041304737965896 6.295701143282102 1 0 0
1771 1 -1.2 5.058434553917086 1.7527198488958462 7.212873419895179 0 0 1
532 2 2.4 9.014012583573592 1.5094659930756487 7.168241235722508 0 0 0
871 1 -1.2 8.822439368695461 2.9903301066385524 7.850457398323675 -1 0 0
1241 1 -1.2 10.596450138077598 1.256112118803066 6.84930273938921 0 1 1
1237 2 2.4 17.22113295300378 1.2641057246839136 7.577935401870546 0 0 0
1139 1 -1.2 16.447880365055315 1.6765408963974877 8.972176857506662 0 0 0
1186 1 -1.2 18.824819703486185 1.3550101532793728 7.840863464347521 0 1 0
722 2 2.4 20.39142847830623 1.7255474569159666 7.941672014718268 -1 0 0
1366 1 -1.2 20.523721684313227 3.2530218202148067 8.512092001631869 0 0 0
749 1 -1.2 21.040477826807795 1.486697802411345 6.486705822452933 0 1 0
1125 1 -1.2 23.64417989077199 2.925025088520679 7.409641637897575 0 1 0
1377 1 -1.2 21.206543648678398 0.7249513728303235 8.955568955146845 -1 0 1
2041 2 2.4 24.47716420916854 3.1320210575401277 8.815589397983574 0 1 1
234 1 -1.2 28.434853239162194 2.080704995837686 6.89395300353803 -1 1 0
253 2 2.4 28.891876942306702 2.42031924487721 8.413038755890197 0 0 0
652 2 2.4 2.6932230472546266 4.895207715438219 6.771400078905994 0 0 0
658 1 -1.2 2.7256550288387773 4.850303056666612 8.428491293729065 0 1 0
1065 1 -1.2 3.954440444250128 3.994842534890711 6.245946346288221 1 0 0
1812 1 -1.2 6.5391664695527005 4.007964809663206 6.840494214370803 0 0 1
1820 1 -1.2 8.830546245520468 5.4794397980632 6.880823330563599 0 0 1
482 2 2.4 7.918696041827347 4.345618566068797 7.6339437506714285 0 0 0
981 1 -1.2 7.383226797373525 4.9357524209342705 9.056583730709653 0 0 0
393 1 -1.2 14.672057259330542 3.7424714707811004 6.49360636817906 0 1 0
1387 1 -1.2 13.382355068569549 6.050002576613203 6.29900854789962 0 0 1
866 2 2.4 13.25938577432989 4.507302318354298 6.758565014419198 0 0 0
869 1 -1.2 12.8943038249364 4.63002138270272 8.330320408084093 0 0 0
1187 1 -1.2 17.116197050557872 4.2912533989126205 7.48298321665633 0 1 0
376 2 2.4 17.574821911585314 5.038788948125609 8.819494783957492 0 1 0
180 1 -1.2 20.67062101055112 5.0368266636028265 6.603993437321147 0 0 0
956 1 -1.2 19.082294480537026 5.581868446231891 8.59197534987025 0 0 0
1996 2 2.4 20.47022604695996 4.858393112471048 8.194744002497176 0 1 1
516 1 -1.2 25.868856133030196 6.330466668347645 6.734221009622678 -1 0 0
265 2 2.4 25.52698001553926 5.857765521400869 8.236134040654758 0 0 0
2075 1 -1.2 25.600925445846578 4.263146957356057 8.368877417780524 0 0 0
881 1 -1.2 24.03550799324169 6.379955970642221 8.725469041743663 0 0 0
1061 1 -1.2 28.73236561352756 4.000457541451317 8.780953728067738 0 0 0
584 1 -1.2 2.9516406090356497 6.44398306527222 6.357789974255856 0 0 0
1746 1 -1.2 3.1937919177864114 8.882671631874523 7.409899346772966 0 0 1
381 1 -1.2 0.6758534116400122 8.58753769848947 8.260526910729508 0 1 0
1277 1 -1.2 5.4661544096206995 8.627179233770573 8.470337809775517 1 1 0
1124 1 -1.2 7.782716599168071 9.043270666763336 7.342381410704772 0 1 0
579 2 2.4 7.0237382402555415 8.924973079777736 8.76265171233521 0 0 0
1936 2 2.4 9.601133980770992 6.7811876881774475 6.254697401129086 1 0 1
1295 1 -1.2 10.275508362001611 7.680221924828455 7.459094247738758 0 1 0
1959 2 2.4 10.651379935078516 9.114987412863812 8.204559080421479 0 0 0
886 1 -1.2 12.08638652952844 8.947542464022664 8.971612249999618 0 -1 1
655 1 -1.2 13.947386516380792 8.626773547065403 6.523268799280931 0 0 0
2160 1 -1.2 15.327625426545787 8.561800767765451 8.825060588397571 1 1 1
849 1 -1.2 18.372204030159153 9.067774404054104 6.554605682492692 0 1 0
540 1 -1.2 20.41775474117403 9.224158021953583 8.30275499978885 0 0 0
198 1 -1.2 23.59638292731919 8.145997305619085 6.621584640463117 0 1 0
1839 2 2.4 23.87136310376007 8.967771538225 7.998006785352857 0 0 1
166 1 -1.2 25.36457833572122 8.734504738843741 8.586949703227898 -1 0 0
140 1 -1.2 27.695117724853297 8.295422625719763 6.612456294404162 0 0 0
1647 2 2.4 29.179798261206948 8.968966947314092 6.778715961289352 0 0 1
159 2 2.4 4.017201473853105 9.30245157059207 8.734436545941751 0 0 0
667 1 -1.2 3.9368955833597283 10.931776523907004 8.83596857042095 0 0 0
146 2 2.4 7.494404069820357 11.916033439406881 8.737193541988841 0 0 0
2022 1 -1.2 8.689108155296612 11.675285154929213 7.7124862796440175 0 0 1
709 2 2.4 9.501813132694492 11.20815085966144 6.412924012323636 1 0 0
1056 1 -1.2 10.710675048535865 10.272709438036292 7.047223511562352 0 0 0
950 2 2.4 14.828642864682442 9.50263812971107 7.595624989882153 0 0 0
1847 1 -1.2 14.119715236300943 10.780396077496336 8.294501207927121 0 0 0
1100 1 -1.2 16.053652135147267 10.189937047306673 6.764083769454381 0 0 1
1659 2 2.4 18.806111499604743 9.38504902662521 8.116042517785367 0 1 0
1661 1 -1.2 18.509701921994303 10.913770530326774 8.584581708911303 0 0 0
1480 2 2.4 25.256100569466792 11.193862381748364 7.001920875888589 0 0 1
503 1 -1.2 23.89973147461792 10.562885476418312 7.645448806119423 0 0 0
1221 1 -1.2 26.45161957604929 11.327039407468499 8.100286513138533 0 0 0
613 2 2.4 29.1752566987942 12.150423689196337 6.272108850914856 0 -1 0
1457 1 -1.2 29.073294921972344 10.584316713918827 6.6550935034085805 -1 1 1
451 1 -1.2 2.3086362500075435 13.076239226903917 8.861443755899693 0 -1 0
2066 2 2.4 2.1037165419263375 14.69106907856391 8.83713084189933 1 0 1
1456 2 2.4 5.774092481311704 13.329566904193129 6.432164370396476 0 0 1
1604 1 -1.2 5.522143880327748 14.923960211523577 6.715168549285823 0 0 1
9 1 -1.2 6.307925800855945 12.645210857394606 7.83561982694935 0 0 0
615 2 2.4 13.91513119823865 12.285649975378629 7.72160498889589 0 0 0
293 1 -1.2 12.766400266097888 13.052506963017619 8.556765879234993 0 0 0
386 2 2.4 15.90118706982693 14.168734788754765 6.626676799110254 -1 1 0
695 1 -1.2 17.46899071110417 14.5035156201064 6.75547475006854 0 0 0
1027 1 -1.2 15.290131977108436 13.17435227382403 7.7687743365246265 0 0 0
1975 1 -1.2 19.49969452380684 12.856100095930957 6.346918637695499 0 0 1
1624 2 2.4 18.819875064203096 13.902836806342592 7.387605509364804 0 0 1
1050 1 -1.2 18.412919320849483 13.406877906446548 8.880033258190881 0 0 0
1074 1 -1.2 19.888763850506315 15.101369582613593 7.491356897464871 0 0 0
1434 1 -1.2 22.87100705739544 14.324277773228276 7.2520118296730125 0 0 1
1407 2 2.4 22.547500883225926 14.823803936969734 8.763908649571572 0 0 1
859 1 -1.2 24.900239266106926 12.699518399199553 6.515588005211255 0 0 0
624 1 -1.2 26.273446989078245 13.9147749939896 8.725528562084298 0 0 0
2036 1 -1.2 28.449136472339337 12.959639715566142 7.490942626517648 -1 1 1
40 2 2.4 27.28752078525638 12.640976900059313 8.581731680621111 0 -1 0
852 1 -1.2 1.0698671121868777 15.241151029699923 7.712740532047123 1 0 0
1398 1 -1.2 3.949493970254211 17.13437858604466 6.807866550577643 0 0 0
1918 1 -1.2 3.597367598467994 15.305710682769615 8.621292354475594 0 0 1
230 2 2.4 4.723018481854022 15.99962465170836 7.653835707364449 0 0 0
1391 1 -1.2 5.862517112016403 16.770078243699224 8.518676098403562 0 0 1
512 1 -1.2 8.210642635903207 15.412722411218924 8.705098146779752 0 0 0
1037 1 -1.2 9.147126579748855 17.45859152548531 7.657922399435287 0 0 1
1906 1 -1.2 10.203073931155611 15.013636572558207 6.946853384366684 0 0 1
1168 2 2.4 9.626333973873981 15.989752749093334 8.104380629147874 0 0 0
978 1 -1.2 12.129160239553157 18.05215723223849 7.728927663732959 0 -1 0
1653 1 -1.2 17.15655117653095 17.547019845676427 6.342565863491779 1 0 1
1234 1 -1.2 15.220548234050952 15.64535311315876 6.814791422122466 0 0 0
1876 2 2.4 15.630970836841529 17.23669034558238 6.831273633156127 0 0 1
345 1 -1.2 15.423013649122282 17.877600678696748 8.339322845367617 0 0 0
1896 1 -1.2 19.42144409377701 17.668671531581616 7.680625106514003 -1 0 1
734 2 2.4 20.074254861562157 16.380910469691333 8.464389628520454 0 0 0
622 1 -1.2 21.711262085250155 16.253139867638097 8.7724835169561 0 0 0
2055 2 2.4 26.51760246133125 16.969505005315316 6.545070621347633 0 0 1
1218 1 -1.2 25.816705979687878 17.095323167997975 8.031194893798963 0 0 0
2020 2 2.4 29.35966474336521 16.530082533127302 7.0786359003555726 -1 0 1
221 1 -1.2 27.925846934006124 16.10759809345404 6.412110781034608 -1 0 0
737 1 -1.2 28.77533848812926 17.54154350518917 8.229929000744509 -1 0 0
2083 1 -1.2 0.87405683083514 19.855410143782116 7.895589010642709 1 0 1
590 2 2.4 0.5473508089857716 18.698036493505953 8.984168239818809 0 0 0
551 1 -1.2 5.255075571894515 20.757438840370288 6.7074886649370695 0 -1 0
1261 2 2.4 8.659190947275082 18.71421890057906 6.778952114750833 0 1 0
922 1 -1.2 7.447895750686675 19.547023993784258 7.438249951704871 1 -1 0
194 2 2.4 6.477911143700191 20.797549637234738 7.781039662061406 0 0 0
1455 2 2.4 11.568089332569208 19.199119179660897 6.655312138189972 0 0 1
118 1 -1.2 9.990139934686026 19.632838616561383 6.712160979699897 0 0 0
1449 1 -1.2 12.290685962696651 20.608931282537053 7.004687709640486 0 0 1
795 2 2.4 22.26477673587434 19.03115811203821 7.065588723190335 -1 0 0
141 1 -1.2 21.366381416538772 19.115049324668977 8.447883806695597 0 0 0
2076 1 -1.2 23.8157875063208 18.817197696602847 7.557058891981136 0 0 0
1994 2 2.4 24.955659198428204 18.344244258749104 8.65594717067451 0 0 1
1976 1 -1.2 26.04618586531569 19.526626209405944 8.937374282058586 -1 0 1
779 1 -1.2 27.0625918799011 20.877714415751857 6.864677098721186 0 0 0
153 1 -1.2 2.816995072067575 21.51136818467568 7.217282814303127 0 0 0
903 2 2.4 1.307640794596163 21.426398922203497 7.799611569846861 1 -1 0
474 1 -1.2 3.8081017032194326 23.65897504308079 8.544377479940739 1 -1 0
507 2 2.4 7.418530537859814 23.575870489590848 6.830238660215485 0 0 0
741 1 -1.2 7.297715341049572 22.20161771111234 7.713496049967563 -1 0 0
1083 2 2.4 11.610573214400402 22.082675599165757 7.359660499478172 -1 0 0
1714 1 -1.2 10.337213708958735 21.9285421363882 8.427360061267636 1 1 1
1085 1 -1.2 12.828524375463356 22.924072823824616 8.027946911032261 0 0 1
37 2 2.4 14.326676515231645 23.431272586701247 8.264030101274768 0 -1 0
2111 1 -1.2 15.396416625164784 22.207989443535432 8.299518844771582 -1 0 1
600 1 -1.2 18.393879028478153 22.107014208797164 6.579853285196763 0 0 0
348 1 -1.2 20.31187087061274 23.068880787840097 8.321092836274401 0 0 0
2042 2 2.4 18.731661111165028 22.976649138127414 7.929817389118549 0 0 1
905 1 -1.2 22.957007131129863 23.398000668056856 8.10647549687925 0 -1 0
1625 1 -1.2 25.25793794661383 23.65155008458943 6.526647817017822 -1 0 1
2053 2 2.4 26.43871242906075 20.9970152069544 8.369355360253182 0 0 1
322 1 -1.2 25.02627362791665 21.802372767621232 8.366620967394331 0 0 0
589 2 2.4 24.598200066736144 23.318437340354826 7.988791310731441 -1 0 0
216 1 -1.2 29.44286751206363 22.33589532264378 6.846785344263468 0 0 0
607 1 -1.2 3.491285620057879 25.39902154098814 6.707799203889966 0 -1 0
8 1 -1.2 5.911926886183027 24.245943912461044 6.910379934919852 0 -1 0
1636 2 2.4 4.616736855015912 24.81595527947625 7.71226594767188 1 0 0
929 1 -1.2 5.131966687236064 25.955240172715456 8.795001739580721 0 -1 0
298 1 -1.2 8.507731191461646 24.649973281064156 7.374180239193523 0 0 0
733 2 2.4 9.124776624198619 25.468326163133533 8.63808312996388 0 0 0
782 2 2.4 11.704146481864713 26.31119256418363 7.360538120916379 0 0 0
660 1 -1.2 10.73988250684209 25.70018421026367 8.544265920838857 -1 0 0
663 2 2.4 14.827188263119254 26.129829955601764 7.432991914726916 0 -1 0
1725 1 -1.2 14.868377839162594 24.518388506637418 7.16239270351582 1 0 0
2059 1 -1.2 13.274204496547444 26.498156319663458 7.81111694717645 0 0 0
2072 1 -1.2 15.854476062184562 26.532157179249715 8.65069862040517 0 0 1
780 1 -1.2 18.055197297306126 26.76544986318474 6.284624421792582 1 0 0
144 1 -1.2 20.134235330991757 25.183913031836184 6.18588646972965 0 -1 0
517 2 2.4 19.01662523829057 25.811400223293226 7.172145280213553 -1 -1 0
1668 1 -1.2 18.192879936600907 24.52085049362976 7.770284800674341 0 0 0
790 1 -1.2 19.71655559707948 26.713524041109878 8.362098894933231 0 0 0
713 1 -1.2 24.88780806006182 26.772729337573367 8.254518834105102 0 -1 0
1690 1 -1.2 28.72674249475043 26.394785577295114 7.84606877216307 0 0 0
864 1 -1.2 3.344578563185904 29.463157897764646 8.550117540146937 1 0 0
2037 1 -1.2 0.9807803802737517 28.54339999858544 8.183183002544412 0 0 1
2113 2 2.4 3.9484852978636322 0.5482197319412769 7.06031151784356 0 1 1
357 1 -1.2 4.5580412698095545 28.321483512561475 6.492960030725226 1 0 0
895 1 -1.2 7.023159565818995 27.61644984895936 6.760596195343192 0 -1 1
699 2 2.4 7.576305001855973 28.131305706495727 8.211357079066932 0 0 0
310 1 -1.2 8.571335615203935 29.40153247849695 8.051337930923536 0 0 0
1806 1 -1.2 8.433422735706742 26.918032593767553 8.83457244647004 0 0 1
1287 2 2.4 11.779476235562813 29.350900008573205 7.200946456068484 1 0 0
739 1 -1.2 11.183983096323068 27.836249035155593 7.0631193130150445 0 0 0
984 1 -1.2 12.326002471609874 29.61270099332531 8.73413591592993 1 -1 0
456 1 -1.2 16.841467956341543 28.891899165633976 7.278219728686578 0 -1 0
1952 1 -1.2 23.594005744471477 29.147866182443114 8.01260134376712 -1 0 1
603 2 2.4 24.86997038922857 28.22664053316277 7.541369426232165 0 0 0
874 1 -1.2 26.243510196600415 29.042794877468932 7.914134441404581 -1 -1 1
1478 2 2.4 29.4383784317968 27.622972056683153 7.008402799477582 0 0 1
1684 2 2.4 4.938846042743686 2.735572663107956 11.393995524567549 0 1 0
969 1 -1.2 5.200533283476572 1.4499610054232126 10.441160811314285 0 0 0
596 1 -1.2 7.809529074562996 1.3789512144526597 10.372028089687188 0 0 0
997 2 2.4 9.16089303686678 1.6602490530648184 11.210033338867321 1 0 0
599 1 -1.2 9.454101174232234 3.2629554658011757 11.260972844278802 0 0 0
720 1 -1.2 10.370942319174356 0.8304265520690137 10.501805298635869 1 1 0
2046 1 -1.2 12.810825965307403 1.5946590849526412 11.110347846221158 0 1 1
2130 1 -1.2 15.902868257277726 1.702096267136033 11.662909518248071 0 1 1
1983 2 2.4 16.565561194043866 0.9022725742457152 10.405214577906706 0 1 1
766 1 -1.2 18.13939145673374 0.665519650043624 10.76735523498882 0 1 0
1104 1 -1.2 23.305091786878684 1.9903082548357527 9.912552596199092 -1 0 0
457 2 2.4 23.51886417370503 2.986695624169368 11.379245709059 0 0 0
528 1 -1.2 25.587806681956156 2.0105056624537276 9.267339297564192 -1 0 0
448 2 2.4 26.55635732768061 0.7227276282942371 9.28529545184659 -1 -1 0
1224 1 -1.2 28.054800351482083 1.3537342317754348 9.368036015351224 0 1 0
3 2 2.4 2.9001089213210207 4.851290570365296 10.070908687880276 0 0 0
428 1 -1.2 1.4057218174625703 4.593103956171584 10.714100500543656 1 1 0
156 1 -1.2 3.857794410460084 3.6371875496376918 10.592215003085641 0 0 0
1649 1 -1.2 3.643571318749249 6.2148570493723 10.638439682139683 1 1 0
1364 1 -1.2 7.30256320362073 5.900478272753034 11.57791155820814 1 0 1
2019 2 2.4 7.935211599639654 6.077530874894995 10.077800251500578 0 1 1
1941 1 -1.2 6.3729464298327745 3.471348111732692 11.713831752419374 1 0 1
1388 1 -1.2 9.541785000093993 5.780219436763207 10.260981984786254 0 0 0
1805 1 -1.2 11.753362483781695 4.3732618903560185 10.56983072724429 0 0 0
1274 2 2.4 10.29154824705889 4.663383823294079 11.201960234543046 1 1 0
157 2 2.4 12.958155787671169 5.193466006018782 9.84742087508937 0 0 0
777 1 -1.2 14.423607966403978 4.789192638800387 10.453543095895013 0 1 0
1183 1 -1.2 17.615959390985076 3.9724150902438184 10.058318515143199 0 0 0
1492 2 2.4 17.838748738471388 4.408165711216852 11.610396141020907 0 0 0
96 1 -1.2 16.51776027927183 6.240983555310557 9.037642462749107 0 0 0
2153 1 -1.2 18.293483110640345 5.968172945091576 11.668356177594182 0 1 0
1265 1 -1.2 21.53837235761756 5.662978921127997 9.112567198269526 0 1 0
301 2 2.4 22.987431498978648 5.764062897963644 9.805986057231106 0 1 0
429 1 -1.2 23.582484691087462 4.197781570040625 9.913881470066267 0 1 0
1078 1 -1.2 25.03821497503876 3.6983874071423135 11.733087490889652 0 0 0
650 2 2.4 28.97725398282357 4.958861067620692 10.10987618394093 -1 0 1
1368 1 -1.2 27.68594418585093 4.604724860551686 11.043562027083023 0 0 1
537 1 -1.2 1.0626924299414522 8.875846499212626 10.86761409472167 1 0 0
86 2 2.4 4.006774251732462 7.655494499394738 11.347933535838097 0 0 0
30 1 -1.2 5.595502953337432 8.009008777937808 11.683992209976877 1 -1 0
437 1 -1.2 3.5641026091478376 8.74181049491595 10.201217162481779 0 0 0
1200 1 -1.2 7.613395869989128 7.536791929008562 9.43189303844743 0 0 0
491 1 -1.2 8.163296087940578 8.91510254548134 11.503068362511446 0 0 0
1798 1 -1.2 10.880803984061917 8.263051259480646 11.314472789660247 1 0 1
1932 1 -1.2 12.800757929147482 6.78907211311749 10.155392172120859 1 0 1
949 2 2.4 12.31204660666505 8.306752857607655 10.475074102746577 0 0 0
943 1 -1.2 13.32583564887245 9.216718696338033 11.395237206442838 -1 0 0
1340 1 -1.2 16.36502712942971 7.778817455526652 11.166401382672007 0 0 1
1825 2 2.4 16.55096733610699 7.7798868487850426 9.541763753950956 0 0 1
1051 1 -1.2 17.991364851362786 8.415522966563465 9.132712359130212 0 0 0
466 1 -1.2 20.7830438238073 9.000955154728189 10.9249077606128 0 0 0
815 1 -1.2 22.7663406041805 8.685678341793908 9.157054819655555 -1 0 0
1266 1 -1.2 22.93365732043356 6.4517658018708754 11.264586144712545 0 1 0
763 1 -1.2 26.592985756013334 6.5305902687289175 9.266663492853155 0 0 0
834 1 -1.2 25.64180492969823 8.07790244326668 11.176227827232372 0 1 0
100 2 2.4 26.317656026049626 8.086237275252138 9.706390686817514 -1 0 0
125 1 -1.2 29.180090934288526 6.564063516825309 9.850206587154153 0 0 0
1033 2 2.4 29.199961418467925 8.18688820360333 9.735261771935152 -1 0 0
138 1 -1.2 27.720572456061433 8.869295050956254 9.817750711718627 0 0 0
300 1 -1.2 2.233727700206295 11.374837884083874 10.813121668540084 0 0 0
1610 2 2.4 1.3446854267191877 10.285142974715747 11.649238605129549 0 0 0
1012 2 2.4 3.2550600363677273 12.083793656008966 9.761205909022742 0 0 0
1409 1 -1.2 7.023678586516122 10.475205293492971 9.398170014104954 1 0 1
232 2 2.4 9.676711599669678 9.361977188762951 11.114086613130294 0 0 0
359 1 -1.2 9.65859051636942 9.59237797524111 9.468915621399436 0 1 0
489 1 -1.2 12.844858185194203 11.694948188372779 10.817373412576849 1 0 0
69 1 -1.2 17.268225293446655 11.735126761656616 10.743117858463645 0 0 0
1337 1 -1.2 19.799403688297915 12.18528485689635 10.734190336458232 0 0 1
1009 2 2.4 18.501841285555496 12.044335873758236 9.753607807700257 0 0 0
1537 2 2.4 21.43868144285278 9.53530842997452 9.552383363408342 0 0 0
1589 1 -1.2 21.916190695992977 11.077893592342544 9.782469338937831 -1 0 0
1118 2 2.4 0.752953338270797 14.85318931989918 11.734351814691147 1 0 0
865 2 2.4 5.4937866698137725 13.948117230530451 11.264076830956057 0 -1 0
1355 1 -1.2 4.440083687230123 12.9901302729195 10.448083536689037 0 0 0
1182 1 -1.2 8.130444155324877 12.852726971395597 9.920763550806798 0 0 0
1596 1 -1.2 10.712189447154001 13.235190552935865 10.063275542885759 -1 0 0
1756 2 2.4 9.304974863971644 13.573070037761834 10.808478672316303 0 0 1
675 2 2.4 12.31944525974821 13.0574980966872 10.111409893067025 0 0 0
1426 1 -1.2 13.044209940752275 14.26855683735741 10.880067677181172 0 0 0
2005 2 2.4 21.403219843545838 12.43461478305685 10.535591599118261 1 0 1
45 1 -1.2 21.66623072765176 13.692773122854314 9.545567469757685 1 0 0
143 1 -1.2 24.963582586938454 12.950141557687832 10.848544092496503 0 1 0
267 2 2.4 25.349992103712886 14.321949423196084 10.005222776608962 0 0 0
1481 1 -1.2 23.96184823452799 15.03165275565852 9.553150108157865 0 0 1
435 2 2.4 28.217245688757043 12.241584584698726 11.639044320215914 -1 0 0
1134 1 -1.2 27.950808833752628 12.374101098255451 10.044331349025711 0 0 0
2014 1 -1.2 1.4637671191753217 15.096626901096515 10.320487560338684 1 0 1
693 1 -1.2 1.8862550308558153 17.861333879270404 9.435607651823283 1 0 0
139 1 -1.2 6.267247142373719 15.136602672796899 10.471764030688547 1 -1 0
1318 1 -1.2 3.7182076784852938 16.7031439244056 11.153079406887908 0 0 0
225 1 -1.2 9.077041581641245 15.183703009325775 11.102041408370424 0 0 0
351 2 2.4 7.035180095055358 16.24534394356251 9.523813707289948 1 1 0
2016 1 -1.2 7.57741032974519 17.65550379281831 10.206631852208076 0 0 0
1229 1 -1.2 10.875264423733979 16.219040237038637 9.153499361627864 0 0 0
592 2 2.4 12.082312735618276 17.324119821252953 9.216864899428721 0 0 0
1094 2 2.4 13.855891226988158 15.641540740065361 11.109179191024207 -1 0 0
918 1 -1.2 13.455174574572496 16.586697158172395 9.811312280322799 1 0 0
396 1 -1.2 15.444734574836414 15.30329898492786 11.31657161449802 0 0 0
614 2 2.4 19.192609114288132 16.32960587229828 11.460176101390417 0 0 0
174 1 -1.2 19.214475254606498 16.268866001612274 9.838870916460293 0 0 0
167 1 -1.2 26.275842738101662 15.372514955794697 10.843142595287178 -1 0 0
586 1 -1.2 24.303530252728173 17.96538966413852 10.101882498796662 -1 0 0
2013 1 -1.2 27.15675209124815 17.81554420476546 11.666408270293521 0 0 1
2078 2 2.4 2.9244375046332904 18.060763358631057 10.667411317361147 1 0 1
263 1 -1.2 3.922962596687857 19.18922326997471 10.120626809182221 0 0 0
735 2 2.4 4.796515945262539 20.50928171595035 10.442041443459916 0 0 0
1101 1 -1.2 5.95770870881211 20.64033308849709 9.319032016740861 0 0 0
158 2 2.4 8.616347714355069 18.711229577620077 10.946704528862494 0 0 0
1651 1 -1.2 9.375927048520259 19.828061318412384 9.962651108128018 0 0 0
1541 1 -1.2 11.770867083304694 18.438471465194745 10.367640383522831 0 0 0
213 1 -1.2 14.014705581494237 19.66106186440227 9.88337623621646 1 0 0
904 2 2.4 12.61831324379837 19.78930442014366 10.725232068649083 0 0 0
746 2 2.4 15.43987710032008 18.868447059377765 9.664217357534996 0 0 0
404 1 -1.2 16.539760856635294 20.01319933124294 9.278171923284232 0 0 0
499 1 -1.2 15.815677515000978 18.176387340494504 11.145063616728814 0 -1 0
708 1 -1.2 19.740752765140112 20.01544869001199 10.539615961651162 0 0 0
1035 2 2.4 21.252725790388567 19.930622161606543 9.87069403972463 -1 0 0
731 1 -1.2 22.160685106952734 19.244836710513933 11.018460851888118 -1 0 0
1203 2 2.4 23.48655542527568 18.41251599478327 11.448357312814117 0 0 0
49 2 2.4 27.961872202443224 19.23903004916294 11.61925628984259 0 -1 0
1926 1 -1.2 28.791211277327182 19.32685608697758 10.223843868789828 0 0 1
2009 1 -1.2 1.1144233894102744 22.026722119807797 9.314836512320955 1 0 1
1748 1 -1.2 3.8266612787711174 21.819840967074338 10.401721812080057 0 -1 1
1250 2 2.4 3.5762542849055827 23.39382736947931 10.137907013931713 0 0 0
764 1 -1.2 7.021088509689344 23.385041428579637 11.537383765438266 0 0 0
506 2 2.4 8.600706980796929 23.772362007435717 11.294057803868954 0 -1 0
1858 1 -1.2 11.718041315267136 21.07942125486369 10.344436011941827 1 0 1
160 2 2.4 10.151007449110326 21.31556259255719 9.940656692650878 0 0 0
876 1 -1.2 9.4637794221415 22.385241312603995 10.99841177444144 0 -1 0
784 2 2.4 16.454319228398298 21.634166178765565 9.401961517759197 0 0 0
1654 1 -1.2 15.975874402314492 22.039797986417426 10.902212869536944 0 0 0
117 1 -1.2 17.929554194470118 22.264198590577912 9.14448818761478 0 -1 0
1381 2 2.4 21.735489486053194 22.912461150289946 9.092825017479592 0 -1 0
2062 1 -1.2 21.910758639562175 21.36578923414063 9.529431660508543 0 0 1
882 1 -1.2 21.758293918841332 23.73028787058851 10.509825626472814 0 0 0
1301 1 -1.2 27.51853324625472 21.7391895116118 9.318471368916127 -1 -1 1
116 1 -1.2 28.74288666224773 22.657840330300132 11.492375084045456 0 -1 0
1645 2 2.4 28.756230772143823 22.646251194397532 9.859926585047425 0 0 1
443 1 -1.2 3.1581964413146713 26.484432169972855 10.53629639586069 0 -1 0
808 2 2.4 1.921965565779639 25.632432570920642 11.196359172137244 0 0 0
549 1 -1.2 2.181502694250026 24.046105348170283 10.748226514369643 1 0 0
299 1 -1.2 0.5384482186130061 26.151974487199492 10.481649367348927 0 -1 0
90 1 -1.2 4.72229312788332 24.33689900357642 10.854172770725887 0 -1 0
1935 2 2.4 4.691919750441767 25.917387647202624 10.37382784557072 1 0 1
247 1 -1.2 5.675406719535574 26.640527724916517 11.415111305209946 0 0 0
150 1 -1.2 8.721965554453533 24.627931934451688 9.94307121558255 0 -1 0
16 2 2.4 14.124586189128843 24.948510756574535 11.101160723782163 0 -1 0
56 1 -1.2 14.288417129016754 24.19165275385093 9.696452603923964 0 -1 0
1352 1 -1.2 12.631318293412681 25.477393528897526 11.411726412336234 0 -1 0
1677 1 -1.2 14.958736737227708 26.340939583727373 11.111359172607198 0 0 0
912 1 -1.2 17.458234517138926 26.784234655708527 10.867837288684175 1 -1 0
1615 1 -1.2 17.339450180703615 24.19725541581968 11.65628716662123 0 0 1
1698 1 -1.2 19.551336466368447 25.368719386689307 10.621737172913813 0 0 0
2080 2 2.4 20.264677167116332 26.661724216042373 9.900251419593394 0 0 1
277 2 2.4 18.232559150150877 25.53675012995827 11.568223181264143 1 0 0
511 1 -1.2 21.885675460972205 26.443264433160518 9.91033250215074 0 -1 0
1667 1 -1.2 25.242881206643393 24.3101549857095 9.105701727325123 -1 0 0
2065 2 2.4 25.43575893908399 25.86953880575119 9.480808583762148 0 0 1
476 1 -1.2 24.461012270572322 26.274815335661163 10.725924485866727 0 -1 0
269 1 -1.2 28.57262423195999 24.114724379170998 9.18927858094588 0 0 0
1095 2 2.4 28.50762256610176 25.72422850241406 9.331028009175316 -1 0 0
2147 1 -1.2 27.005417671962043 26.142997526440695 9.814284461365828 0 0 1
1863 2 2.4 1.8023285789082217 29.65473167485126 9.0289392162984 1 -1 1
1161 1 -1.2 1.4937937821219338 29.45012185190179 10.609783319843805 0 0 0
315 2 2.4 6.486413586875214 29.63374961896172 10.54395900540667 0 0 0
1903 1 -1.2 6.423827857331995 28.575022467916348 9.297562416462737 0 0 1
229 2 2.4 11.945917634540944 29.617132652370895 10.327240041763691 0 0 0
1354 1 -1.2 12.241635537562912 28.14572841990831 10.984848073079053 0 -1 0
930 1 -1.2 15.754918301270832 28.679022854658754 10.225844192936332 1 -1 0
2089 2 2.4 16.019471089668286 27.093288858602488 10.163633925912404 0 0 1
148 2 2.4 19.395733559224364 29.287734749641125 11.613052208453215 0 0 0
1703 1 -1.2 20.05098801829299 28.014858158730082 10.823683396768907 0 0 0
1312 2 2.4 22.78502917812854 29.693416142625917 9.327171472274642 0 -1 0
745 2 2.4 23.058211445081376 27.070402011530295 10.858343766780434 0 0 0
1423 1 -1.2 23.099486930979975 28.665585706951628 10.538148892810549 0 -1 0
582 1 -1.2 26.319217413093668 28.849860955416844 10.527004674148705 -1 -1 0
441 1 -1.2 4.408900424090813 2.2097597305460805 12.845479518552674 0 0 0
121 2 2.4 4.609699179044546 2.089878877415041 14.462756750502963 1 0 0
449 1 -1.2 8.83353257586561 1.0531254155881071 12.682284873861194 1 0 0
1269 1 -1.2 11.466699044121672 2.3162129181633677 13.321301865685687 0 1 0
1971 2 2.4 12.932624706542946 2.230167750605516 12.616419711696066 0 1 0
467 1 -1.2 13.932257274407565 1.2836272744503554 13.486963706638061 0 0 -1
890 2 2.4 15.543977890633407 1.2731674920846703 13.213133038754014 0 0 0
2144 1 -1.2 16.331889000118043 2.2498763835246764 14.23723148576131 0 1 0
531 2 2.4 20.595311325249877 2.8643862942995026 12.497782460921384 0 0 0
2048 1 -1.2 20.468666541872874 1.321840544635839 11.9056112705023 0 1 1
355 1 -1.2 20.77589701498602 2.9641448459114375 14.133467409612004 0 1 -1
1691 1 -1.2 23.70300534998713 1.7227505586382699 12.423221671775021 0 1 0
447 2 2.4 24.405519106537614 0.8026828074497324 13.538727084260037 -1 0 0
850 1 -1.2 29.163043755856076 2.0793500841870705 12.11502378691427 0 1 0
544 2 2.4 28.550557043023744 2.7286148414008413 13.495467432613271 0 0 0
1197 1 -1.2 28.145997988279785 1.5317147762916885 14.516573117936959 0 1 0
1254 1 -1.2 2.64560587018145 5.373473597028064 14.070273056794658 0 0 0
52 2 2.4 1.0532931233081617 5.209965992267154 14.412084495940528 1 0 0
252 1 -1.2 0.6418232761738152 3.652764011625841 14.142715962015826 1 1 0
942 1 -1.2 5.185074220603985 5.3030347180745805 13.116873770472289 0 0 1
112 2 2.4 4.202968614972716 5.117861572568181 14.413945520069499 1 0 0
1070 2 2.4 6.6612240962929175 4.809746272398539 12.604343588391181 1 0 0
414 1 -1.2 7.66364392440898 4.566530609982784 13.878397143514812 1 1 0
1751 1 -1.2 10.520884489417792 5.258151276175819 12.687685517479155 0 0 0
1000 2 2.4 10.665310986989951 5.956521097201173 14.136985692793205 0 0 0
595 1 -1.2 13.718453426057119 3.6520040989588964 12.695564553597135 0 0 0
245 1 -1.2 14.30875355079255 6.154053900138667 12.76362503909436 0 1 -1
2115 2 2.4 14.742343056144792 4.738551536782354 12.04975629759067 0 1 0
259 1 -1.2 12.25129704077204 6.226585817842175 14.45783538183752 1 0 0
1148 1 -1.2 16.329535704396143 4.388255238676126 12.306505273015965 0 1 0
1003 1 -1.2 19.1179250165685 3.5701933676079367 12.206668239395357 1 0 0
295 1 -1.2 21.968234029103947 3.5056458154580477 11.830281657605932 -1 0 0
23 1 -1.2 23.138895929986425 6.056034520775443 13.858115364836921 0 0 0
1558 1 -1.2 26.064526499859888 5.924618321428427 12.656461776800072 0 1 1
1429 2 2.4 26.457441275480765 4.440162506749247 12.128127887419891 0 0 0
1121 1 -1.2 27.14278180799094 3.5150637559503237 13.284717258237105 0 1 -1
179 1 -1.2 29.187389537713788 6.191580940803931 13.547926365625887 -1 0 0
186 1 -1.2 3.2288816572635257 7.795034229983875 12.774982023103167 1 0 0
771 2 2.4 2.4559824361776763 8.730969266458342 13.889850183662315 1 1 0
1808 1 -1.2 1.1019093736610652 8.130443533394184 14.52695476601634 0 0 1
1372 2 2.4 6.759409917180684 8.94383336816039 12.346081850510172 0 0 1
1248 1 -1.2 7.294953414865366 8.459803904710776 13.808013821263426 0 0 0
33 1 -1.2 9.594382703182871 7.199086399997977 14.13456020640703 0 0 0
483 2 2.4 13.83818121169469 6.602401082032949 14.261023143991805 0 0 0
1727 1 -1.2 13.97503193836009 8.212331042964948 14.55621846198439 0 1 0
1516 2 2.4 17.491360480830913 7.267172482711563 12.240894499608785 0 0 0
1412 1 -1.2 16.883385650377747 6.984645598628748 13.713673520464981 0 0 0
331 1 -1.2 18.597055106069575 8.430541052441432 12.307804807684189 0 1 0
805 2 2.4 20.192525064917238 8.659815336849219 12.394074507924365 0 1 0
10 1 -1.2 20.949603611323305 7.296499509779592 12.9050712068717 0 0 0
352 2 2.4 22.568155174963074 7.0909656047455485 12.738047069135286 0 1 0
1159 1 -1.2 23.08965856892279 8.642138652231099 12.894116826002561 -1 0 0
1156 2 2.4 26.327896579889536 7.5331726067305205 12.556342751221178 -1 0 0
785 1 -1.2 25.472053095280486 8.285711109140808 13.717907510939693 0 0 0
343 1 -1.2 27.85777380996986 8.009109687211028 12.771846500282038 0 0 0
1575 2 2.4 28.55394318504073 7.713335054467789 14.284191970962924 0 0 1
828 1 -1.2 2.1363381434416695 10.09908870495383 13.052768723258083 0 1 0
1435 1 -1.2 6.108667319855935 10.436964605056767 12.489490903411031 1 0 0
1897 2 2.4 6.551604509673809 11.867778451406675 13.154668346806725 1 0 0
500 1 -1.2 8.031776156770793 11.591126677416106 13.841876546965091 0 0 0
1220 1 -1.2 10.009621931057598 10.601720387355263 12.134742835390107 1 0 0
1142 2 2.4 9.567719439380209 11.753901598231808 13.234180647184475 1 0 0
185 1 -1.2 10.729321955963687 12.046961432431127 14.365890672321981 1 0 0
940 2 2.4 13.615407300908426 10.755292328003893 11.906328372562202 0 0 0
383 1 -1.2 12.991703308656572 11.17331358917449 13.364314808754584 -1 1 -1
1210 1 -1.2 15.223036112717546 10.97842637988847 12.083676436088389 1 0 0
28 2 2.4 16.66960394478994 11.719203441390963 12.260879120491246 0 0 0
509 1 -1.2 17.64114620707544 10.962617675089056 13.345679522488796 0 0 0
714 1 -1.2 20.223436132863423 9.94624060313199 13.408587299343523 1 0 0
1564 2 2.4 18.920030592140265 10.476181259304402 14.269196860220422 0 0 0
1508 1 -1.2 24.78016073799326 10.678594018767935 12.509483617352595 -1 0 1
436 2 2.4 24.365484591820017 9.454912204783856 13.526356128353507 -1 -1 0
1882 1 -1.2 28.92666639737242 10.847264682333599 11.98431348389711 -1 0 0
136 2 2.4 1.7553546132688709 14.839537717441015 14.594220669500126 1 -1 -1
1531 1 -1.2 4.6163605103213765 14.652842496212662 12.461942117365313 0 0 0
776 1 -1.2 5.3517455844032975 12.452423516388029 14.079953735763413 0 0 0
5 1 -1.2 6.6089936565162715 13.015509663214932 11.995647611082905 0 -1 -1
2155 1 -1.2 9.459933413687727 13.099151254277054 12.34792335610127 1 1 0
1302 1 -1.2 12.580269712733644 13.855167945079014 13.620621927571861 0 0 0
760 2 2.4 12.349621000357981 12.375366694040624 14.262905911404753 0 0 0
1127 1 -1.2 16.489251012461896 13.272098393017675 12.71815974574866 0 0 0
51 2 2.4 16.49397171486359 14.886464154183503 12.519808937299299 0 0 0
917 1 -1.2 22.0886776995388 12.693206702314985 11.985974517184383 0 -1 0
57 1 -1.2 22.49872133744911 14.922300723458045 13.519981380748014 0 0 0
421 2 2.4 22.691029309115113 13.328642828916726 13.370517529428907 0 0 0
651 2 2.4 25.22446593195877 12.249373223884914 12.321543075183419 -1 0 0
539 1 -1.2 24.313339649602064 13.063198481636558 13.412354927909963 0 0 0
619 1 -1.2 26.850125768480485 12.388480713634614 12.528890743555426 0 0 0
321 1 -1.2 29.336413244691425 13.365805914059267 12.077972909709601 0 0 0
1158 1 -1.2 2.0374570625550983 15.200644591651603 12.857078645240628 0 0 0
1755 2 2.4 3.683175429331666 15.949059058970573 12.582628647015683 0 0 1
1242 1 -1.2 4.075023236745384 16.8495041300614 13.872790857143045 0 0 0
696 1 -1.2 8.375351023904916 15.872794772354897 13.575931509318556 1 0 0
1687 1 -1.2 9.503088329818874 17.689679187345405 11.879048298494075 0 0 0
242 2 2.4 9.453030575787988 16.133500912901486 12.385181628188684 0 0 0
773 1 -1.2 10.887147686791957 15.779697832998627 13.010522338889713 0 1 0
1369 2 2.4 12.352548730474078 15.46629940194069 13.592887858025618 0 0 0
669 1 -1.2 13.39032814750263 16.22526911292306 12.569524378799757 0 0 0
498 1 -1.2 16.99841906181012 17.79701709772889 13.80158066398898 1 0 0
725 1 -1.2 16.1244959002162 15.441616279891416 14.03563717107066 0 0 0
1891 1 -1.2 17.957031896238703 15.441546408325085 12.038577125602359 0 0 1
1325 1 -1.2 20.602126149371266 15.754177903297919 12.02518417220815 0 0 0
223 1 -1.2 19.128266022660274 17.875520699827817 11.934598600035136 -1 0 0
542 2 2.4 21.769257628775428 16.28385093607522 13.03448333893951 0 0 0
1966 1 -1.2 22.94777290373122 17.12086568209113 12.274183881059601 0 0 1
1076 1 -1.2 21.068071388124515 17.160846074997767 14.225193740267104 0 0 0
910 1 -1.2 26.10518967106132 15.998058759294361 13.310786546388796 -1 0 0
1160 1 -1.2 28.603356950619787 15.822270526221791 12.147168330331482 -1 0 0
1345 2 2.4 27.013383949401018 16.237973318591752 11.98948281891518 0 -1 0
1052 1 -1.2 2.0801285219062957 18.3279000680306 12.013463809051647 1 0 0
1970 2 2.4 1.578897405485484 19.4741699428401 13.045285552560081 0 0 0
176 1 -1.2 2.4303715315028667 20.808291100948708 12.685309919104329 0 0 0
812 1 -1.2 1.919257629853427 18.943041465371206 14.542942151203787 0 -1 0
1986 1 -1.2 5.378898167335741 20.245759287464093 11.938331464192373 1 0 1
123 2 2.4 6.719222630667422 20.301095833922325 12.877427489872048 0 0 0
1533 1 -1.2 7.92419233210984 19.74280113602169 11.981728629734299 0 0 0
1675 1 -1.2 6.724842008921653 19.391039590897766 14.212951661637634 0 0 1
678 1 -1.2 12.82274442901239 20.033855043652245 12.302550494995488 0 0 0
1611 2 2.4 13.398181346578749 19.67698879676239 13.76120532306493 0 0 0
308 1 -1.2 14.974551461328684 19.288061423081864 13.485941223436708 -1 0 0
1488 1 -1.2 12.357158729679709 18.55011560854075 14.352144837418791 0 0 0
237 1 -1.2 17.463912424230994 19.844265314045916 12.215725222149524 -1 0 0
508 2 2.4 16.292719748884977 18.76935727425078 12.655401211605772 0 0 0
1130 2 2.4 19.057131973557368 19.490316150511514 11.959569360175843 0 0 0
502 1 -1.2 19.810865179818947 20.129675402034046 13.263717391073554 0 -1 0
1138 1 -1.2 24.372717497270934 19.348379264464633 12.440169663761221 0 0 0
458 2 2.4 25.649718188152104 20.174147976678274 13.017919205975636 0 -1 0
1626 1 -1.2 26.292120400493534 19.318101678713578 14.27817971598385 0 0 0
1594 1 -1.2 26.775876888055166 20.328318776690363 11.83854041739902 -1 -1 0
1688 1 -1.2 29.04353266957481 19.560937129186424 12.80594585482891 -1 0 0
459 2 2.4 2.88870975478354 22.172297066396297 13.477999550773635 0 0 0
585 1 -1.2 1.5359788441522604 23.126035382707844 13.379227228394006 0 -1 0
1256 1 -1.2 4.33777596900886 22.78624280151976 12.933860926190032 1 0 0
604 2 2.4 6.007516661915754 23.11287603874896 12.844781070868194 0 -1 0
1233 1 -1.2 6.798472986934684 21.814843645102656 13.451269888746198 0 0 0
209 1 -1.2 16.428544696112212 22.41671171203391 13.448245496171495 1 0 0
111 2 2.4 16.125574371131442 23.16330940077423 12.056897371016307 0 0 0
1695 2 2.4 20.20655256946218 21.58261134017517 13.894221739941 0 0 0
1545 1 -1.2 20.929458818154398 22.36327470205249 12.651984796268744 0 0 0
1151 1 -1.2 18.886832178351288 22.434178836174794 14.38988737808869 0 0 0
769 2 2.4 21.86358165683021 23.57650579612417 12.120120189509821 0 0 0
1253 1 -1.2 23.440035732902164 23.418247095842982 12.446637648027602 0 0 0
20 1 -1.2 25.21997554430802 21.707471003057126 13.369240223403393 -1 0 0
1911 2 2.4 24.68137141764727 23.249410187862935 13.477516001770493 0 0 0
700 2 2.4 28.989734945264477 23.20743213037304 13.012726718611887 0 0 0
2004 1 -1.2 28.107150039454435 22.334325277345314 14.098552161130675 0 0 1
1678 1 -1.2 1.9191192076012604 25.844266702039803 12.829934673451948 0 0 0
1285 2 2.4 2.428992514638013 25.93232123451579 14.40538420437706 1 0 0
701 1 -1.2 3.94732909307362 25.3564424847973 14.507882946384433 0 0 0
65 1 -1.2 6.292048099445139 24.369418039019212 13.811100465640177 1 -1 -1
1329 1 -1.2 9.160815397446047 24.805995177970132 12.470969441382584 1 0 1
1417 2 2.4 9.58426403517158 26.192339342335043 13.2365465482063 1 -1 0
814 1 -1.2 11.0837329364367 26.68195246994262 12.92321210576449 0 -1 0
1097 1 -1.2 14.711816670160665 23.95708192886455 12.25448592361237 0 0 0
162 1 -1.2 15.857215129243631 26.552861581231266 14.380123992168127 0 -1 0
670 1 -1.2 18.802041223389367 25.90316454458698 13.080396409126697 0 0 0
1191 2 2.4 20.19940242004965 25.622924369047674 13.836646161514022 0 0 0
114 1 -1.2 21.301221089568127 24.902380592252896 12.929105439268891 0 -1 0
804 1 -1.2 25.81596783238237 24.38630501913862 13.167587996948312 -1 0 0
555 2 2.4 26.983719944641027 25.499803217426713 13.451508732055997 0 0 0
203 1 -1.2 28.40862139026149 24.7491935889745 13.104641417353191 0 -1 0
858 1 -1.2 26.745596975523632 26.804397844188376 12.500251202011869 0 0 0
1717 2 2.4 0.6168276179948056 29.70803087328926 11.954805797402141 1 0 0
450 1 -1.2 1.6324824468854013 29.372001570628413 13.16740840162711 0 -1 0
926 2 2.4 2.9366262729170436 28.809215826831014 13.930592943795823 1 -1 0
937 2 2.4 5.563121440741062 27.70763072783423 12.645875101730335 0 -1 0
317 1 -1.2 4.050288441336686 28.26345585363661 12.863289282239593 1 0 0
552 1 -1.2 6.0000536465384435 26.962916290642095 14.05120076676158 1 -1 0
775 1 -1.2 6.464861107542415 28.943408640976532 12.055727339742216 0 -1 0
329 1 -1.2 8.72785180242648 27.57362437421235 12.953074687180766 0 0 0
2030 2 2.4 8.871976856076783 28.99790724565945 13.76259045084944 0 0 0
1893 1 -1.2 10.298990838707171 29.380379844134723 14.533905893913483 0 -1 1
319 1 -1.2 13.581019459471005 27.382415551693125 13.175149240415964 0 0 0
469 2 2.4 12.43470314706253 26.962608506308527 12.100325576469862 0 -1 0
1430 2 2.4 14.843274739913507 27.80854076268904 14.105247815638993 0 -1 0
1067 1 -1.2 15.894580372114097 28.868084833106842 13.429264058550096 0 -1 0
1170 1 -1.2 18.914051330495226 28.796046259343388 13.117195586393807 0 0 0
416 1 -1.2 20.839220057086845 27.284003918843997 14.169775070202911 0 0 0
1023 2 2.4 19.628259018750793 28.53390737891254 14.53484741064647 0 -1 0
1514 2 2.4 22.58902441398166 27.542173206174905 13.929404732001219 -1 0 0
2063 1 -1.2 22.767063034944115 26.96906991964728 12.454504531589443 0 -1 0
461 1 -1.2 23.13011451576227 29.04337452194688 14.045565423165176 -1 -1 0
1244 1 -1.2 25.684647112988507 29.11014817474408 13.016686523985259 -1 0 0
1512 1 -1.2 28.363258092518528 28.773270701857573 12.135123101677275 0 -1 0
374 2 2.4 26.787984958887446 28.377599128206132 12.044610710706579 0 0 0
962 2 2.4 1.981541609883823 1.8775454284403374 17.082579997336282 0 0 0
83 1 -1.2 1.1690247688941438 0.9590266517810663 15.97055349974913 0 0 0
1030 1 -1.2 3.6145450963457666 0.833605044570398 14.831614940165665 0 1 0
645 1 -1.2 6.105486652641217 1.775421484279962 15.05380821870725 1 0 0
1929 1 -1.2 3.613570671261887 2.101209491552333 17.167381109792604 1 1 0
350 2 2.4 6.925933517014658 0.716955519023736 16.010322795147367 1 1 0
560 1 -1.2 7.971985484474379 1.3834079413513887 17.092105640115278 1 0 0
54 1 -1.2 9.194054868815087 2.617973978284431 14.862700497598288 1 0 0
1309 2 2.4 10.620759320728233 1.8254119172574002 14.646136185050095 0 0 0
1664 1 -1.2 11.576611140823317 2.139182091021823 15.914375537998092 -1 1 0
2106 1 -1.2 16.184563460437165 2.9339672303756696 16.749284409359753 0 1 0
1288 2 2.4 17.090583488838 3.0934986947356173 15.398840347096554 0 1 0
505 2 2.4 20.17181412916435 2.1903916122984506 15.449260341647781 0 0 0
1836 1 -1.2 18.57028917075418 2.4278956063860067 15.562916121470417 0 0 0
1135 1 -1.2 20.466909476849768 0.5981849884004067 15.119965991377565 0 1 0
1939 1 -1.2 20.84087603989996 2.594705044256784 16.881685806541707 0 0 1
533 1 -1.2 23.301530132866425 1.850276912386055 16.918042835851168 0 0 0
1133 1 -1.2 24.93817836534048 1.592577972525963 14.844139703486574 0 1 0
529 2 2.4 24.469625411129712 2.558780033220084 16.05581667734779 0 0 0
1881 1 -1.2 25.715914916747955 2.688813687498685 17.12266472321335 -1 1 1
463 1 -1.2 27.934515702867923 1.2602541558253522 17.186278972266848 -1 0 0
304 2 2.4 28.606797401490088 0.7062524677467233 15.825355496767845 -1 0 0
17 1 -1.2 1.596453409241135 3.426722621461648 17.068436227097198 0 0 0
1633 2 2.4 0.7095830541493102 4.735616637022769 17.35278087325935 0 1 0
2108 1 -1.2 0.7772310458079283 5.564412947525977 15.985844060837934 0 1 1
665 1 -1.2 4.2883296263816595 3.5988121331123435 15.018331629733405 0 0 0
58 1 -1.2 4.815611560616915 6.212763762714724 15.45008468220226 1 0 0
824 1 -1.2 7.8628834515254935 4.414152044044654 16.53549724729331 0 1 0
193 2 2.4 8.64184923711637 4.13725481860193 15.128769333689348 1 0 0
911 1 -1.2 10.040979113438818 4.971710277477868 15.27078370826881 0 0 0
1279 1 -1.2 14.977918222403261 5.953980777399059 15.284749027221274 1 1 0
61 2 2.4 16.60934217653091 6.1813369595882035 15.107872663180252 1 0 -1
1128 1 -1.2 17.284938556649482 4.690829050933948 15.08725295359351 0 0 0
1637 1 -1.2 22.264935440472 5.858298472002078 16.29730117556431 0 1 -1
88 2 2.4 23.542782535661303 5.497999873500009 15.342807086116261 0 0 0
1363 1 -1.2 23.8213823484419 3.8893738786369108 15.375564453091744 0 0 0
1173 1 -1.2 24.968597823093578 6.068260330630664 15.825837428948024 0 0 0
1331 1 -1.2 3.2797516686724433 6.894495866972612 17.380711570999495 0 0 0
862 1 -1.2 3.4547943412119624 9.022236434830845 15.161827347334837 1 1 0
349 2 2.4 4.848638537318911 6.716234948433947 16.987587416556952 1 0 0
972 1 -1.2 5.554520909217626 8.128041268371389 17.340662921334648 0 0 0
424 2 2.4 8.616201592501021 8.337665417983846 14.741112321299328 0 0 0
1404 1 -1.2 7.876790300373669 8.27019060313809 16.209322248214495 0 0 0
1467 2 2.4 6.65394979895402 9.18249521199172 16.80563901024236 0 0 0
465 1 -1.2 10.915822273054477 7.67368315648762 16.60073287424128 0 0 0
914 2 2.4 13.78262016504915 9.11733105551221 15.887754690518202 1 0 0
1341 1 -1.2 14.082425823039655 8.312460186658294 17.290018625591333 0 0 0
1029 1 -1.2 17.293596699589337 7.11078171742512 16.28360373338275 0 0 0
548 1 -1.2 19.961585164273576 7.289663555240583 16.363815666739477 0 0 0
385 2 2.4 18.567173214669058 8.153202711662411 16.484586195756332 0 1 0
1765 2 2.4 21.106851510564 6.511762534732235 17.240140755033654 0 0 0
880 2 2.4 26.306422002304174 6.8359856114058 16.330667517672175 0 0 0
778 1 -1.2 25.820518975508424 8.336892887491976 16.565710683151806 0 0 0
705 1 -1.2 27.557609892400198 6.791270908624558 15.31402651878072 0 1 0
1339 1 -1.2 28.015790552251364 9.236365441447576 15.000530248791193 0 0 0
653 1 -1.2 3.387025891125259 11.578866674659626 15.499449472909443 0 0 0
816 1 -1.2 5.775784424568388 10.165982606590907 15.80432359712213 0 0 0
1310 2 2.4 4.125165834297395 10.224992186659735 16.033004593836974 0 0 0
1188 1 -1.2 9.726254267149141 9.559004157818665 15.001733681385174 0 0 0
915 2 2.4 10.776076542315943 9.263276579963323 16.227575974243834 0 0 0
70 1 -1.2 12.269356880728708 9.759481609358234 15.863356292255254 1 0 0
1358 2 2.4 14.288934348458165 11.800802975876417 16.61168007283283 0 0 0
490 1 -1.2 14.770746038601159 10.408030247528712 15.899951318851429 0 0 0
1473 1 -1.2 19.46963239174841 11.755356695990798 15.104940425006241 0 0 0
1697 1 -1.2 18.47405577541645 9.310883672927746 15.336721227763684 0 1 0
1414 1 -1.2 24.125068545804286 9.97147813088722 15.064828095051203 0 0 0
413 1 -1.2 26.207534785117538 10.760852928351936 16.57144868300022 0 1 0
135 2 2.4 24.971810523321324 9.68135574197318 16.444815218221013 0 0 0
324 1 -1.2 28.262408658677806 11.798902285069113 15.47976714164971 0 1 0
843 2 2.4 27.780365839445338 10.359578269550646 16.130104587308516 0 1 0
1039 1 -1.2 3.161339445612133 14.076845911642348 14.835208941536655 0 0 0
916 2 2.4 4.257754282396453 12.901382072659567 15.186040765835843 1 0 0
2158 1 -1.2 5.083526118896415 13.341616521784543 16.506498284633082 0 1 0
649 2 2.4 6.566930893555825 13.887392056552079 16.892068194221686 0 0 0
546 1 -1.2 7.423429700387787 14.241983535855912 15.542265301364237 0 -1 -1
996 1 -1.2 13.137513756411158 12.499462751369702 15.698561134505532 0 0 0
959 1 -1.2 15.66668742627206 12.619965556412026 16.843806636572012 0 0 0
1669 2 2.4 20.619894800077567 12.808974541295122 15.556619643610553 0 0 0
1007 1 -1.2 20.008461216684722 14.325772891091264 15.442880800151789 1 0 0
487 1 -1.2 17.99827168902715 13.697739372898457 17.060112251213347 0 0 0
1334 2 2.4 18.964113693880865 14.913161124442738 16.556955425591962 0 0 0
1018 1 -1.2 21.947360325605146 12.625635100373236 14.636088171736477 0 0 0
569 1 -1.2 20.974221913362292 12.706084327501744 17.137630864296245 0 0 0
238 1 -1.2 29.584632110145407 13.929850432683551 15.038537492593749 -1 0 0
565 2 2.4 28.16267757355221 13.395277919855896 15.702527018728324 0 0 0
2045 1 -1.2 27.95812951797222 13.676012287489455 17.287156135976172 0 0 1
1092 1 -1.2 26.974600370814564 14.264378975310574 14.999874051718365 -1 0 0
129 1 -1.2 1.4376601043402752 16.34248925732961 15.035337752418167 1 -1 0
621 1 -1.2 1.6487794687150852 17.926688384194446 16.977999960616874 1 0 0
998 2 2.4 1.1057410789085929 17.88438793261464 15.467933020713813 1 -1 0
1501 2 2.4 4.933221688625756 17.0768604390164 15.268831360297286 1 0 0
632 1 -1.2 4.235053726233794 16.181303797017215 16.433256036726732 1 0 0
883 1 -1.2 6.469301068907416 16.637687993603798 15.060997478683639 0 0 0
1658 2 2.4 7.832236798268414 15.765199733095134 15.090091462352634 0 0 1
623 1 -1.2 8.900708386991397 16.26470334294239 16.194634286866886 1 0 0
727 1 -1.2 10.988451799090472 17.66032929732857 16.620473748620544 0 0 0
1093 2 2.4 9.886283257061756 16.691108781975178 17.40732867633936 0 1 0
1291 1 -1.2 12.507062987847446 16.052638211222675 15.108786341953202 1 0 0
952 2 2.4 12.331509889277557 17.58302871754151 15.671796533981691 0 0 0
951 2 2.4 16.804951820033473 16.632928173918007 14.960065906014657 0 0 0
1014 1 -1.2 15.96854895860185 17.17650213526495 16.26224525337187 0 0 0
690 1 -1.2 18.142486569704616 16.04688222993408 15.709930198024237 0 0 0
2087 1 -1.2 20.13062296425361 17.943577178354467 16.709529129094488 0 0 0
1370 2 2.4 21.434225274657155 17.685190393470585 15.73381044758235 -1 0 0
1176 1 -1.2 22.322885040633242 16.475165441376614 16.341416058513154 0 1 0
856 2 2.4 23.693659082431186 15.780412577232344 16.851382600660894 0 0 0
676 2 2.4 26.062292526136723 15.609308024686898 14.893984891429167 0 0 0
993 1 -1.2 24.597188630897755 15.388417928437732 15.555602989297782 0 0 0
1157 1 -1.2 26.558542233238345 16.934184988229205 15.68670269575933 -1 0 0
1236 1 -1.2 4.966489914666987 18.59918963383808 15.835840624531912 0 0 0
1297 2 2.4 6.21229126906129 19.66239273247564 15.734122716110726 0 -1 0
1113 1 -1.2 7.487547070670414 19.493733857490465 16.771835818325275 0 0 0
992 1 -1.2 13.61443531602888 18.089900821503353 16.514352127824456 0 0 0
1102 1 -1.2 12.240744127250073 20.30368714560627 17.20214984108269 0 -1 0
468 1 -1.2 13.321327290300253 20.934187951203846 14.795073576303684 0 -1 0
1190 2 2.4 15.07192111671395 18.159757168513085 17.216433562427348 0 -1 0
1995 2 2.4 17.01006750587577 20.692544405212992 17.170741202589404 0 0 0
1532 1 -1.2 15.724779267963887 19.66716355492564 17.340734702476727 0 1 0
887 1 -1.2 18.282393526429207 19.730693253577424 16.841525343036167 -1 -1 0
935 1 -1.2 22.283259813282886 19.059354098043215 15.608343509347113 0 -1 0
1468 2 2.4 22.264374425540638 20.60704171291699 16.13736862260322 0 0 0
1198 1 -1.2 26.64569574691581 19.235878677810167 16.893370935575238 0 0 0
518 2 2.4 27.005553546953223 18.477417951645087 15.491522879279273 0 -1 0
955 1 -1.2 28.619014791503425 18.28652316816145 15.304903559297925 -1 -1 0
2156 1 -1.2 3.0683549952288036 21.73109215720482 15.022256641686557 1 0 1
1713 1 -1.2 5.551460439122364 21.133970258943133 15.960531638531744 1 0 0
314 2 2.4 4.062608115538133 21.716174306565193 16.301326390928903 0 0 0
2097 1 -1.2 4.230322491791513 23.294814726753934 16.668266293192747 0 0 0
755 1 -1.2 9.050998054780118 21.59289547197431 16.460628938897443 0 0 0
1041 1 -1.2 11.521272305842897 22.497536729469516 15.967788464034228 0 0 0
1119 2 2.4 10.15017304403914 22.74893810813047 16.83004116306573 0 0 0
770 2 2.4 12.79024163203687 21.487917273239464 16.225448349524918 0 0 0
756 1 -1.2 14.063048151870166 22.204985565735548 16.94257217426156 0 0 0
967 1 -1.2 16.808114161693393 21.65344960524188 15.87933002326547 0 -1 0
640 2 2.4 17.313151893484722 22.72143286527093 14.769671552034437 0 0 0
1439 1 -1.2 18.863206882143146 23.539346192633257 17.35696793509471 -1 -1 0
1530 1 -1.2 21.259908118509493 21.43617900720543 15.118417623022442 -1 0 0
1028 1 -1.2 23.819993786031645 21.12013456573921 16.012081026147495 -1 0 0
1579 1 -1.2 26.191693315868687 22.464575531815605 16.139577370106192 0 0 0
628 2 2.4 24.547577520073656 22.56234047727074 16.240535955272147 0 0 0
210 1 -1.2 24.120538516286523 23.532377219618084 14.98871828175793 0 0 0
2133 1 -1.2 28.439330234808438 21.073431525687145 16.374600798952457 -1 0 0
1131 2 2.4 27.776414341208778 22.408771625134207 15.710196420970503 0 0 0
521 1 -1.2 28.550450168331 23.715467031406607 16.281293806925596 -1 -1 0
342 1 -1.2 1.5869744290388177 25.09800388060502 15.544481180913952 1 0 0
2092 2 2.4 0.8896262762896606 24.319938158481254 16.806115213406 0 0 1
1670 2 2.4 5.557362431624099 25.507422912092025 14.686364301564613 0 0 0
1641 1 -1.2 6.006861037597674 25.20120333078767 16.238865347974173 1 0 0
494 2 2.4 5.2994317740428105 24.260350917302492 17.406500345639817 1 -1 0
1616 1 -1.2 9.500122456341783 24.218418659421616 16.631866982607804 0 0 0
846 1 -1.2 9.461710688530239 25.987511995117906 14.832628580392843 1 1 0
682 1 -1.2 11.786168009815027 25.316512439639972 16.028449613978044 0 0 0
1178 2 2.4 10.201810220148186 25.630522246222498 16.21207214957756 0 0 0
698 2 2.4 13.200727825984956 25.448477152742253 16.800668143086053 0 0 0
227 1 -1.2 14.344169253256341 24.9897142815171 15.725296349888197 0 -1 0
389 1 -1.2 16.244396385843633 26.288252428108027 16.998266289557343 0 0 0
591 2 2.4 15.905835569370092 25.476075626816144 15.60524046117736 0 0 0
1737 1 -1.2 16.9660891674912 24.28404281784675 15.218084023313535 -1 -1 0
273 1 -1.2 20.02381915407678 24.898764900945626 15.24988487281859 0 0 0
337 2 2.4 19.953338560009698 24.676272831237338 16.876948953826542 0 0 0
1243 1 -1.2 23.211129421036294 26.65949893818805 15.115948868143573 -1 0 0
1582 1 -1.2 21.504198801589197 24.375447448588503 17.284846530816242 0 0 0
1846 1 -1.2 23.946173621027103 25.707255576636577 17.38213087758653 0 -1 0
1223 1 -1.2 27.02047805626081 26.00055321360698 15.018668243719434 0 0 0
1956 1 -1.2 2.443399921038095 27.516958350256836 14.81999449730257 0 0 0
1617 1 -1.2 5.884317958322158 28.983272332103144 16.877783087525845 0 0 0
1199 1 -1.2 7.745585424763089 28.986214140636324 14.936885928569797 0 0 0
113 1 -1.2 10.033803093386659 26.881096452703485 17.238807187850224 0 -1 0
988 2 2.4 13.80837991384732 28.460853054553287 17.03480122861991 1 -1 0
835 1 -1.2 14.201599143317633 28.46771604678549 15.458244977583051 1 0 0
330 1 -1.2 13.232830130274651 26.969259598227264 17.380449037889186 0 0 0
479 1 -1.2 12.776884514506241 29.622929342209332 17.487650675903012 0 -1 0
1320 1 -1.2 18.66576136084311 27.903414775173605 15.668002811837852 0 -1 0
2114 2 2.4 18.960270270864996 27.61891156145175 17.281367520504254 0 0 0
1317 1 -1.2 22.925703259511312 28.139762592822933 17.333711966326433 0 -1 0
205 2 2.4 23.90523836075709 27.089671452437344 16.55844153031334 0 -1 0
1112 1 -1.2 25.411891779901392 27.659437550853802 16.281083702323723 -1 0 0
1942 1 -1.2 28.03358246872541 28.355304266738063 15.611408374948864 0 -1 1
723 2 2.4 26.990256072424213 27.201267708012523 16.136580537117766 -1 0 0
370 1 -1.2 1.6164860628091584 1.1060489222966647 18.466111477000315 1 1 0
1179 2 2.4 4.5676339178786085 2.6217699177050804 18.403478120496654 0 0 0
1716 1 -1.2 5.916324399154987 3.0725044469368514 17.625825193417572 1 1 0
1282 1 -1.2 4.927120158474784 1.1527027238754641 19.08495469214609 1 1 0
1026 1 -1.2 8.21258288656905 1.920374822057562 19.770626489241238 0 0 0
1347 2 2.4 8.811143005922563 1.1114358785784126 18.4693134047921 0 0 0
1276 2 2.4 11.797721609393182 1.7491757356300204 17.470449323530254 1 1 0
2028 1 -1.2 10.376027460462188 1.4948090147324737 18.214961159260604 0 1 0
1699 1 -1.2 12.497212159147958 3.0191133929591794 18.224826942741313 0 1 0
896 1 -1.2 15.959891745878982 2.1267796960433096 19.214112155179972 0 0 0
1192 2 2.4 16.47527160362831 3.3805765500684335 18.287936080711475 0 0 0
836 1 -1.2 19.932354635028382 3.017012775244041 19.743358369124092 0 1 0
1209 1 -1.2 21.88913592503991 0.9307522462957906 18.83048876233663 0 1 0
639 2 2.4 22.104018279538014 2.288757508802311 17.913708077820136 0 0 0
1322 2 2.4 26.63986379000861 1.6974420063415572 18.05515317707617 0 0 0
822 1 -1.2 27.187127818235783 2.439666533554252 19.409704534372523 0 1 -1
81 1 -1.2 1.2194489230271 5.709857337306492 18.543287995129123 0 0 0
1506 1 -1.2 5.78943926972183 5.679968818204063 17.81438463738149 0 0 0
1745 1 -1.2 4.1419168396693 3.948273925964156 19.32648080013665 0 -1 0
1790 2 2.4 6.8107812168274044 4.4172263212875205 17.774759824849877 1 0 0
1871 1 -1.2 7.511564692101494 4.388402285741266 19.254649999755262 1 0 1
566 2 2.4 12.10745445231577 4.396196313401132 18.989089405039 0 0 0
1175 1 -1.2 11.774282387498294 5.583788928742992 17.90099113138898 0 0 0
1631 1 -1.2 10.79401966045746 4.229777758491294 19.923067194619893 0 1 0
801 1 -1.2 13.308220402891147 4.870039326220207 19.967952214798068 0 1 0
1489 2 2.4 14.807690651200458 5.471707913825995 19.914989324899967 0 0 0
444 1 -1.2 15.644378878361703 4.677637913155625 18.78639030966292 0 -1 0
1314 1 -1.2 18.038738915685705 3.8712424311819285 18.27013921277635 -1 0 0
2079 2 2.4 19.364808608022674 4.426276617726215 19.037889677367968 0 0 0
497 1 -1.2 18.989322268877117 5.523464951195192 20.169594747302174 0 0 0
1555 1 -1.2 20.367372068333427 5.293151953068957 18.06361400335449 0 0 0
454 1 -1.2 22.5195451730373 3.6339663870116903 18.79250939122249 -1 0 0
1323 2 2.4 23.518545923882613 4.398883153022413 19.87347450174928 0 0 0
1437 1 -1.2 24.705541635095475 5.1844685397479235 19.08195231483741 0 0 0
1587 2 2.4 26.159036012814873 5.932984351524266 19.283198692488387 -1 1 0
2131 1 -1.2 26.72494292616166 6.307687539637133 17.81898313842118 0 1 0
1427 1 -1.2 28.39932738458835 4.118798504584677 17.927756486546947 -1 0 0
1249 2 2.4 28.15324081197561 3.7554274362043496 19.5036773909965 -1 1 0
336 1 -1.2 27.22208149167192 4.965564928065689 20.08126081066788 0 0 0
1676 1 -1.2 3.20107858206766 6.620031794960978 19.91575144681472 0 0 0
1011 2 2.4 2.247823673945495 6.960280453047221 18.637754157287073 0 0 0
644 1 -1.2 1.361659298977628 8.318441024087978 18.75649735985524 1 0 0
819 2 2.4 9.009217396361949 7.415159822568808 20.07862724038509 0 0 0
637 2 2.4 10.961591557397009 6.969464477585535 18.06266085854891 1 0 0
970 1 -1.2 9.418311614717622 6.843437696853296 18.595155097219596 0 0 0
1770 1 -1.2 11.74218075957515 7.937408000540784 19.17864609997261 0 -1 0
1559 1 -1.2 9.496597451759895 9.034181217706804 20.077542153564476 0 0 0
1232 1 -1.2 14.84243158285451 7.008394695257168 19.44304426332118 0 1 0
1923 2 2.4 12.294607787071909 9.095672809084077 20.17012673361768 1 0 0
1969 2 2.4 14.755759829338086 8.459922625290307 18.772631957401924 1 0 0
691 1 -1.2 18.56675542326998 8.805616490241134 17.998011305414305 0 0 0
53 1 -1.2 21.89840584972153 7.643983560223595 18.156718155741913 0 0 -1
1227 2 2.4 22.44828430225016 9.174243166213456 18.29092347535032 -1 1 0
897 1 -1.2 25.97269281122217 7.259304536491789 20.240737762763775 -1 0 0
80 1 -1.2 1.6840860558038038 10.934180698843027 18.765327778318547 0 0 0
927 2 2.4 3.2922955735134907 11.050901077688724 18.9426632464721 1 0 0
189 1 -1.2 3.933515494642129 10.28792049729024 17.656481885745425 0 0 -1
1834 1 -1.2 7.2888853713898865 10.11214420394902 17.99001976676212 1 0 0
878 2 2.4 7.589036456262643 11.536837954233443 18.71690814404991 0 0 0
2134 1 -1.2 9.14918485179023 11.597678756755272 19.265477549311342 0 1 0
1313 1 -1.2 6.71812458846378 11.616582765004221 20.067176660114246 0 -1 0
680 1 -1.2 10.251971127066799 10.020506984967268 17.565180589957706 0 0 0
2126 2 2.4 10.020689099248354 10.263437006637696 19.137111337659928 0 1 0
19 1 -1.2 11.621275478804685 10.688109482672997 19.71749820863638 0 0 -1
1008 1 -1.2 13.627667317802997 11.499894570866648 18.1027296474478 1 0 0
609 1 -1.2 13.824620652796835 9.360806238106624 19.79500450010762 1 0 0
1766 2 2.4 12.762493612297673 12.065994943688258 19.34071283695698 0 0 0
1196 1 -1.2 16.160639457956133 9.222331533892634 18.824962142020546 0 1 0
231 2 2.4 17.67776627026296 9.77582766994178 18.97961494586117 0 0 -1
281 1 -1.2 17.651837558667694 11.288563039300016 18.308161505945414 1 0 0
24 1 -1.2 20.507819582784457 11.709210721258108 19.583530603839275 0 0 -1
1539 2 2.4 21.53148720353037 11.733891284206255 18.302060920744854 -1 0 0
1749 1 -1.2 21.438271877680222 10.252059714448642 17.593950068154903 -1 0 1
2069 1 -1.2 22.430040545813135 9.67668571997565 19.837051228947836 0 1 0
1655 1 -1.2 23.06223643556361 12.175983275609074 18.77207525806601 0 0 1
1421 1 -1.2 23.912051432874435 9.495722879712085 17.662782708217872 0 0 0
743 1 -1.2 28.64274434589606 9.94531221932296 17.48271452091513 -1 0 0
327 2 2.4 0.5667652025957466 9.75676127159366 18.751072990076718 1 1 0
717 1 -1.2 28.852146236883165 9.994958382885326 20.1811484752727 0 1 0
280 2 2.4 3.0389631752224036 14.07862008653082 19.637408906734905 1 0 0
647 1 -1.2 1.432292783956264 14.34238986583453 19.438624374789228 1 0 0
1150 1 -1.2 3.5411812607458764 12.65781644278656 19.030104083259133 1 0 0
989 1 -1.2 7.4029437086077925 12.782562012674086 17.721748944134912 0 0 0
1185 1 -1.2 12.018166708331348 13.41184295753301 18.879403861981814 0 0 0
1597 2 2.4 11.61688807576943 14.951739355503 19.314685220700063 0 0 0
968 1 -1.2 16.477121014617943 13.42680423929466 19.20925836897591 0 0 0
938 2 2.4 16.970351477305528 12.713396967231962 17.827604133489018 0 0 0
236 1 -1.2 20.690539353884475 14.193029868772182 20.094382650715254 -1 0 0
108 1 -1.2 23.3578707349413 14.369593157680239 17.5871042072554 0 0 -1
1731 2 2.4 23.938376331241383 13.568278627213067 18.873080655305152 -1 0 0
1831 1 -1.2 25.579042615715363 13.519285773466539 18.71660498492961 0 0 0
2000 1 -1.2 27.710902246086764 12.24286834977725 19.471770818582577 0 0 0
2091 2 2.4 27.218224946410572 13.597015246475703 18.734768197896866 -1 1 0
1422 1 -1.2 27.833134858386675 14.92795051189332 19.478492581423524 1 0 0
1247 1 -1.2 0.5996525018930454 16.88111978769501 19.187044720948926 0 0 0
965 1 -1.2 3.7817491164055497 15.257641550499951 18.829338504852302 0 0 0
1665 1 -1.2 6.295712238250279 15.195141775182186 17.840278590530875 0 1 0
1107 2 2.4 4.872584826492116 16.016938532337786 17.935424128299797 0 0 0
1126 1 -1.2 5.169116994382661 17.474178945482215 18.55405649266688 0 0 0
829 2 2.4 8.251781678878173 17.514696466423924 20.10479988360026 0 0 0
1985 1 -1.2 8.959384280446157 17.22950380470529 18.654898977649825 1 0 0
1458 1 -1.2 10.736981091800681 15.446821997727717 18.044023596895133 0 1 0
1515 2 2.4 13.378982889480822 17.549565197302456 19.672827394646326 -1 0 0
1401 1 -1.2 12.865250185440532 15.97821604773627 19.626732338421643 0 0 0
318 1 -1.2 14.74187819530443 17.652920645536202 18.751923429095612 0 0 0
954 1 -1.2 19.743819272628357 15.46874330411034 17.90469527028411 0 0 0
98 2 2.4 20.540410634238796 15.616575047211429 19.326634697077466 0 0 -1
1494 1 -1.2 18.116490682437206 17.934242001498806 18.763889717802368 0 0 0
933 1 -1.2 21.97998171376482 16.361424238942945 19.264933801371818 0 0 0
1143 2 2.4 23.281414883853145 17.378635822666997 19.175588103645374 0 0 0
605 1 -1.2 24.30141454115009 16.743166669761244 18.03872090720057 -1 1 0
375 2 2.4 29.349478038565117 15.426461517544501 19.85897532979114 -1 0 -1
944 1 -1.2 3.4036654240843145 20.729363606486483 17.406742328121606 0 0 1
1204 2 2.4 3.245740222648678 20.300568203139658 18.966830221861784 1 0 0
2035 1 -1.2 2.2850369600559146 19.003932692672837 19.22673561997923 1 0 0
999 2 2.4 1.0692083070601353 18.248260944414508 18.456221277951407 1 0 0
1630 1 -1.2 4.715387139319587 19.901196904668183 19.567993754906514 0 0 0
1047 2 2.4 5.392454059236039 18.43494611222348 19.84184848655484 0 0 0
1715 1 -1.2 7.0126283727283685 18.586980432758896 20.005761220037435 0 1 0
877 2 2.4 8.538792896952465 20.48342136147737 17.562986901112488 0 -1 0
602 2 2.4 11.475245295737245 19.844508371250505 18.567943116904097 0 0 0
821 1 -1.2 9.859839336479327 19.742602670625207 18.223463779930984 0 0 0
1400 1 -1.2 12.119106592015907 18.451182541664885 19.127629864190915 0 0 0
1721 1 -1.2 11.779194708058107 20.934738015557972 19.763785285372013 1 1 0
1155 2 2.4 19.201504508196376 18.781390463416585 17.77148389213864 -1 0 0
1962 1 -1.2 20.040900195013528 19.59753236466903 18.872671112244227 0 0 0
1324 2 2.4 21.657042526613925 19.92012208637821 19.112019687633833 0 -1 0
945 1 -1.2 21.740186034784823 20.82859545323112 17.642649263779198 -1 -1 0
1284 1 -1.2 22.830307912849293 18.842008467324014 18.63604878138834 0 0 0
811 1 -1.2 28.88430480692583 19.250328103953326 18.293889301965482 -1 0 0
445 2 2.4 27.772502694392998 20.18487805447185 17.586098308220183 -1 -1 0
2121 1 -1.2 2.5810569408244532 21.607848597892414 19.674849288220276 0 0 0
1286 2 2.4 1.6940034127585886 22.914451491596168 19.267445428943603 1 0 0
802 1 -1.2 1.742536923025932 23.174500252606318 17.63735084587453 0 0 0
899 1 -1.2 6.102718383401711 23.18651564551931 18.3379037727542 0 -1 0
1308 1 -1.2 7.761422049712581 21.202756564507656 18.79499103218603 0 -1 0
961 2 2.4 7.107071767387733 22.527838852007392 19.444858347539178 0 -1 0
761 1 -1.2 8.192208145587271 23.713213555566487 19.66227726677094 0 0 0
1682 2 2.4 10.96916550454896 22.356436055187913 19.90708539857641 0 0 0
581 1 -1.2 10.45075855508981 22.647679739796526 18.41486760705576 -1 0 0
611 1 -1.2 14.608539502427506 22.45812383174102 19.529550901118846 1 -1 0
1239 2 2.4 14.544570015808864 23.234470361515555 18.11057166522125 0 0 0
2135 1 -1.2 17.379954278307213 21.678281300849466 18.468432448566105 0 0 0
1548 1 -1.2 16.072737844528802 23.77839644299008 17.841192551694743 0 -1 0
2128 2 2.4 17.570890860272172 23.340444082269975 18.384175056542396 0 0 0
1603 1 -1.2 22.113679850831723 21.189642343889272 20.06933880397099 0 0 0
788 1 -1.2 23.947772089764843 23.198711939557533 17.63173654401644 0 0 0
1493 1 -1.2 27.17309224119963 21.215320686483125 18.68739330127574 0 -1 0
1777 2 2.4 27.940594959648696 21.741715029880112 20.033527151737836 0 -1 0
648 1 -1.2 29.203375486968234 22.710156727264266 19.701672806659758 0 -1 0
2086 1 -1.2 0.5904953213652272 25.329230127795775 18.02518067482446 1 0 0
126 1 -1.2 2.3489506811851686 24.122005130704352 20.14156403505143 1 -1 -1
1353 1 -1.2 4.635726490267662 25.35412360041549 18.408247560970814 0 -1 0
1120 2 2.4 5.1778051750357 26.247737382186465 19.665652730722233 0 0 0
1343 1 -1.2 8.99419847503438 26.19674375263912 19.475288348531095 0 -1 0
1049 1 -1.2 13.44761941802192 24.454036357319268 18.081454988814126 0 -1 0
102 1 -1.2 15.557092345545422 26.69040963236914 19.64384686489987 0 -1 0
406 1 -1.2 17.842581867482025 24.270703688501488 19.726576006741123 0 0 0
960 1 -1.2 19.294752647987607 26.04801273379829 17.43091637375038 0 -1 0
257 1 -1.2 20.169217332148712 25.35784315539658 19.80679243539791 0 0 0
1217 1 -1.2 22.74783042000231 24.8713148808788 19.52849730107374 0 0 0
687 2 2.4 23.01076767028407 24.503563244559174 17.95224052367826 0 0 0
2152 2 2.4 28.848577430155004 26.616275977655473 18.54318468157435 0 0 0
214 1 -1.2 27.491643606677815 26.757788107174395 17.64178242875503 0 -1 0
1989 1 -1.2 28.523753341879875 26.417705556565885 20.13738258316969 0 0 1
1057 2 2.4 2.111522544162252 28.722535978684174 18.584160378382894 0 0 0
235 1 -1.2 2.740751066823639 28.52746789007524 20.07536754482436 0 0 0
394 1 -1.2 0.7932386482237034 27.852287583476034 18.273063198770185 1 0 -1
382 1 -1.2 3.430902645949013 28.454899046336237 17.648471589136317 0 0 0
1802 2 2.4 4.9308726247923085 28.912094952335597 18.200446063998026 0 -1 0
1786 1 -1.2 5.495129009519392 27.764050204162846 19.200903345167173 1 -1 0
679 1 -1.2 8.758324291593098 28.690971717212438 18.783868715953275 0 -1 0
1108 2 2.4 9.757270254208986 27.409937276079482 18.754751744116984 0 0 0
1835 1 -1.2 11.134601506185849 27.805484023221137 19.54340285347625 0 -1 0
1518 1 -1.2 15.168021290243352 28.630072106094143 17.917523137610715 0 -1 0
1141 2 2.4 16.13817929425653 27.365644226023118 18.24061034949348 0 0 0
1152 1 -1.2 17.667104030173675 27.998781108797726 18.193565146995628 1 -1 -1
694 1 -1.2 20.283842245899923 28.435589633579447 17.719728489576436 0 0 0
832 2 2.4 21.757547343695652 28.516514688114697 18.42711966271585 0 0 0
2098 1 -1.2 21.847835956785342 27.447519207547725 19.682505192025744 -1 0 0
575 1 -1.2 25.86842671542613 29.50604215903375 18.569950018922984 0 -1 0
1718 2 2.4 25.775266798384667 28.947169195736127 20.10876347381258 0 0 0
2129 1 -1.2 2.761955789855854 1.9928930846831088 20.847860128705744 1 1 0
1396 2 2.4 1.8257091604332478 3.265926300134038 21.279778466184517 1 0 0
92 1 -1.2 1.4400446223702108 2.8620491518940434 22.843055978716038 0 0 -1
1499 1 -1.2 0.6297597043431943 0.5543047559070339 20.88295808149118 0 1 0
2141 1 -1.2 6.395074730738934 3.162478430787335 21.46782632588545 0 1 0
1780 2 2.4 7.714024953003079 3.320987575932912 20.480673060075414 1 0 0
980 1 -1.2 15.08841983104126 1.9086325397181358 21.81655337534013 0 0 0
986 2 2.4 16.28481077211118 1.602878951026542 20.722183098167182 0 0 0
923 1 -1.2 17.65696960748337 2.43107129252696 21.07264225362282 0 0 0
1225 2 2.4 19.19980506172908 1.9644017667380564 20.78083037480866 -1 1 0
478 1 -1.2 19.88745481912353 2.0104243453859785 22.23617484601415 0 0 0
554 2 2.4 21.222076346014635 1.3036993929219836 22.809760217828483 0 0 -1
120 1 -1.2 22.283635464988482 1.3692964067971785 21.588832519110333 0 0 -1
1841 1 -1.2 24.152385648100772 3.180210727421171 20.725992967352475 0 0 0
1840 2 2.4 23.838292363742237 1.809831961168072 21.517981247192473 0 0 0
1650 1 -1.2 24.352894204973644 2.1203121222703425 23.020485095353422 0 1 0
464 1 -1.2 28.362186129482144 1.2991906520673797 22.888306673228982 -1 0 0
1884 1 -1.2 2.8041895898550844 4.564721537669648 21.417446424858316 0 0 0
133 2 2.4 3.923376008044443 5.231935257878944 20.406625774452873 1 0 0
1316 1 -1.2 5.287283188164054 5.876711927587808 21.093171250197468 0 0 0
1772 1 -1.2 8.802919301738216 3.9761742322265206 21.504757259831642 1 0 1
901 2 2.4 10.1556550095991 4.8585812809645645 21.283085143463627 1 0 0
2057 1 -1.2 11.155422135127576 4.6250358565734455 22.535446138672164 0 1 0
1866 1 -1.2 15.366846882656956 5.407420610310356 21.434451243679156 0 0 0
975 2 2.4 16.255951847833067 5.460678345443985 22.778444194625504 0 0 0
620 1 -1.2 17.772255580189924 5.05031902289612 22.442027576939314 0 0 0
1924 2 2.4 18.951075459131115 5.904632955188924 21.740166837734293 0 0 0
1832 1 -1.2 20.312757606617975 5.413129972179488 22.4683870377369 0 1 0
2154 1 -1.2 22.872028347993236 5.501019859699782 20.94039342408271 0 1 0
78 1 -1.2 29.53216842978787 3.514543511714511 20.384119624476305 -1 0 -1
1733 1 -1.2 28.257423859679395 4.144236592319631 22.847375331989465 -1 0 0
1934 2 2.4 6.247627059602217 7.161990569558831 21.499893527246947 1 0 0
1290 1 -1.2 5.446102501739921 8.580365918011942 21.596031417128934 1 0 0
572 1 -1.2 7.4201250633659495 7.372649830295984 20.362580141026715 1 0 0
1811 1 -1.2 7.020519195998888 6.8170842317417994 22.904301060453196 0 0 0
618 1 -1.2 9.829184995624404 6.468360760791311 21.145572777034598 1 0 0
598 1 -1.2 11.995548159544981 8.937303136253286 21.750144621104408 0 0 0
1416 1 -1.2 16.60486112148499 9.201684719813372 22.740395376503088 0 0 0
103 1 -1.2 18.634035313577023 7.497200346819654 21.847142211362883 0 0 -1
1216 2 2.4 18.119852690545475 9.028636234389506 22.107160318262764 0 0 0
1719 2 2.4 23.321924988657756 6.632495475637877 22.078338038437405 0 1 0
1868 1 -1.2 23.390908829637592 8.138920519902976 21.50463523136908 0 0 1
1686 1 -1.2 24.900908959913767 6.35647142322711 22.508150100356914 0 1 0
76 2 2.4 26.128965040575366 7.293290757341028 21.885482127846455 -1 0 -1
1556 1 -1.2 26.087449926704068 8.785152507328693 22.566045639327303 -1 0 0
885 1 -1.2 27.629681833842707 6.710339927401018 22.159151628045862 0 0 -1
1293 1 -1.2 3.438843844351648 9.807119664676566 22.788482190557033 1 0 0
1987 1 -1.2 3.900107039948567 10.310058140429298 20.255647963397873 0 1 0
1144 2 2.4 4.602279685424976 9.985250779491484 21.693355401187436 1 0 0
1271 1 -1.2 5.514542916676434 11.250060962938763 22.23098362314898 1 1 0
1838 2 2.4 6.792882896064601 12.071302579129908 21.63094561510078 1 0 0
1450 1 -1.2 8.113266444467024 11.600717992603952 22.481451182684754 0 0 0
1648 2 2.4 13.059121132517214 9.33566698592795 22.95637588610835 1 0 0
973 2 2.4 14.520021942522511 11.94072688593251 21.950646596877352 0 0 0
1523 1 -1.2 14.028434100866242 10.491589265238384 22.408317136148348 0 0 0
550 1 -1.2 16.02924042173457 11.810101291700974 21.336827772027657 0 0 0
1823 1 -1.2 18.156187311419135 9.71552818992323 20.577470994478876 0 0 0
1701 1 -1.2 22.340798440373963 10.460446732544773 22.44757929072735 0 1 0
1346 2 2.4 23.18475300854847 9.71498514056745 21.26333904326705 0 0 0
1886 2 2.4 22.01563628088584 11.975578000741091 22.9753597895904 0 0 0
1799 1 -1.2 24.6287563628537 10.490253788781684 21.21139539285837 0 0 0
1060 2 2.4 25.81108019658034 10.378996028475116 22.336857354471462 0 0 0
556 2 2.4 28.29973978142614 11.438563415725282 20.742580189287054 0 0 0
1063 1 -1.2 27.14171823934312 11.11636860098463 21.82394706129583 0 0 0
124 2 2.4 3.1958293769306136 14.695752534131245 22.690705124578834 1 0 0
1371 2 2.4 0.8021320078493644 12.60095129085609 23.04652472779145 0 0 0
1785 1 -1.2 3.5248214898216483 14.147489765944636 21.188959412971556 1 -1 0
1413 1 -1.2 6.767284979175292 13.708991942068067 21.61050069284231 0 0 0
306 1 -1.2 8.957758426594927 14.979652865232554 22.56845900159104 0 0 0
1546 1 -1.2 10.744972128653947 14.780799911763898 20.669820467423637 0 0 0
1110 1 -1.2 10.476114392477768 12.839370965794728 22.529231002417585 0 0 0
1538 2 2.4 10.44561197919476 14.449280046947633 22.223656548745097 0 0 0
1842 1 -1.2 13.504383424561054 12.384692384420603 20.7316869988128 1 0 0
747 2 2.4 16.88234803859599 13.079581776945506 20.745729437560872 0 0 0
953 1 -1.2 16.322215154739297 14.301160370897252 21.62240201843579 0 0 0
976 2 2.4 20.079909314018394 12.809176099695266 20.701411818834806 0 0 0
1068 1 -1.2 18.473573966107807 12.864382482601282 20.915373431664612 0 0 0
67 1 -1.2 20.685040661489744 12.477978572445146 22.17634945197507 0 0 0
561 1 -1.2 23.592608586883888 14.256068050524691 20.31373877806883 0 0 0
1829 1 -1.2 23.242086300078622 13.016545307433889 22.629265547639157 0 0 0
1058 2 2.4 23.44220637668954 14.483296647145714 21.918496040013842 0 0 0
2051 1 -1.2 29.34533321066229 12.450966728923605 21.50275134695143 -1 0 1
1590 1 -1.2 2.965231176358015 16.33081295507074 22.572835564713486 0 0 0
1662 1 -1.2 4.684143761392739 17.75992760615149 21.139487376117845 0 0 0
758 2 2.4 3.7470677349486508 17.772462764071303 22.46646508035641 1 0 0
1622 2 2.4 7.445990830444872 15.147374516481477 22.00597788031002 0 0 0
1931 1 -1.2 7.5585504207818675 16.152361572553055 20.725217989399198 1 -1 0
1350 1 -1.2 13.749033213061857 18.038873704848335 21.202053580859356 1 -1 0
1907 1 -1.2 15.000022700125228 16.18263674791425 22.80418933863616 0 0 0
617 1 -1.2 16.998842788816848 16.69074718679539 20.972102314268252 0 0 0
1215 2 2.4 16.476651448540892 15.765698223470464 22.243998943788732 0 0 0
1071 2 2.4 18.285427167421137 17.389740111988488 20.286966739142585 0 0 0
1147 1 -1.2 19.598067394934763 16.467215349261267 20.373133365803717 0 0 0
538 1 -1.2 20.791323473169964 17.565378638195895 23.014875469893187 0 0 0
1865 1 -1.2 22.268251759034058 15.475520874957544 22.477911841264593 0 0 1
1498 1 -1.2 24.810887044495367 15.208818238854803 22.362501449779423 0 0 0
283 1 -1.2 24.157380558432063 17.502806428346805 20.563732773899744 0 0 -1
1689 1 -1.2 29.3959574792992 15.567582295392842 21.477512294638206 -1 1 0
1431 2 2.4 28.644646376176322 16.41870818551175 22.635738494395856 0 0 0
932 1 -1.2 28.54431917687401 17.961979770991928 22.10416487317265 0 0 0
1663 1 -1.2 27.21318497130277 15.741537958218201 22.974341151722953 -1 0 0
1595 1 -1.2 2.713644770936166 19.043236680161247 22.439636736026287 0 0 0
1164 1 -1.2 9.396776373487851 18.17175692286584 21.078849554277717 -1 0 -1
1759 1 -1.2 10.092547551683571 20.299701657972307 22.711759070031427 0 -1 0
1623 2 2.4 9.763698358979687 18.70537804564831 22.58360303314757 0 0 0
453 1 -1.2 14.746699136401269 20.420649615212664 21.180010224243603 -1 -1 0
1180 2 2.4 14.50210235144297 19.143493014830344 22.15022544234765 0 0 0
1562 2 2.4 17.59012668241207 19.222142192347313 22.696162471008375 0 0 0
1415 1 -1.2 16.071230027779496 18.70552615204291 22.500884849695808 0 0 0
1476 1 -1.2 17.696619737791426 20.818636995056373 22.69672134346769 0 0 0
1137 1 -1.2 18.675962467047007 18.620186681412182 21.453729974750072 0 0 0
2067 2 2.4 20.47631726526848 18.731390597756274 21.93106882275752 0 0 0
1080 1 -1.2 20.282729163056736 20.11260766124208 22.723533523086143 1 -1 0
1451 1 -1.2 21.43254472808206 18.806039213252454 20.68524631104038 -1 0 0
1877 1 -1.2 26.46172752636902 18.872692152226136 20.722562782194526 -1 0 1
1375 1 -1.2 24.18238673775232 20.041268265850473 21.391322268271086 -1 -1 0
1635 2 2.4 24.980522137339335 18.64213042905963 21.385235946306498 0 0 0
142 1 -1.2 25.348835976504926 18.24375268098761 22.92227590364351 0 -1 0
1580 1 -1.2 28.567605054692358 20.426469101755792 20.79160536098518 0 0 0
1591 1 -1.2 27.37280521086791 20.16125133147908 23.0039249869191 -1 0 0
1263 2 2.4 27.73865459333983 19.30560969931392 21.64819424452305 0 0 0
42 1 -1.2 3.2214675941163957 21.705563727979225 22.74958871954192 0 -1 -1
774 1 -1.2 6.45115709548526 22.089291080723772 20.89174335107741 1 0 0
460 2 2.4 6.705938945399043 21.917047142081934 22.503243703278034 0 -1 0
2010 1 -1.2 8.18807962527621 22.417979005390773 22.935362110523894 1 0 0
884 1 -1.2 11.744794299465662 23.70194911007441 20.360232791304004 0 -1 0
471 2 2.4 9.709265202974633 21.89164787824223 22.640089635184545 0 -1 0
2058 1 -1.2 9.8358673908325 22.166166916432058 21.042937071855615 0 0 0
1153 2 2.4 14.78248062640842 22.02905921700961 21.0763846056785 0 0 0
1090 1 -1.2 13.514930614991481 22.56882218224758 21.94013913966838 -1 0 0
1642 1 -1.2 16.137833282881697 22.649533164176823 21.76521271528949 0 0 0
1031 1 -1.2 20.244704451244722 22.788971347171195 22.49117102693262 0 0 0
1833 1 -1.2 22.506888317853125 21.535086056833784 22.714792899726373 0 0 0
74 2 2.4 23.21632297546388 21.332339324760923 21.245090360108925 -1 -1 -1
792 1 -1.2 24.161381791441364 22.61290627318668 20.89906801706713 0 0 0
64 2 2.4 25.516346529473324 23.299331234161304 21.473458444661897 0 -1 0
1296 1 -1.2 26.829371717008303 22.58041817288244 20.856661373157028 0 0 0
266 2 2.4 2.8529550452268477 25.15264423071661 21.2831060886356 1 -1 -1
1608 1 -1.2 1.6342881398646312 26.119835707159123 21.72842118393801 0 0 0
36 1 -1.2 3.4713388294513234 24.352679679037756 22.572361575985017 0 -1 -1
715 1 -1.2 4.041837874695835 26.133394391071068 20.80642129819408 1 0 0
1349 1 -1.2 6.532380219863321 25.65556131059563 20.32854730310856 0 -1 0
1132 2 2.4 8.07582562766968 25.185627788378227 20.311327831065174 1 0 1
1963 1 -1.2 8.668898539872783 25.101518596960513 21.81281358490328 0 0 1
1022 2 2.4 9.50920147963562 26.15009285485846 22.71225848317994 0 -1 0
2023 1 -1.2 12.248473128935496 24.62329300595345 22.879777472674856 0 0 1
1477 2 2.4 14.568216440471423 26.42463217802345 20.93145621401866 0 0 0
1486 1 -1.2 13.911768459160129 24.94749558438855 20.790264357727928 0 0 0
1383 2 2.4 12.836574142119174 23.987990203602475 21.519667245732247 0 -1 0
1212 1 -1.2 15.426187615961075 26.239817454900066 22.340002960700073 0 0 0
688 2 2.4 18.730288440162703 25.40037371915453 20.55895012122321 0 -1 0
1974 1 -1.2 18.857861552974448 25.009203357266582 22.119468312485974 0 0 1
855 2 2.4 21.65608377200366 25.88524267717421 20.214286020441104 0 0 0
77 1 -1.2 21.62965039606428 25.67378943944472 21.830416853830208 0 0 -1
1998 1 -1.2 23.866723874378525 26.63363116496271 22.313021779673903 0 0 0
657 1 -1.2 25.559205382704643 24.886075904878595 21.08824406883134 -1 0 0
1359 2 2.4 25.319604228111963 26.39388129511028 21.628329337842192 0 -1 0
925 2 2.4 29.09971404210833 26.362110899945804 21.68083156917255 0 -1 0
1644 1 -1.2 28.44742588385833 25.113710483356492 22.51135537240927 0 0 0
625 2 2.4 2.2312208360067465 29.64006476441085 21.136862990683706 1 -1 0
1547 1 -1.2 2.6171987551456146 29.06004641725861 22.577835315707382 0 -1 0
2044 2 2.4 11.693812659700887 27.833880633816346 21.07747237659885 0 0 1
1788 1 -1.2 11.432970563667618 29.298107285419896 21.792024643885522 0 -1 0
1356 1 -1.2 10.800743505712079 26.771257232524164 21.93602533522012 0 -1 0
2093 1 -1.2 13.297448549375144 27.479770382010752 21.03102617792308 0 0 0
2095 1 -1.2 16.605024964121704 29.1534541281398 20.763462680487013 0 0 0
446 2 2.4 18.08834888815109 28.510142436472456 21.129482344334388 0 -1 0
2001 1 -1.2 19.177074399917736 29.523848119488708 20.376020519098716 0 0 0
558 1 -1.2 18.231901670206252 26.968830703269287 20.629709877958245 0 -1 0
559 1 -1.2 18.291204782474036 28.57409599318714 22.765067290757038 0 -1 0
1542 1 -1.2 25.472624751737513 27.353282715343415 20.3087569881998 -1 0 1
1927 1 -1.2 24.56758983196615 0.5709258396708563 20.808633342151087 0 0 0
847 1 -1.2 26.291391827089868 26.74115504506188 22.91430700559863 0 0 0
606 1 -1.2 27.196553929060684 29.242459886889957 20.798358578398 0 -1 0
493 2 2.4 28.44717046942637 29.275093343280545 21.78924353684583 0 -1 0
1613 1 -1.2 28.772479525187254 27.79840875460038 22.405184426910765 -1 -1 0
1657 2 2.4 1.7561865545208817 2.5936343445923096 24.40125267696262 0 1 0
1740 1 -1.2 2.3183819226607145 1.1582060457347896 24.841692263188197 0 0 0
2017 2 2.4 5.961706117274187 3.090398469102232 23.05623889089647 0 1 0
1088 1 -1.2 5.166810256461536 1.6681857588835998 23.241271147354723 0 0 0
1722 1 -1.2 5.423934525928233 1.4489950378732641 25.840714325546042 1 1 0
1048 2 2.4 5.507030595943372 0.6165633725484486 24.452294682209594 0 0 0
1757 1 -1.2 7.295915228938842 3.0013356318635394 23.99129416755331 0 0 0
786 1 -1.2 11.558958810249715 2.1498701285719286 23.49905388474788 1 1 -1
1311 2 2.4 11.126753036525068 0.582001401677386 23.34904115569095 0 0 0
1535 1 -1.2 14.302837151444482 2.164326836845063 24.504143327532695 0 0 0
686 2 2.4 15.070311607264632 1.3166498274237814 23.354648304842947 0 1 -1
671 1 -1.2 16.603838614947176 1.1590730471053323 23.803816644343552 0 0 -1
1628 1 -1.2 18.89540050414114 1.2651289438571087 24.73716248765471 0 0 0
364 2 2.4 21.583376587837538 3.30012174658545 25.179243758931893 -1 1 -1
2002 1 -1.2 21.69467534525377 2.215391088511925 24.01638631708452 0 1 0
1972 2 2.4 25.483761181341627 1.514614123292794 23.9807997719863 0 1 0
798 1 -1.2 24.94917009810976 1.1926136049247105 25.466581583772452 -1 1 -1
870 1 -1.2 26.607171690395845 2.67419111262246 24.16398692491424 -1 0 -1
1392 1 -1.2 29.185673974960228 2.621220693178925 24.980523402516123 -1 0 0
1767 2 2.4 28.109584633353286 2.719483851908214 23.60417230624591 -1 0 0
1140 1 -1.2 2.625438609488733 3.79203244161603 25.011756428219805 1 1 0
154 1 -1.2 3.2000408596580057 6.285936346995799 24.358566435099615 0 0 -1
371 1 -1.2 0.7072544755383858 6.138646406241385 23.646610562213958 0 0 0
1062 1 -1.2 4.919086228907993 4.27094398332326 23.587277383993204 1 0 0
1405 2 2.4 3.874932645587025 4.8389757285914285 24.720411975051224 0 0 0
380 1 -1.2 7.722650238047249 5.3202283897897145 25.02439059502047 0 1 -1
1117 2 2.4 8.250675084594652 3.781533105438541 25.055430728765295 0 0 0
1441 2 2.4 11.243591927071956 3.7128468900939207 23.88322318608819 0 0 0
597 1 -1.2 9.822600831356679 3.7496228927555144 24.661387814874335 0 0 -1
1479 2 2.4 12.775262659573844 5.746963503908539 25.68344133275337 0 0 0
1440 1 -1.2 12.411085574175104 4.396611535368177 24.811487056463783 1 1 0
1410 1 -1.2 14.34365959278592 6.228959936167537 25.4984407857331 0 0 0
1965 1 -1.2 15.742707757185402 4.467874142653728 23.950297374386757 0 0 1
1395 2 2.4 15.67551553939437 5.223487383764123 25.41427763891605 0 0 0
1880 1 -1.2 17.195039167909098 5.777933175881112 25.85957064265241 -1 0 0
789 1 -1.2 20.001319680338728 3.5603505106623765 25.61010537089853 0 1 0
1843 1 -1.2 19.799339344905118 6.330442200917811 24.830040044856048 0 1 0
256 2 2.4 21.046482042768016 5.8479758400226745 23.865361761546882 0 1 -1
2105 1 -1.2 21.989080859335036 4.742905645772266 24.582145764677918 -1 1 0
1768 2 2.4 28.25923270639562 5.730919673853881 23.27478612298082 -1 0 0
2099 1 -1.2 27.28875797315238 5.873052789739242 24.530644566356006 -1 1 0
1693 2 2.4 1.7242937728775978 6.982328463707147 24.612532179399114 0 0 0
1819 1 -1.2 1.6887258034076391 8.527769522315705 24.157304739762854 1 0 0
1390 1 -1.2 6.953801689704109 7.780877330150474 25.35912423790268 0 0 0
1621 2 2.4 7.755299034515335 6.807360539164009 24.361633809392846 0 0 0
1136 1 -1.2 11.807453588794305 6.937372058872537 25.130598494770304 0 0 0
1208 1 -1.2 9.309212465074218 7.3529889668326955 24.287092527474787 0 1 0
2018 2 2.4 10.341469918918172 7.508396196189893 25.56085089486272 0 0 0
2136 1 -1.2 14.072150705132364 8.086679057606611 23.14531730782176 0 1 -1
1019 1 -1.2 16.257109308403642 6.879177301115661 23.614352216700425 0 0 0
431 1 -1.2 15.353127032744762 9.078999669535634 25.20161269042368 0 1 -1
362 2 2.4 15.57993362080754 8.363362902835869 23.72696403789537 -1 1 -1
1436 1 -1.2 20.79569995287903 9.19295470045358 25.521853624900174 0 0 0
1378 1 -1.2 18.35228074437049 8.269874247100452 25.62001960472997 -1 0 0
1447 1 -1.2 22.25302477452446 6.82607249965555 23.30820177945721 0 0 0
681 1 -1.2 25.477190879375282 7.2683275336659445 25.808224350770352 0 0 0
1038 1 -1.2 2.881443826578569 10.686256207845615 25.265693295595767 1 0 0
1609 2 2.4 2.30643756569214 10.00794567484732 23.92087263956659 1 0 0
347 1 -1.2 1.1918064417301641 11.074044694581294 23.423299046685603 1 0 -1
6 1 -1.2 5.109405103792712 9.468665082454367 25.816196783781706 -1 0 -1
963 2 2.4 9.338097120965852 12.08239375660099 23.451717379921742 0 0 0
430 1 -1.2 10.020859086911287 10.81008009002118 24.173759198795917 1 0 -1
470 2 2.4 11.149199275611531 10.357017157361483 25.25640816016133 0 0 0
1294 1 -1.2 12.388282784635965 9.838998088663052 24.329203514925997 1 1 0
175 1 -1.2 19.113248261062832 9.592063733038263 23.327555898606118 0 0 -1
1861 2 2.4 19.237392860470408 9.545659408261063 24.990086584521162 0 0 0
860 1 -1.2 18.662015049967003 11.04538537510128 25.491799004390796 0 1 0
971 1 -1.2 21.83255025275926 11.989712130560074 24.60847181820658 0 0 0
1554 1 -1.2 25.3960075159691 11.168708639215277 23.719141958379662 0 0 0
1739 1 -1.2 26.918365564260817 12.104327102150316 25.749227873133556 -1 0 0
1174 1 -1.2 1.9719013914478467 13.724441997375848 23.195973690837548 0 0 0
571 1 -1.2 4.407471578859794 14.447007110783368 23.752324151477698 1 0 0
1059 2 2.4 5.715326277264626 15.096342958511311 24.49151502277931 1 0 0
2025 1 -1.2 6.503952433678274 13.935671882936912 25.340525892603353 0 0 0
1497 1 -1.2 8.846087969059111 13.05036228409424 24.65070379864719 1 0 0
262 1 -1.2 14.36299401561721 12.895365129262306 23.260336905509835 0 0 0
181 2 2.4 14.89992935536091 13.134536583389698 24.7839021342698 1 0 -1
107 1 -1.2 14.870219678289823 14.74325472334817 25.050275096337106 -1 0 -1
1673 1 -1.2 16.363601065148565 12.425567633401137 24.939601190438847 0 1 0
1816 2 2.4 17.775619430664744 12.438220822603068 25.786027565915028 0 0 0
641 1 -1.2 18.471562394545803 13.872345502189253 25.356810437520164 1 0 -1
1099 1 -1.2 20.00570950366623 15.110263598607872 23.690454903250245 -1 0 0
964 2 2.4 25.449298182375383 12.34712000345144 24.83398807381245 0 0 0
1399 1 -1.2 25.736701545438233 13.848867146382654 24.298955694069033 0 0 0
574 1 -1.2 24.16396732542203 12.349364053831588 25.828615009223633 1 0 0
2124 1 -1.2 28.67657892695297 13.105123189981676 24.057953126915024 -1 0 0
2101 2 2.4 28.226710033821316 13.211613007690872 25.601686419387253 -1 0 0
1116 1 -1.2 2.310959080724622 16.441124499328975 25.794218501903966 1 0 0
1708 2 2.4 0.8361838900743583 16.967618004552232 25.35494628810521 1 0 0
2082 1 -1.2 5.456154313013734 16.33452855892418 25.53027752028571 1 0 1
707 1 -1.2 4.701123757026977 18.006964080516486 23.73909441469681 0 0 -1
207 2 2.4 5.271450609392146 17.93834618860264 25.253176665591155 1 0 -1
839 1 -1.2 6.606760670566677 15.738200306837058 23.262135979124388 0 1 0
1736 1 -1.2 11.063827046535156 17.867327480452637 23.095182508471876 0 0 0
1122 1 -1.2 11.477384432604783 15.212770599524093 23.210854866074037 0 0 0
573 1 -1.2 10.382088011844015 16.615098731711807 25.256808373359256 1 0 0
1525 2 2.4 11.473619337249668 16.610198981672163 24.05431030790271 0 0 0
307 1 -1.2 13.021090780330804 16.695532581168116 24.582068255374555 0 0 -1
1299 2 2.4 14.564559667366034 16.20193690224451 24.38968544135881 0 0 0
1510 1 -1.2 15.542009825210318 17.26499458775002 25.121170295077857 1 0 0
1053 1 -1.2 17.490715283739117 15.689290271020523 23.509332330843755 0 0 0
987 2 2.4 18.657866944697297 15.29762368860102 24.583361020041465 0 0 0
562 1 -1.2 18.835399087092675 16.59053024937518 25.60366514945987 0 0 0
1046 2 2.4 21.277618033943263 16.115979861263344 23.592766023040223 0 0 0
990 1 -1.2 21.824473034035577 16.299171532206483 25.13600721123619 0 0 0
1454 2 2.4 25.78542898291531 15.358920321883142 23.63828117008268 -1 0 0
1817 1 -1.2 25.369775674829903 16.54445916977641 24.707530287742077 -1 0 0
367 1 -1.2 29.53018777250203 16.206528543660152 23.978831268595783 -1 1 -1
356 1 -1.2 3.146941126495135 20.24164094409861 24.84320891739187 1 0 0
1576 2 2.4 2.49101973590193 20.35832768722963 23.3961740786442 1 0 0
2039 1 -1.2 0.9192260087644223 20.72120652748806 23.30987168065418 0 0 0
982 1 -1.2 0.64247845815187 18.558491515497884 25.079199791986174 1 0 0
1830 1 -1.2 6.6529808300308675 18.794486274263242 25.30594603297134 1 0 0
452 1 -1.2 6.636710964393521 20.387146204642427 23.106111750062627 0 -1 0
1275 2 2.4 7.552998462933241 19.6216114982091 24.262914476761978 0 0 0
1979 1 -1.2 8.526414220419527 20.694086748657323 25.043541657823397 0 0 0
1025 1 -1.2 8.456689751502765 18.473935525827333 23.52674074048208 0 0 0
1827 2 2.4 13.618816262966533 20.166001259976927 25.07081196698042 0 0 0
920 1 -1.2 13.691254276144662 19.475940436559384 23.55241754903496 0 -1 0
272 1 -1.2 18.258392000843973 18.536690382478277 23.97080548215096 0 0 -1
1082 2 2.4 18.640306353349978 18.226631840358408 25.523340920681413 -1 0 0
2011 1 -1.2 22.421267807699785 19.908472987376143 25.278014542691558 0 0 0
1933 2 2.4 25.690603125579354 18.177741538850448 24.525543880850744 0 0 0
1270 1 -1.2 24.867049319855177 19.401327666961276 25.210825621044687 0 0 0
616 2 2.4 23.869348008404163 20.597949224736755 25.64522080103394 0 0 0
1073 1 -1.2 28.274991064293744 20.81620697272605 25.357251720299274 0 0 0
1710 1 -1.2 27.156068114391754 18.392245731898917 25.231089601932137 0 1 0
1938 1 -1.2 5.57120682332326 22.83011476584478 23.268903663844686 1 -1 1
1406 2 2.4 3.966135915675542 23.013857986934983 23.30319292585128 0 0 0
1553 1 -1.2 3.5748344418770763 23.36623995250551 25.015351935042247 0 0 0
1305 1 -1.2 10.670110221550294 22.707646590917594 23.683307163830705 -1 -1 0
215 1 -1.2 13.496810768521158 21.798119486471638 24.904890961608196 0 0 -1
1273 2 2.4 14.780923570234302 22.811945540620396 25.08454331554728 0 0 0
1300 2 2.4 16.92119079274496 22.1894766477382 23.126315060672432 0 0 0
1091 1 -1.2 15.963188767688361 21.90096471098899 24.402042489267387 -1 0 0
1484 1 -1.2 17.958471773000788 23.26174257324268 23.735887918425945 0 0 0
1380 1 -1.2 20.585426552984828 21.57599125245296 24.814242116003108 -1 -1 0
1922 2 2.4 20.95227199783212 21.510985841363716 23.20276556695606 0 0 0
1943 1 -1.2 24.082912371176295 22.111178533244143 25.0245056957449 0 0 0
97 2 2.4 24.440424299277755 23.549703971162412 24.302038985023156 0 0 -1
296 1 -1.2 25.479431520368962 23.164637373522236 23.10054239040937 -1 0 0
1789 2 2.4 28.486715776584266 21.09947074398657 23.75964024676938 0 -1 0
1913 1 -1.2 28.216526500289632 22.64285997480424 23.38392694586312 0 0 0
2006 2 2.4 2.0347996229338956 24.053243870367204 25.515482337971424 1 0 0
523 1 -1.2 1.163148484541444 24.101497777854036 24.168619256065575 0 -1 0
931 1 -1.2 9.999726562500623 25.313965319369903 24.014600594289725 1 -1 0
1264 2 2.4 11.203175843840588 24.214880245622442 24.06533291214046 0 0 0
1800 1 -1.2 11.888328419943496 24.382493622651335 25.54369015659634 1 -1 0
1411 1 -1.2 13.697877075929988 26.62120600937397 24.249173006382176 0 0 0
2003 1 -1.2 14.69502478068971 24.187491910959572 24.204122198499903 0 0 0
830 2 2.4 15.043180169181564 25.762320360228273 23.88133717822448 0 0 -1
1973 1 -1.2 16.3329251743971 26.059379710713166 24.811881522071694 0 -1 0
844 2 2.4 17.324704277535883 26.775893948620524 25.87361484095194 0 0 0
1394 2 2.4 19.346045015610734 23.93404312763361 23.218280095275666 0 0 0
60 1 -1.2 20.187038036035084 24.551285439391457 24.469657463329803 0 -1 -1
1778 2 2.4 22.675468490393875 25.824855568709555 23.07530127400505 0 -1 0
1278 1 -1.2 23.146910741722337 24.374046227131288 23.683914065811624 0 0 0
344 1 -1.2 22.0219225159977 26.726376145928825 24.255416000201087 0 0 -1
1258 1 -1.2 25.156600284144965 24.654905130276045 25.261560760601306 0 0 0
1599 2 2.4 28.625490744738414 24.14577187292839 23.80276438552688 -1 0 0
2094 1 -1.2 27.813023210173988 24.599308429188742 25.116745772215904 -1 0 0
1612 2 2.4 2.778517350349056 28.8943344568307 24.166275518540434 1 0 0
438 1 -1.2 1.855868680991991 27.686723427541132 24.716548188729487 0 -1 0
1123 1 -1.2 4.35833888405562 28.625766215444163 24.481837992065557 1 -1 -1
1763 1 -1.2 6.952238142546037 29.138303733218397 24.195173114448977 0 -1 0
941 1 -1.2 8.475479611064669 27.312786538325437 23.159396813337704 0 -1 0
1177 2 2.4 8.429131360705634 28.50262220951679 24.264887526229444 0 0 0
1859 1 -1.2 8.64312034262266 27.924829410967792 25.762635090232557 0 -1 0
1017 1 -1.2 9.569404867902259 29.598254284952517 23.83085077950519 -1 -1 0
191 1 -1.2 11.970073507805525 28.725841390930153 24.318471380707145 0 -1 -1
893 1 -1.2 14.39238467475882 29.00602664580158 23.36586703366984 -1 -1 0
400 2 2.4 13.515626658444921 28.222416806450216 24.48652226160075 0 0 0
781 2 2.4 17.83960730106447 29.354351376171593 24.133763206679774 0 -1 -1
612 1 -1.2 17.51787896153083 28.290280144007536 25.31796336474482 0 -1 -1
1020 1 -1.2 20.370810232657526 28.13723688819008 25.925754365788453 0 -1 0
1505 1 -1.2 21.097921596156315 28.95460917951182 23.399466901378943 0 -1 0
1694 2 2.4 21.555209395695123 28.190713091516557 24.771474423009867 0 0 0
1571 1 -1.2 22.699147071719263 28.978715650539847 25.602783985526376 0 0 0
274 1 -1.2 26.01259606667465 29.284962437483298 23.3271183247907 0 -1 0
392 1 -1.2 24.86032011098471 27.697872588296516 25.090861935787824 -1 0 -1
1034 2 2.4 26.165046560469484 27.84557022936267 24.106159953854856 0 0 0
79 1 -1.2 27.463980390555758 27.911095670001217 25.055732233962768 -1 -1 0
1977 1 -1.2 0.8740207719787726 2.4885681397383395 27.45196224640138 1 0 0
1875 2 2.4 5.224992456629671 1.5648598809046272 27.43940612423598 0 0 0
2071 1 -1.2 5.357582387013012 3.1181214032721867 27.88987732073353 0 1 0
1544 1 -1.2 3.7608541867316156 0.9939107483691538 27.895340839353782 0 1 0
873 1 -1.2 8.147899500442998 3.059412194321291 26.52440999437944 0 0 0
1914 1 -1.2 6.414003135552331 0.7306118381764513 28.1728630518587 0 1 0
313 2 2.4 9.048980191623178 2.899802380085199 27.898689002741857 0 1 -1
1958 2 2.4 11.913158691464059 1.5165748982648815 27.730935792739857 0 1 0
872 1 -1.2 10.348460833497086 1.9434186312675146 27.64537718369128 0 0 0
515 1 -1.2 12.797512141039313 2.3222810298905054 26.61540844250447 0 0 -1
14 2 2.4 14.328756401806153 2.5466423614393103 26.087098206495302 0 0 -1
1005 1 -1.2 15.30307845510349 1.6856970287308286 27.077643872398923 1 0 0
2117 1 -1.2 17.792140040190862 2.6240881158974325 26.831915876799822 0 1 0
1850 2 2.4 16.542777516164094 2.377285627586385 27.881319198606075 0 0 0
2127 2 2.4 19.14278789532288 2.2394272731468314 26.018354500422763 0 1 0
1338 1 -1.2 20.306258531109947 1.4613229714343798 26.8534102689644 0 0 0
2049 1 -1.2 22.736022993950566 2.695511214247477 26.14998606121071 -1 1 0
831 2 2.4 23.13120369462018 3.066976459566015 27.66827553582303 0 1 -1
1230 1 -1.2 24.75491059952224 3.0955407299932354 27.849638749047283 -1 1 -1
2137 2 2.4 28.75672475856217 1.7840421344939026 26.596786849146678 0 1 0
838 1 -1.2 27.231546155288765 2.313315011995857 26.78268902221111 0 1 0
1856 1 -1.2 0.5796280689386248 5.0437535701214316 27.85447223226173 1 0 0
1704 1 -1.2 2.9887222722942997 4.131192066757277 28.167528981678796 0 1 0
1898 2 2.4 1.4117457299145078 3.7484943083574147 28.363009065527557 0 0 0
762 1 -1.2 4.61181745268641 4.981372355027532 26.15834631150746 1 1 0
902 2 2.4 4.514618144994078 4.494909363506345 27.713246624582634 0 0 0
1762 1 -1.2 5.21462234337914 5.65899544622174 28.59427193223979 0 0 0
684 1 -1.2 7.6761817099485405 6.107066295291687 28.344108154502027 0 0 -1
520 2 2.4 9.266444272876239 5.950281365047029 28.16941688532788 0 0 0
55 1 -1.2 9.635817255108613 4.37663769096634 28.257551972708356 0 0 -1
251 1 -1.2 12.4148712426289 5.508410043249158 27.275294785468112 0 0 -1
18 1 -1.2 15.068609512106026 4.0026862406773995 26.343626893226357 0 0 0
206 2 2.4 22.4098441566706 6.055986543926101 27.95869169368399 0 0 -1
475 1 -1.2 22.281929876881893 4.4500134996247995 27.799499433824423 0 0 -1
1106 2 2.4 26.650465593157804 6.165033140508589 25.96349334561949 -1 0 -1
1376 1 -1.2 26.007918731965493 4.741813871684961 26.39241978109975 0 0 0
1729 2 2.4 26.276028114715803 3.5011425496162167 27.396717757707577 -1 0 0
260 1 -1.2 23.946780842880223 6.1976966861172045 28.451228634672056 0 0 -1
1584 1 -1.2 27.258061601257964 3.9770870713358293 28.59775441385605 0 1 0
636 1 -1.2 1.2913598927168972 6.913041446801859 26.186603256874616 1 0 -1
1928 1 -1.2 5.969222711857361 8.088818221571804 27.84907248133422 1 0 0
1442 2 2.4 6.435992156207681 8.814303206934943 26.47129114466942 0 0 0
1464 1 -1.2 9.727542005507186 6.6538824453309156 26.78922167965855 0 0 0
1103 1 -1.2 10.553454022301231 9.059793217008277 26.046172073948085 0 0 0
692 1 -1.2 16.049400106238807 7.899119600055448 27.414043816556106 0 0 0
1549 2 2.4 15.260741706276994 9.210288891162222 26.836726971137352 0 0 0
217 2 2.4 18.633021803072154 6.6485409741832715 25.956746261581223 0 0 -1
1001 1 -1.2 19.244194640584737 6.366045055516127 27.47120174672446 0 0 0
1373 1 -1.2 23.523168268239722 9.004232730021684 25.966699508078786 -1 0 0
1496 1 -1.2 22.086992633842065 6.908281208644203 26.58101692790593 0 0 0
1696 2 2.4 22.015030795493587 8.551340358433361 26.439497960370627 0 1 0
1463 1 -1.2 21.935180996989367 9.071009938769045 27.987333151323476 0 0 0
1852 2 2.4 24.993203182065677 8.609415636569508 26.587923558681634 0 0 0
1775 1 -1.2 25.212130494240306 8.376670446293769 28.2158134885294 0 0 0
1732 2 2.4 29.350670543040888 6.576538119228436 27.421683692638688 -1 -1 0
249 1 -1.2 27.797611782704486 6.7131658099470615 26.95974440635208 0 0 -1
1990 1 -1.2 3.1343255929581475 9.578203425864878 27.615062276519208 0 0 0
2026 1 -1.2 4.73552366168266 11.789335433827334 26.814031464017237 0 0 0
710 2 2.4 3.9345594771245236 10.398615711072749 26.44948679905081 1 0 -1
488 1 -1.2 7.611399473800068 9.897215985757853 26.80735159522887 1 0 0
1432 2 2.4 7.820369334681465 11.077571484605224 27.924697302525484 1 0 0
1769 1 -1.2 11.580165921614991 11.539704351388751 26.324838584279725 0 0 0
827 1 -1.2 13.750924339987844 9.365757302825543 27.529565005623446 0 1 0
1627 1 -1.2 13.174960121765237 12.115446886439504 28.50442908726717 0 1 0
1568 1 -1.2 16.154882411555082 10.467495373004576 27.355585592624422 0 0 0
195 2 2.4 16.79163825795727 11.52390096189576 28.429787425215284 0 0 -1
1709 1 -1.2 22.034131923906166 11.60877542488404 27.33001375560354 0 1 0
361 2 2.4 21.871906385192123 10.577247341539666 28.600027139943766 -1 1 -1
1004 1 -1.2 25.896343953790037 9.907985492051408 26.268060252583016 0 0 0
1534 1 -1.2 28.633933298907195 9.991178001155461 26.354634092269613 -1 0 0
2151 2 2.4 27.27057595262421 10.622229787147052 26.760589411705613 0 1 0
1495 1 -1.2 27.056237297573855 11.286991737870418 28.24579945589385 0 0 0
545 1 -1.2 1.6405003069382325 14.837634569169662 27.811271810570382 1 -1 0
1219 1 -1.2 2.6076496769456083 12.402251210241642 27.915818107507608 1 0 0
1671 2 2.4 1.2356203856251957 13.254646769075071 27.915683236660694 0 0 0
1367 1 -1.2 3.8402181646227396 14.34202317824167 26.53064428838989 1 -1 0
2103 2 2.4 4.068100034955739 13.068811001350271 27.565153172266015 0 0 0
1706 2 2.4 7.994976700020705 13.587256378021346 25.921585986701892 1 0 0
1809 1 -1.2 8.012778609404577 12.487777192665073 27.121371287383457 0 0 0
1379 1 -1.2 8.702742267975067 14.932741801445228 26.484308637233852 -1 -1 0
12 1 -1.2 13.944693292987218 12.484442330884743 25.934152399243786 0 0 -1
1672 2 2.4 12.707483748655369 12.555408732526764 26.98806588148087 0 0 0
11 1 -1.2 12.205288990159715 14.10635171328283 27.218596785448582 -1 -1 -1
177 1 -1.2 17.487954648941543 12.599153842383663 27.400167779227502 0 0 0
1679 1 -1.2 22.076996872653083 13.99295841605507 26.3731997800962 -1 1 0
1720 2 2.4 22.525552917200628 12.469823547453853 26.024546935650477 0 1 1
1728 1 -1.2 29.4013877818764 12.816567830202521 26.6222368982441 0 0 0
202 1 -1.2 27.541661283623505 14.601845759721224 26.065051796102995 0 0 -1
75 2 2.4 2.90090144488196 15.580598083607374 27.059624092512852 0 -1 -1
1109 1 -1.2 3.644533535777696 16.58478346158374 28.074635908438893 0 0 0
1955 1 -1.2 6.28240826534797 17.206209058337176 28.227935997126806 0 0 0
2096 1 -1.2 8.644477312383346 17.475846324997782 27.202035154812705 0 0 0
1357 2 2.4 7.821224824308377 17.578244888217093 28.610994774289622 1 0 0
664 2 2.4 9.598108337299186 16.276063861352224 26.637942490171167 0 0 0
1793 1 -1.2 10.701971788953383 16.15166826565593 27.79751079817968 1 0 0
626 2 2.4 11.986304775771814 15.332104602236349 28.299822876823345 0 0 -1
593 1 -1.2 13.174837451974124 16.443855772627003 28.3890931236679 0 0 -1
837 1 -1.2 15.30678860195948 17.77065398138717 27.666065920716967 0 0 0
1791 2 2.4 22.080854964057405 15.604524239165706 26.61576031298079 0 0 0
250 1 -1.2 23.578427358372775 16.094428717457333 27.012045103527473 0 0 -1
1652 1 -1.2 21.014085583581295 15.970802333558064 27.853387760550604 1 1 0
1845 1 -1.2 26.254485857344037 16.53946241634191 27.32655425554281 0 0 0
1226 2 2.4 24.807477341371804 16.339371155982974 28.044233270011777 -1 1 0
656 1 -1.2 28.86953885803112 16.745209309388827 26.595704844642736 -1 0 0
712 2 2.4 27.687634624840907 15.79948211221288 27.16595962917419 0 0 0
1879 1 -1.2 28.210555770946424 15.226626090474952 28.58804968467576 -1 0 0
1949 1 -1.2 1.9644852910705806 19.867373781772425 26.838907069877003 0 0 0
867 2 2.4 1.0288511129238547 19.88042145518686 28.144954081482368 0 -1 -1
2068 2 2.4 3.603553443399585 20.061325071666502 26.500724356148186 1 0 0
2052 1 -1.2 4.338901173168264 18.590213936777605 26.393597927322716 0 0 0
524 1 -1.2 3.7407393839522025 20.35981497845742 28.21461832227853 0 0 0
1680 1 -1.2 7.898550517717673 20.898772059305145 27.499466363939312 0 0 0
1551 2 2.4 11.847890500961077 20.7633584745748 27.38028127814083 0 0 0
634 1 -1.2 14.98175981020893 19.738467260598732 25.87418717096173 1 0 0
646 1 -1.2 12.384568726894049 19.789573215682964 26.133373318516167 0 1 -1
1888 2 2.4 15.7886909856918 18.381482869331705 26.269507628588556 0 0 0
1474 1 -1.2 17.37522291559309 18.702986662582926 26.42065047450387 -1 0 0
718 1 -1.2 19.927889630963644 19.138935883998577 25.946726805571444 0 0 0
1238 2 2.4 20.978817917191684 20.38920746455494 25.888806575658453 0 1 0
1947 2 2.4 22.64829921006686 20.80220589141244 28.289681423484407 -1 0 0
1064 1 -1.2 23.920788816165683 20.798751172602852 27.264480444683784 0 0 0
1585 2 2.4 28.423095571965828 19.260644417112967 25.856488248365448 -1 0 0
1894 1 -1.2 28.642761031847616 19.37914197585333 27.491064723033656 0 0 0
1149 1 -1.2 1.4267476885060542 22.98819965836955 26.56412589880676 1 0 0
2077 2 2.4 0.9904276450913685 22.95748628782656 28.156626188630806 1 0 0
1601 1 -1.2 4.800617068450946 21.28468494523059 26.200521942573676 0 0 0
62 2 2.4 4.679545941668881 22.85912167107278 26.353879256773723 1 -1 -1
1724 1 -1.2 3.9994788853427097 23.323222735452713 27.725784794350407 1 0 0
1460 1 -1.2 5.986879658641263 23.743004171635754 26.049438510393667 0 0 0
853 2 2.4 8.898192358530116 21.528662579707213 26.397526107045202 1 0 0
809 1 -1.2 8.544923949931256 23.133277728354336 26.32128159718744 0 0 0
1566 1 -1.2 6.940468240774633 23.62555316059182 28.49272182825629 1 0 0
1319 1 -1.2 10.483741404499154 21.446659950538773 26.76439167517272 0 -1 0
1246 1 -1.2 15.029994681055845 23.093278466388263 26.6859744614966 -1 0 0
7 1 -1.2 13.095819894479172 21.731968171666548 27.823634617034376 0 -1 -1
326 2 2.4 14.49481665000811 22.516747221934153 28.145154450528345 0 0 -1
726 1 -1.2 17.997481752525005 21.91882980511274 28.14490684887588 -1 0 -1
1885 2 2.4 18.784964995825504 23.327447090527325 28.294320721519956 0 0 0
131 1 -1.2 19.67951901104854 23.642169487035915 26.972482874813053 0 -1 -1
369 1 -1.2 21.26538493365418 20.9863947244453 27.39627025575795 -1 0 -1
95 1 -1.2 26.313275653780078 23.60844165362314 27.187340321093163 -1 -1 -1
1734 1 -1.2 28.57377551942183 23.512009955609333 28.35224756408715 -1 -1 0
757 2 2.4 27.00299819958062 23.2286858135989 28.59769853899516 0 0 0
2024 1 -1.2 2.3431175697639968 25.513341316761455 26.106927006316106 0 0 0
928 2 2.4 7.32613387519761 24.04252475126715 26.945210671921835 1 0 0
276 1 -1.2 7.62937560874142 25.627820588718542 26.767776981341523 0 0 -1
2054 2 2.4 11.60522953898412 25.28417814432299 26.89250488654759 1 0 0
2122 1 -1.2 10.218552698465228 26.07489656210844 26.740587226530227 0 0 0
312 1 -1.2 11.501728612650158 24.212661381309783 28.112788895676438 0 0 -1
730 1 -1.2 12.732134966933181 26.439881212393168 27.192648231908095 -1 -1 0
659 1 -1.2 17.676773404100963 24.501860456251293 28.421949931031516 -1 -1 -1
419 1 -1.2 16.672277834304417 26.76946139151754 27.368606686068475 0 0 -1
1764 1 -1.2 18.722170143410462 25.96418336351555 26.023063465501405 0 0 0
1552 2 2.4 20.002534024904225 24.95761036610779 26.040895662551456 0 0 0
1267 1 -1.2 21.394248627169667 25.60912776658782 26.663538153565888 0 0 0
338 2 2.4 21.87083611152443 25.64975079752832 28.237119811585984 0 0 -1
261 1 -1.2 22.5176441164003 24.19927006379362 28.550078549243306 0 1 -1
1503 2 2.4 26.543217494386575 24.8484571293048 26.134787716571743 0 0 0
2040 1 -1.2 26.8082432746094 26.278197140006448 26.856749141729225 -1 0 0
1228 2 2.4 1.6921071406139079 27.029386887538397 26.20960736827911 0 0 0
391 1 -1.2 2.6704548635058267 27.85943987443065 27.168450728575795 0 0 -1
325 2 2.4 3.291450581134157 28.686724529177045 28.39262388137559 0 0 -1
2139 2 2.4 8.786090228441829 26.77823584229823 26.898182693047495 0 0 0
1362 1 -1.2 8.727172776637348 27.513045639111716 28.339624232349436 1 -1 0
462 1 -1.2 11.93182022721446 29.061907204843585 27.511414187149104 0 -1 -1
1461 1 -1.2 14.013302411090839 28.479012682625456 26.02607652416546 0 0 0
2043 2 2.4 13.18801859820057 28.008429327831646 27.36350552578443 0 0 0
1951 1 -1.2 14.1339287092185 28.183315384047347 28.67929359850298 0 0 1
339 2 2.4 20.242212294556754 29.065800173354685 27.266806494396047 0 0 -1
1332 1 -1.2 18.83181362996842 28.91750382285597 28.094739394841504 -1 -1 0
754 1 -1.2 21.40234235350903 28.831469109924335 28.377168992928286 0 0 0
541 2 2.4 24.27498319567558 28.963163033318263 25.95435159855863 0 -1 0
2159 1 -1.2 24.538694594914876 28.962888957096098 27.54490744446699 0 0 0
1795 1 -1.2 28.869049411837203 29.391361113936796 26.451662757452034 0 -1 0
1619 1 -1.2 29.269771437619674 26.906668003186983 26.802307327731935 -1 0 0
496 2 2.4 27.832627325726154 27.731407495339077 26.66822722892272 0 -1 0
1235 1 -1.2 27.125782168991343 28.52799889653893 27.967145440304435 -1 0 0
21 1 -1.2 1.1097785888733325 3.327771008605236 29.91926984833826 0 0 0
1500 1 -1.2 3.143229985014727 1.3458850730238963 31.220592002830994 1 0 0
1509 1 -1.2 5.86085775972694 1.6409402819076773 30.61852125719172 0 0 0
1707 2 2.4 7.073460237590423 1.1849749600881223 29.597021405350404 1 1 0
921 1 -1.2 8.16133812146628 2.343580487027053 29.16127128555424 1 0 0
119 1 -1.2 10.928091439962422 1.897454744423192 31.107366745299238 0 0 -1
1618 1 -1.2 12.621777664003234 1.9060571688034784 29.152445791228967 0 1 0
1574 2 2.4 12.44932824666676 1.4254711191073934 30.69834622648287 0 1 0
2145 1 -1.2 16.868850228314553 1.2257973724418674 28.982066743177523 0 1 0
783 2 2.4 19.8303879015414 3.2763099230912434 30.389792037780733 0 1 -1
957 1 -1.2 19.402963813846704 2.0757939317515413 29.34629955421035 -1 0 -1
2116 2 2.4 18.378620704304584 0.7855179784690761 29.305121422233952 0 1 0
825 1 -1.2 21.101810112709394 0.8716040096801071 30.817124412802418 0 1 -1
2032 2 2.4 22.048678543963575 0.6820452886200195 29.477767327731613 0 1 0
906 1 -1.2 22.537597611189284 2.0502991656032408 28.77545054057513 0 0 -1
672 1 -1.2 21.391713914490417 3.4879901808421754 30.832338185452837 0 1 -1
427 1 -1.2 23.965357028593758 2.4791335492668285 31.29670474925587 0 1 -1
410 2 2.4 25.5684211956802 2.2172976790202292 30.801150131726924 0 1 -1
1361 1 -1.2 25.74039851691751 1.1665481842864296 29.52060052456962 0 0 0
1448 1 -1.2 29.498135380485532 0.6802539321162714 31.309685167996193 -1 0 0
1425 1 -1.2 1.7652144306669675 5.627540926598031 30.745728028176206 1 0 0
2 2 2.4 0.7732336963557043 4.39908453556318 31.131598274752584 0 0 -1
426 1 -1.2 4.35402839561026 5.758759242783217 30.96777832305824 1 1 -1
889 2 2.4 12.957079867403207 5.95469733748693 28.74132942367034 0 0 0
94 1 -1.2 12.315592713076272 5.0552889305565945 29.959618261211784 0 0 -1
151 1 -1.2 14.560486714708718 5.712002603509702 28.705979623539925 -1 0 -1
201 1 -1.2 15.723040209125028 5.24888270639323 30.983059543442995 0 1 -1
797 1 -1.2 17.13893835184816 6.20470023949069 28.9840439151295 -1 1 -1
1797 1 -1.2 16.289999801408282 3.6914227673892324 28.828913253383583 0 0 0
183 2 2.4 15.932107338043279 5.168149610994548 29.347986517525218 0 1 -1
1600 2 2.4 19.725658636951646 6.068634971230766 29.058983060050704 -1 1 0
68 1 -1.2 19.419496374122144 4.513610049331464 29.416608849150137 0 0 -1
492 1 -1.2 23.2583422824575 5.221243583305611 31.371237969913818 0 0 -1
305 1 -1.2 26.38988027621624 6.252914792009042 29.574775831508525 -1 0 -1
1446 1 -1.2 25.886429317555898 3.8214458342043844 30.69654113983621 -1 -1 0
43 1 -1.2 28.293203875816722 4.881487994307601 30.919990323386813 0 0 -1
484 2 2.4 26.982163303895025 4.7856122852752705 29.979413049079035 0 0 -1
1502 2 2.4 3.0200750396686336 6.651095299257153 30.72109368949369 1 0 0
106 1 -1.2 3.2926755849202127 7.546565881181304 29.359231342576216 1 0 -1
1321 2 2.4 3.0518494750273417 9.181900981763778 29.18942576016142 0 -1 0
1813 2 2.4 6.317631858215723 6.841671151233769 28.829663925159906 0 0 0
1944 1 -1.2 6.611183844849305 7.515726142814555 30.30196903955586 1 0 0
924 1 -1.2 10.03834191549294 6.703237703257021 29.367666558572154 0 0 0
1491 2 2.4 9.864244784648227 7.172393450695869 30.908704403736127 0 1 0
1006 1 -1.2 9.63921512737113 8.798434661881075 30.819834585012714 0 0 0
744 1 -1.2 12.716082157604136 7.530959224030456 29.07090839554913 0 0 -1
1910 2 2.4 12.98536424978165 9.139739259091181 29.01054603601759 0 0 0
50 2 2.4 17.025111350434017 7.821396338925183 28.712207768012906 0 0 -1
1851 2 2.4 15.207178791535188 8.926681983013657 31.083483189624392 0 0 0
1937 1 -1.2 16.293005300893913 8.466749090775036 29.993002690782326 0 0 0
1522 1 -1.2 18.46852492794384 8.635236227297415 28.646210935322667 -1 0 0
1685 1 -1.2 19.294818661760985 6.774484825698456 30.484370421124574 0 1 0
333 1 -1.2 19.038403995963378 9.207137374825662 31.227022972283223 0 1 -1
31 1 -1.2 21.30986149280271 6.470705038126258 29.074022661770517 0 0 -1
1348 2 2.4 25.03533672358089 7.110787637623017 29.23788956432496 0 0 0
1487 1 -1.2 24.474022073582614 7.537888653137291 30.693974488220082 0 0 0
1445 1 -1.2 29.494734638239485 7.4860435530701785 28.74173493712226 -1 0 0
1925 1 -1.2 29.014670564176967 7.641551004164193 31.402477101142548 0 0 0
196 2 2.4 29.312291348905937 8.485971652988102 30.014103027157972 0 0 -1
510 1 -1.2 1.5779342008453936 9.469893746959587 29.88100282842227 0 0 -1
1472 1 -1.2 4.258416005495663 10.037119545869817 29.88829587228423 0 0 0
1634 2 2.4 5.578757599515921 10.982980451031466 30.16015236415507 0 0 0
1915 1 -1.2 6.585831958972469 10.121039051120192 31.134547200802373 0 0 0
1818 1 -1.2 6.475752640020426 11.175362388172918 28.812179042877382 0 -1 0
284 1 -1.2 9.1026766408497 10.714867149965832 28.88128373921266 1 0 -1
1013 1 -1.2 11.557236406940357 9.898206432878856 29.318962910048846 0 0 0
974 2 2.4 10.106984499464621 10.200619558551244 30.06740831186885 0 0 0
1980 1 -1.2 10.084031190986494 11.39277258472863 31.23072486532414 0 0 0
1015 1 -1.2 13.960229817381231 9.588095931779204 30.264905614087553 -1 1 0
1640 1 -1.2 15.628926144130174 11.97422056163542 29.4651183358642 0 1 0
1723 1 -1.2 17.90483725540176 11.015067854768077 29.496292845671807 0 0 0
1870 1 -1.2 20.4105826886947 10.560074156682468 29.33837531723047 0 0 0
99 2 2.4 18.992605319620917 9.83000875554304 29.696391944721345 0 0 -1
501 1 -1.2 23.049201557578677 10.842701760791805 29.696223619469194 0 0 0
1557 1 -1.2 25.65095948856355 10.338809537293196 30.311699047590064 0 0 0
1588 2 2.4 24.377925193971706 11.324530479810745 30.513537658536755 -1 0 0
563 1 -1.2 27.996406198558756 9.390069829582538 29.79442458756567 0 0 -1
608 1 -1.2 27.79324778232107 11.85201926952842 30.824991664106545 -1 0 0
772 2 2.4 27.143920358454935 10.753928744220635 29.78887628716466 0 1 0
1781 1 -1.2 3.1339228345175982 14.078397070321866 30.970354039551154 1 0 0
1485 1 -1.2 4.82054799770788 13.676405369923145 28.847594987932894 0 0 0
1045 2 2.4 4.745210653843152 14.03630827282538 30.519114919312237 1 0 0
1184 1 -1.2 5.189595175078242 12.38192041234262 30.836719916020463 0 0 0
1988 1 -1.2 11.573281687895985 14.757522431097609 29.77070659581283 0 0 0
1895 1 -1.2 13.567371481824702 12.366046999332486 31.18927641355647 0 1 0
2031 2 2.4 14.171637367168852 12.646324571072713 29.696129766675927 0 0 0
44 1 -1.2 14.501887738131972 14.249325401862762 29.531061322726213 0 0 -1
1044 1 -1.2 17.12456698272008 14.79747362956927 30.098237363194674 0 0 0
1036 2 2.4 15.55912532747436 15.137448718597408 30.417178656737768 0 0 0
25 2 2.4 18.344325471397102 14.997174801951228 31.171590312000234 0 0 -1
1750 1 -1.2 22.911917923565515 14.369645525662753 30.67871576769934 -1 0 0
1032 1 -1.2 24.89392227768932 12.770019657904932 29.989570662258725 0 0 0
1129 2 2.4 24.52845167633907 14.302028996290808 30.36912025031653 0 0 0
168 1 -1.2 24.934330568902244 15.066746718205593 29.023000388949555 -1 0 -1
732 1 -1.2 29.560324023474717 12.843890312645172 29.26661309033204 -1 0 -1
1660 2 2.4 28.999839070944656 12.948491226040511 30.777111525295776 -1 0 0
1583 1 -1.2 28.47145131722005 14.474295563605251 31.03548452957745 0 0 0
1738 1 -1.2 1.015233889477518 16.51245578834047 30.313375754411425 -1 0 0
1581 1 -1.2 5.037033221570409 15.719694307023135 30.123276140683537 1 0 0
1096 2 2.4 4.893884587747828 16.926173687041608 29.065717402737086 0 0 0
1901 1 -1.2 8.321310312616438 16.575765209804832 29.793399744801903 0 0 0
868 2 2.4 8.562829055758879 16.582603912455088 31.408548562699266 0 0 0
1382 2 2.4 11.183883230734203 15.233414707633326 31.279064292622998 0 0 0
1874 2 2.4 14.377023627837527 17.39999997434069 28.914841637783105 -1 0 0
1181 1 -1.2 15.305231257788416 16.682460095832287 30.030344536100813 0 0 0
513 1 -1.2 19.712903240319438 15.425336688022174 30.29648376184609 0 1 -1
1614 1 -1.2 19.648718456554555 17.853484160401116 29.34296676649584 0 0 0
1298 2 2.4 20.616365753220656 16.521710518132462 29.375685385905477 0 0 0
1066 1 -1.2 22.06415918248972 17.01307814823275 30.02841160032827 0 0 0
946 1 -1.2 24.472626266560916 17.668959450501877 28.89138935059393 0 0 0
87 2 2.4 28.620855617422432 15.774113772477309 30.073439738845995 -1 0 -1
1507 1 -1.2 27.4731723180841 16.869520084450308 30.398113438676006 0 0 0
1900 2 2.4 1.425711077973043 18.06281366631257 30.758875396396572 0 0 0
1438 1 -1.2 1.520656962007709 18.9282884240913 29.370771609281476 1 0 0
740 1 -1.2 4.618428223208201 18.356306761269067 29.823061325694745 0 0 -1
1593 1 -1.2 3.9219905536977677 20.5986917079046 30.95084348446055 0 0 0
137 1 -1.2 5.989441689626971 20.652802724387087 29.38682148156668 1 0 0
854 2 2.4 4.5309443583784805 19.967494598166457 29.561791070192346 1 0 0
1801 2 2.4 7.553196752304389 20.56184058393394 29.042906589089622 0 -1 0
1857 1 -1.2 8.070991689621376 19.047340213011875 29.294752701347292 0 0 0
1639 1 -1.2 11.354722291062535 20.130819166424544 28.839018745655455 0 0 0
1563 2 2.4 11.410591033889714 20.854430127473 30.33778688198512 0 0 0
1560 1 -1.2 10.253492705999394 20.281048656701895 31.348003093395604 0 0 0
1517 1 -1.2 12.87536288724376 20.608762348440848 31.0569869936513 -1 0 0
1335 2 2.4 14.051850468811336 19.46080275425755 31.088616786750286 0 0 0
197 1 -1.2 13.91415732595488 18.792407179422234 29.60771962223651 0 -1 -1
1303 1 -1.2 17.885260190690268 19.75670584734985 29.532160257587506 0 0 0
1069 2 2.4 19.089362894854215 19.017875883677565 30.35694536414874 0 0 0
1776 1 -1.2 20.319647930373172 19.965948978371724 30.94274691720729 0 0 0
689 1 -1.2 22.516077364734926 19.38512453006905 29.060750415992832 0 0 -1
1993 2 2.4 23.23817173546525 18.154448708993833 29.822407966228166 0 0 0
979 1 -1.2 23.98312639248724 18.575499719300904 31.221970389515967 0 0 0
254 2 2.4 26.696386250715655 20.94979731841582 30.525470964284324 0 0 -1
366 1 -1.2 26.955150270518843 19.364520533083375 30.32042277237884 -1 0 -1
543 2 2.4 27.6387561490274 18.232104420274183 31.251593952747154 0 0 -1
297 1 -1.2 29.19285601777478 18.65180274627484 31.554878678855975 -1 0 -1
1327 1 -1.2 0.961408328443136 21.427007904963997 28.69531714086854 0 -1 0
2123 1 -1.2 3.799426069699201 23.106884302859044 30.506976009548232 0 0 0
455 1 -1.2 8.22663443864356 21.73163633808016 29.96559469613752 0 -1 0
32 1 -1.2 7.092724790817894 23.80212462273006 31.20837804134 0 -1 -1
1513 2 2.4 7.8336947662028775 23.320429892907672 29.839580043357344 0 -1 0
246 1 -1.2 11.235552177820194 22.46984526281101 30.14210773970642 0 0 -1
1397 1 -1.2 14.167554943362484 23.77709340473016 29.162993612019857 0 0 0
1195 1 -1.2 15.569472090978389 21.46074699783692 28.836121187761524 0 0 0
2112 1 -1.2 17.24070773390158 21.831967846055193 30.896529121849742 -1 0 0
303 2 2.4 17.141600187135836 21.225968934171387 29.351981649098587 0 0 -1
1469 1 -1.2 19.60152535446889 23.11442985900704 29.695152706193696 0 0 0
472 2 2.4 20.047825857164256 23.731666274968262 31.136024764585983 0 -1 -1
1890 1 -1.2 22.933050590229215 21.908632854187793 29.4334274676137 -1 0 0
224 1 -1.2 21.680363927096558 23.68034784479089 31.071490307032057 -1 0 -1
38 2 2.4 22.83956219996256 23.442310042953636 29.951388575096235 0 -1 -1
178 1 -1.2 25.28940165449672 20.977679965449656 31.38623297374497 0 0 -1
991 1 -1.2 26.572673229071867 21.723069591632537 29.091043701032497 0 0 -1
514 1 -1.2 28.00622598620552 21.581322380093987 31.26659516824968 0 0 0
1306 1 -1.2 1.9338781660514333 24.02532122100407 28.96512597366362 1 0 0
2027 1 -1.2 2.378973172101113 25.702136812066318 31.14666717269374 0 0 0
1862 2 2.4 5.160182595764324 26.692225792015243 29.782484174952796 1 -1 0
1570 1 -1.2 4.478250038598608 25.317041560691493 29.256028747245065 1 0 0
422 2 2.4 3.567073229340849 23.98412902488645 29.158765776776214 1 0 -1
2118 1 -1.2 9.210328629258434 24.121175005241373 29.49709962964959 0 0 0
1281 1 -1.2 6.783517700291563 26.63616629609698 29.862497881388485 1 0 0
1202 2 2.4 10.831956397350156 23.93701247144266 29.570826154664644 0 0 0
704 1 -1.2 11.291083540342104 25.14378276602464 30.55519405006437 0 0 0
264 1 -1.2 13.487246048292617 26.308965508192472 30.390572781140023 0 0 -1
793 2 2.4 14.506723825686787 25.016915873419418 30.2027908917113 0 0 -1
736 2 2.4 17.09441017753087 25.982961936721306 28.729732384811534 0 0 -1
2132 1 -1.2 15.80637687411374 25.77289651330613 29.649031953665204 0 0 0
409 2 2.4 19.561566658091287 26.415048731256892 30.259555267680334 0 0 -1
1385 1 -1.2 19.407804109121216 25.212911949482223 31.333859107723537 0 0 0
1403 1 -1.2 20.469737660318966 25.88229799973655 29.02481906267417 0 -1 0
365 1 -1.2 22.995267577826088 26.688964793640885 28.780107631497703 -1 0 -1
1953 1 -1.2 26.596400808492902 24.2587290031235 29.77071836394711 -1 0 0
1527 2 2.4 25.688235466099837 24.445705545375002 31.08208752796555 0 0 0
442 1 -1.2 24.163975912203327 24.04238796457899 30.68771037031868 -1 -1 -1
1452 1 -1.2 28.751292175651827 26.181911965028007 31.09926374901158 -1 -1 0
879 2 2.4 1.9854967166663413 29.3601448569002 31.08069022160257 0 -1 -1
1402 1 -1.2 2.150308278083465 28.791793777024925 29.553263801625107 1 -1 0
948 1 -1.2 4.645444510894285 27.06912936011052 31.272260653708972 0 -1 -1
1930 1 -1.2 4.645790816394942 27.89189226433813 28.820863666840335 1 0 0
526 1 -1.2 7.836006222909882 29.08266201679023 30.269974537509064 0 -1 -1
1598 2 2.4 8.162601476294851 27.53167786231451 29.85952928205433 0 0 0
127 1 -1.2 9.296330551493089 26.975867833017922 30.889969083107555 1 -1 -1
2120 1 -1.2 12.598496161343304 28.94869492679046 30.744430127146604 0 0 0
2149 2 2.4 13.822653186324246 27.917117074400704 30.261923316833137 0 0 0
1268 1 -1.2 15.073942122368756 28.300523466968702 31.244047724242186 0 0 0
1844 1 -1.2 18.125277177450908 26.829789532333844 29.6538204598948 0 -1 0
683 1 -1.2 18.426737919662813 29.362056243458436 30.81713668166617 0 -1 -1
335 1 -1.2 20.31682004544277 27.60146884892487 31.043837738234526 0 0 -1
411 2 2.4 19.910649337639438 29.119874781993065 31.452337745235376 0 0 -1
415 1 -1.2 23.323469316416453 29.09085858875021 30.088507124673487 0 0 -1
1964 1 -1.2 23.181789756525728 26.94873793407783 31.475074780289013 -1 0 0
292 2 2.4 23.679653372538706 27.509437998599395 30.02151953850064 -1 0 -1
1646 2 2.4 25.717031714016567 28.88845766321052 28.698290973225216 0 -1 0
1889 1 -1.2 25.272309138000367 27.629884433312828 29.66037475922979 0 0 0
2157 1 -1.2 4.5043839881158165 3.3509725413488294 32.106316007555186 1 0 0
1573 2 2.4 4.645201205630263 1.7875173447811699 31.716045988618593 1 0 0
473 1 -1.2 4.991943839653938 0.890520810120972 33.027347035355845 1 0 0
1115 1 -1.2 9.90144210070779 1.907116327117897 33.43770214687536 0 0 0
147 2 2.4 10.158018843389907 2.890900771805651 32.17889989251796 0 1 -1
1365 1 -1.2 13.646639371735912 2.1491840656396177 31.594348910998544 0 0 0
15 2 2.4 14.807094295628783 2.2581178022798785 32.75832543544263 0 0 -1
1712 1 -1.2 15.052323444184173 0.7788698962255179 33.37459512610538 0 1 0
1077 1 -1.2 14.270994505046335 3.311597146492453 33.9285360001404 0 1 0
826 1 -1.2 16.274876433744335 2.862890208428482 32.29233019202384 0 1 -1
1982 2 2.4 17.777884785803273 3.220387897326644 32.89088522555292 0 0 0
353 1 -1.2 18.910912142672117 3.029475310763279 31.745060840523802 0 1 -1
936 1 -1.2 26.828253663937815 1.6589871466402935 31.74579236848492 0 0 0
1656 1 -1.2 0.9574931704520449 3.8131489663862017 32.651438321908415 1 1 0
1954 1 -1.2 3.825361025304052 5.517720187631715 33.43456974737057 0 0 0
1021 2 2.4 4.822309792882028 4.926248386447295 32.28412676321531 0 0 0
1702 1 -1.2 8.70250873362476 6.260553365537798 31.616647718100683 0 1 0
703 1 -1.2 6.444705021700115 5.065888738162432 32.40023508892245 1 0 -1
1024 2 2.4 8.070613644707363 5.054170290855465 32.51786917602964 0 0 0
630 1 -1.2 8.412537127876394 5.297710599627981 34.09313889235659 1 0 -1
894 1 -1.2 8.694679010760272 3.6280809350198657 31.940420571652155 0 0 0
1328 1 -1.2 11.183739072426041 4.164031178347522 32.326661898278815 0 0 0
1921 2 2.4 11.98585184969216 5.342692305604216 31.548965574231687 1 0 0
1999 1 -1.2 13.399643571952359 5.408854202203552 32.36023296092597 0 1 0
1167 2 2.4 14.825059628011317 6.0536956654827465 32.05661676549362 0 1 -1
1606 1 -1.2 15.60855463601596 5.750879148057869 33.58138572341262 0 1 0
820 2 2.4 17.299835456659363 6.224276681266474 33.609558239357895 0 1 -1
564 1 -1.2 17.99270802203747 4.793883196399398 33.35214502891319 0 0 -1
481 2 2.4 22.816182665043776 3.6513713964014314 31.637741656741415 0 0 -1
101 1 -1.2 22.462079752149698 3.478552130525821 33.21908531198298 0 1 -1
1981 2 2.4 25.895061930020965 6.197870768487367 34.15149339680739 0 0 0
1326 1 -1.2 0.6226253708567735 7.262672793704373 34.06670108967663 0 0 0
425 1 -1.2 2.6590657093780985 7.7830021632232045 31.83255491377394 1 1 -1
480 1 -1.2 3.5101620993311506 8.18845785293782 34.262015873274336 0 0 -1
1475 1 -1.2 5.153159869258659 8.207650425870671 32.30634140168145 0 0 0
1826 2 2.4 3.664156427598548 8.666112445942565 32.736069704019066 0 0 0
1864 2 2.4 6.5447572781444245 8.560711213437125 31.577940292639276 1 0 0
1878 1 -1.2 7.649804482255919 8.435767102888228 32.77884682853264 0 0 0
1681 2 2.4 8.421418544016367 9.164996004865376 34.004604410366646 0 1 0
46 1 -1.2 11.243448532501278 6.7911567574938 31.709180219365336 0 0 -1
1854 1 -1.2 11.934337039402923 8.755941261296243 0.627404141045524 1 0 1
666 1 -1.2 14.63612355379681 7.636882976300157 31.91228445887725 0 0 -1
1602 1 -1.2 17.469390892509022 7.24221417779797 32.35746863508566 0 1 0
286 1 -1.2 19.87607975110821 7.301397122869251 33.10690880355226 0 0 -1
399 2 2.4 18.979113903991426 7.663746212264676 31.78155666887863 0 1 -1
1330 1 -1.2 22.493166005704822 7.776551689526509 32.21826376192022 0 0 -1
241 2 2.4 22.381499983932397 9.022463505803268 33.27965889234181 0 0 -1
1815 2 2.4 23.706372815074033 6.718183010498268 31.87571803783773 0 0 0
89 1 -1.2 24.609123696387773 6.516533612738987 33.20299647170794 0 0 -1
845 1 -1.2 27.18418114170523 6.878658721738778 33.391449222118204 0 1 -1
1084 2 2.4 28.57044980643401 7.744134675609922 33.002206533337905 -1 0 0
1692 1 -1.2 3.378018819084371 10.248428224388409 32.61039016403219 0 1 0
1540 2 2.4 3.6700884858680967 11.275185076293848 33.844551098682544 0 0 0
1848 1 -1.2 9.503048179104285 10.275237858055883 33.518221465062645 1 0 0
1384 2 2.4 10.19166788199187 11.602861033843393 32.88604189701488 0 0 0
1386 1 -1.2 11.823476553353272 11.711086715888463 33.15885084339331 0 0 0
1079 1 -1.2 14.193082709292177 10.37235948990578 33.763427600162004 0 0 0
27 2 2.4 15.82808565193386 10.542035724379943 33.5885223882483 0 0 -1
199 1 -1.2 16.03259448570845 9.834394970753308 32.134371695218384 0 0 -1
1424 1 -1.2 16.62397515807978 11.962578878807486 33.37236152721154 0 -1 0
377 1 -1.2 19.286426795058446 11.496770182163912 33.23060585180324 0 1 -1
721 2 2.4 20.90060526487031 11.709450006218573 33.20840400036999 -1 0 -1
2148 1 -1.2 21.525557001606288 10.28726147259108 32.6933547855812 0 1 0
861 1 -1.2 23.84892063064435 9.48854046108797 33.76434009912369 0 0 -1
1643 1 -1.2 26.09152868984133 10.63861876541405 33.64057290536343 0 0 0
218 2 2.4 24.528132374337968 10.949581060767587 33.57284680473804 -1 0 -1
93 1 -1.2 24.068220263522527 11.508635322211605 32.105802396148064 -1 0 -1
875 1 -1.2 28.22912080097369 12.023971565018016 33.83657167038336 -1 -1 0
302 2 2.4 27.655648184297476 10.499131504816487 33.968126621905284 -1 0 -1
1245 1 -1.2 28.327522205334194 9.384662334576094 33.011172462999774 -1 0 0
1754 2 2.4 2.36224369564523 13.657662847451789 32.328677096572626 0 0 0
908 1 -1.2 1.0922516139325469 12.70936754150406 31.888069687222128 1 0 0
983 1 -1.2 3.2860937280813562 12.757065028804801 33.33534407305557 0 -1 0
1902 1 -1.2 1.8825504043280799 15.01982682881668 33.15129595858259 0 0 -1
2038 1 -1.2 5.540697831627278 14.40590467922229 31.97214799692766 0 0 0
1169 1 -1.2 9.42547052999723 12.825724291917522 33.74906677351895 0 0 0
1905 1 -1.2 11.776575452812414 14.087527970755275 32.244941345032764 -1 0 0
1333 2 2.4 12.81627980299488 12.88295360617778 32.56361355190919 0 0 0
642 1 -1.2 13.898063038389797 13.492449839613947 33.658784595780645 0 0 -1
1010 2 2.4 14.569112778113597 15.001235071095406 33.46877487253715 -1 0 0
1968 1 -1.2 15.21751772172205 14.934857710281543 31.98402770066768 0 0 0
601 2 2.4 18.122493622693252 12.642351761577759 33.32597974358922 0 0 -1
1752 1 -1.2 18.410188894760058 13.597228597749211 32.02753750049801 0 0 0
2015 1 -1.2 21.31352194074729 12.996292024549868 32.27170418760834 0 1 0
1779 2 2.4 22.284735415799595 14.30240821208113 32.18735518526865 0 0 0
71 1 -1.2 23.514164672255106 14.15581671595956 33.260807315887796 0 0 -1
1883 1 -1.2 25.36037049805552 14.921615424762628 31.640827871364287 -1 0 0
1577 1 -1.2 26.113493211585904 13.740261312477081 33.91624338182719 0 0 0
122 2 2.4 25.039630299425227 14.764656139317161 33.241858208564665 0 0 -1
1821 1 -1.2 28.537609503005914 14.652652753318073 33.98591904015317 -1 0 0
2007 2 2.4 0.771878257854019 15.57246084972803 34.229038090331784 1 0 0
1201 2 2.4 5.818441175569448 15.76608034026374 32.79060178379147 1 0 0
2050 1 -1.2 4.622131420021847 16.89427785226811 32.951195812012365 1 0 0
72 1 -1.2 7.206034990745239 16.452560798523038 32.27411053303308 1 0 -1
2021 1 -1.2 9.594142476897547 15.329332996447521 31.604799924748516 0 0 0
233 1 -1.2 9.307534850829294 17.92843632217503 31.9364892809373 0 0 -1
1917 1 -1.2 11.864239524723459 16.69040638454361 31.59912852306869 0 0 0
420 1 -1.2 13.388480085613539 16.100906082194793 33.64589548350829 0 1 -1
1753 2 2.4 12.714266102427878 17.328124036310825 32.84535690060649 0 0 0
2047 1 -1.2 17.830113330414687 16.066538007395003 32.30962602789203 0 0 0
309 1 -1.2 19.684095808172287 17.010991395087295 33.84376723534655 0 0 -1
1419 2 2.4 18.34507886618744 17.432409327701286 33.03250314535154 0 0 -1
172 2 2.4 21.26952019314047 16.954763842571506 33.54027070213107 0 0 -1
1087 1 -1.2 21.53075548785735 15.712646874571872 32.5115811347502 -1 0 -1
372 1 -1.2 25.00662508719108 16.176741855004867 34.04906218669605 -1 0 -1
2146 1 -1.2 29.277504204227117 17.100829571439267 34.038187236314826 0 0 0
115 1 -1.2 26.9966860783161 17.952436022657103 32.72552249006419 0 0 -1
711 2 2.4 27.888341757860545 17.98091145293862 34.10648158623322 0 0 -1
440 1 -1.2 2.800203824570342 18.661539003116488 34.26221976219128 0 -1 0
610 1 -1.2 2.7184022503238974 18.197662721268063 31.743409760160546 1 0 0
1855 1 -1.2 5.068102436478937 19.46502247989048 33.12716214201311 1 0 0
1741 2 2.4 3.8250591432059817 18.322928178537556 32.99180619447917 0 -1 0
1586 2 2.4 6.394530045592868 20.443477960064623 33.30351681000548 0 0 0
1086 1 -1.2 7.680721966254888 19.912332990635193 32.433602175990444 0 0 -1
1255 1 -1.2 11.870390856324581 18.19239101378273 33.91950363548716 0 0 0
547 1 -1.2 9.804474800628652 19.70968983288422 33.93299149272962 0 -1 0
1945 2 2.4 9.263801965361035 19.48123013626928 32.39703843460854 0 0 0
1620 1 -1.2 13.80835347699055 18.334732577925866 32.22652604984283 -1 0 0
2064 1 -1.2 17.498361518957186 18.233662304576903 34.19822529979778 0 0 -1
702 1 -1.2 15.552161853570722 19.971157545418098 31.49092667013646 0 0 -1
1869 1 -1.2 17.619668026447094 20.654157267473728 33.34767041092207 1 0 0
751 1 -1.2 18.4980464851608 18.418353641414104 31.747925698302456 0 0 -1
1822 1 -1.2 21.56684155692844 18.43586442508444 32.85842662914764 0 0 0
39 2 2.4 21.2691366484473 19.9743938449164 32.29356962440734 0 0 -1
947 1 -1.2 22.67422568591485 20.697886095219452 31.880205135552632 -1 -1 0
842 2 2.4 24.14246002265312 20.001548633718347 32.02950183894317 0 0 -1
1997 1 -1.2 24.41416568059787 19.819991138425987 33.62600794483984 0 0 0
1674 1 -1.2 28.202327582381294 19.561944542256793 0.6450442172784889 -1 0 1
1194 1 -1.2 1.635105148542238 21.549605764222097 31.468652295823617 1 0 -1
1957 2 2.4 3.2239205427566064 21.956999239997945 31.518018835045687 0 0 0
1904 1 -1.2 3.46999062306574 22.534829517046738 33.046535957667245 0 0 0
1747 1 -1.2 6.046546450496578 21.93664925584528 32.72577163386674 0 -1 0
1814 2 2.4 6.774541813007915 23.399658966679613 32.77652923545689 0 -1 0
1145 1 -1.2 8.107673246518042 23.238069671397273 33.71662366044823 1 0 -1
2110 1 -1.2 10.706876496577335 23.175080908504807 34.24644154935366 0 1 0
320 1 -1.2 13.165775719155851 23.227835976427112 33.30452113919748 0 1 -1
1528 2 2.4 14.740591612636434 23.52824907705143 33.032944136143925 0 0 0
495 2 2.4 16.52206972263892 21.104419518424006 32.193228273582825 1 0 -1
2060 1 -1.2 15.50662340891085 22.113984607398482 32.92491920017362 0 0 0
354 1 -1.2 20.70846675344455 20.979398019843078 33.45253021824486 0 0 -1
1909 2 2.4 20.427100715796875 22.552911138749174 33.802095747948286 0 0 0
2074 1 -1.2 19.549875271567466 23.031177624336014 32.514372797114525 0 0 0
810 1 -1.2 21.7380049004863 23.51381400831759 33.960022902621574 -1 0 -1
1283 1 -1.2 26.586147158286675 21.795052239889905 34.22787262439335 0 0 -1
408 1 -1.2 24.321449070333887 23.27608232230056 34.11416245329623 0 0 -1
1683 2 2.4 25.931609648032943 23.24697487757304 33.8863817769258 -1 0 0
2119 1 -1.2 26.23386702328739 23.522497840085077 32.306718089119876 0 0 0
258 1 -1.2 29.481156471558307 23.792147895392453 31.66938871479548 0 0 -1
2143 1 -1.2 29.13571663862209 21.966742265660734 33.59163949080211 0 1 0
1336 2 2.4 29.313665577289054 22.20880346051301 31.988733184950647 0 -1 0
1853 1 -1.2 1.2253237180635406 25.76074820146042 33.29835422041016 1 -1 0
220 2 2.4 0.8966662917164047 25.33085139406034 31.762676700604665 0 0 -1
796 2 2.4 5.307234563185197 25.910493920563468 34.18457586173319 0 0 -1
1810 1 -1.2 3.84541747841468 26.243367622845998 33.50171399986912 0 -1 0
2084 1 -1.2 5.820960215730822 24.52132858612444 33.48306428879339 0 0 0
2056 2 2.4 9.461895831150219 24.144043042962807 33.88199031586243 0 0 0
1605 1 -1.2 9.570320458159879 24.832332348225897 32.424357967980484 0 0 0
1466 2 2.4 10.374288414301073 25.98078984772201 31.61433198594457 0 0 0
35 1 -1.2 11.358798459944206 26.73533119782828 32.65043406316019 0 -1 -1
1211 1 -1.2 14.799181227631797 24.392261098565125 31.667516373658856 0 0 -1
1002 1 -1.2 15.543057503218344 24.30203461827348 34.21617469614719 1 0 0
41 1 -1.2 23.37879990330136 25.750373203361953 33.692128315824434 0 -1 -1
1016 1 -1.2 25.97368272717933 25.98468528139721 31.546536483781697 -1 -1 0
1418 2 2.4 27.40018150296914 26.713743143541965 31.87124734327649 0 0 0
1860 1 -1.2 27.665269274514877 26.45961366896353 33.45781276858541 0 0 0
662 2 2.4 3.2600396576383353 26.785098673857533 32.06425621587813 0 0 -1
534 1 -1.2 2.3576090324390595 28.16089526989762 32.15429923384055 0 -1 -1
1920 1 -1.2 6.4530460860241785 27.045557871828567 33.853174066358804 0 -1 0
851 1 -1.2 8.698327371825425 28.704079749680268 33.99093120591814 0 0 -1
1072 2 2.4 9.976641050732987 29.702977657944253 0.6230193381179419 1 -1 1
1428 1 -1.2 11.395345592312724 29.00945128318765 33.917411223344786 1 -1 0
2150 2 2.4 12.116005311406804 27.548925548849027 33.82984238113701 1 0 -1
1171 1 -1.2 13.687394499930212 27.695794365007515 33.44629101404655 0 0 -1
110 2 2.4 15.043412532172551 28.38446134423865 32.87838436902994 0 -1 -1
1908 1 -1.2 16.360068820169026 27.60109953704357 33.41842193398702 0 -1 0
85 2 2.4 20.127126769746095 28.283611005788007 34.20065972765529 0 0 -1
677 1 -1.2 19.801261254746514 29.38501771977366 33.04002822088095 0 0 -1
768 1 -1.2 21.370552983728814 27.38389584714092 33.59293655845141 0 0 -1
1214 2 2.4 22.923111384982093 27.201791871557333 33.074557567741756 0 0 0
332 1 -1.2 23.768033329961717 28.559180607362872 33.525081590403495 0 0 -1
423 2 2.4 27.973222292750933 29.664917085863788 31.95895381426187 0 0 -1
128 1 -1.2 28.174508260796372 29.481883172551125 33.54897182771187 0 -1 -1
360 1 -1.2 27.284592484801927 28.27570567132018 31.452265838596283 0 0 -1

Velocities

863 0.7369996288561297 -6.844418560188927 -2.927586195450826
1360 0.666658932954001 0.23170009283346157 -1.1268219922633333
729 2.982590750149382 2.3846622379765225 -2.2044856521077145
1744 -4.2221214092249815 2.8185055362297553 -1.7584843474272938
91 -4.7732228979283695 -0.7370584658870007 2.6718028092742396
240 1.2889543284180685 -0.8038956741457381 1.3222920077644635
891 0.7013124740354555 4.557765323984843 0.3663091293478633
1961 -4.022148311144562 -5.42143830747292 8.575440785789587
398 0.05466933604611393 -0.22154817640834468 1.1562085581221162
486 -4.204324525790282 2.830631477872466 0.5127521718698284
750 3.5280105006229427 2.6090990330799113 1.649684741014746
1784 0.3601191106714409 -2.894582588029785 -3.2031656352815223
1459 1.729736655200209 0.05502940582248547 0.891685266279927
63 0.5725180377453816 0.7197487704031058 -0.9809865772350932
1783 3.769502709777869 -1.0059665298785267 -0.04770522971713942
1569 6.017314481940623 -5.4279008161945175 2.786745245683289
387 -1.4419975251218522 -0.3174006989212253 2.0193468460962434
1213 -1.908617176635715 -0.13942447699316615 0.7984622909066816
567 -3.4603018036515785 -5.47153226787275 -4.847749939503958
1632 6.039084397717993 0.4314761699933855 1.5257874598427623
82 -2.7288701035335055 -3.8565835848034804 4.110997184151709
1730 3.2392524687915776 2.1331970622088043 -0.5494956941013334
803 1.5210498637251468 0.5095968264295263 1.0985208848714776
1919 -3.4924778789569215 2.3193652223834356 4.3748554517564
279 5.0654661530286385 -3.3763861532303334 0.7645939305007076
204 1.1960073593131177 6.849063224497359 -4.071771000569485
913 0.384524250639431 1.3354055152614457 0.9064431485102645
1075 0.6813513060590964 6.877732335523224 -0.5284719029820217
132 2.796835816866273 -1.9304103744784724 -1.8197372477233171
817 4.846838352235158 2.227654647495991 4.283247438445758
900 5.645143879768121 -4.019001530683033 -0.7640314372117136
1344 -10.333768443258863 -2.9618410348495976 -3.081231249595306
848 -5.231440214080763 6.74008651017953 10.968200997789863
239 2.236033288878172 -6.034245561517218 1.2918807113156174
1899 -6.421031091225956 1.2056417932785997 0.35460990813646953
485 -4.843044288247253 6.663529151442754 -2.428470918736611
2138 -0.12552371073323654 2.1523362625869638 -7.147267421143433
368 4.361261341791941 1.3736276922350237 -4.475360023734656
1471 4.636826287888406 -4.0216857274171725 -0.9725795628349998
2034 -4.033522419797277 -5.4613764984867155 0.6811397001080521
1804 -1.3534169075526563 -4.8361717660513195 -0.9843525094992447
1837 1.21038486258125 -2.8191615975795083 3.103180179050645
1389 2.918365597757308 -5.213218808076717 -6.582694036185085
799 4.746356350262095 0.809346896330207 -4.723863600287674
275 -5.529241847334396 -1.206270738560305 -2.028282718906302
2012 -3.100543486945877 -1.039078310679619 3.663235297590823
1408 1.3153191467908525 0.34920966779510476 5.210939784121745
1543 9.404774293622454 4.060690731965259 0.00662076263261041
1189 3.9003217152654224 1.3957856204283499 0.6307126038495444
212 -0.8416609580765706 -6.47372515192204 4.621011626713994
635 4.557769944015609 3.3030337423024356 -1.3345641840614757
1984 -4.395471352624979 -1.8629589170002891 -4.52208559114843
719 5.96723012339412 5.763576791319109 2.726757177379017
958 -11.759617811139425 0.27645168653171304 3.0795986347824718
1526 2.106319503604473 -2.6130631120862913 1.793967058730081
2100 1.071492965743469 8.137674518076963 -2.810279883672079
767 1.1964645817132338 -0.9565991742154865 -5.146932081894171
1040 2.057605467785231 9.191752572306179 4.439516950468346
388 -0.4878464206873961 -0.8196615800601486 -2.33160047218873
934 2.1542523287616304 -7.051530586266964 2.5964697636796616
1272 1.606021912068872 -4.450288926397418 -4.726013681078796
724 -2.948354728668202 -5.0713030769202385 4.021648476230659
1992 -5.017910476061383 2.5573945876907995 4.572979953802189
1629 1.4020560248430454 -2.667627544180471 6.902174195832541
530 3.153281468775274 4.592883557728537 -5.2918248000963075
742 -4.032573147199424 -0.4826613382694206 -1.165944010565772
1960 0.9594180457055963 4.703452955918882 -5.177982141814646
155 4.25240265556581 -5.773067266549875 3.030439587457795
2073 4.258820693667345 -2.564806183111596 3.5459125650633694
1967 -0.27497580221622714 3.4656196190053388 -2.098001752053026
1231 1.4108803659952969 -0.9566550014580439 0.6530925230211507
340 1.0338638649457612 2.2643232035010064 -0.7812279348425777
706 1.0421978228749031 -3.525794279148382 -4.152201854523674
2107 1.486893341859001 -2.6431150992412227 -10.041991233208105
2029 0.9256791472373749 1.9844699654437394 -0.19984631928588947
1315 -9.371248034979708 3.207480132797995 -0.5076811980481202
716 2.359193622790314 -8.76596034907978 5.598007470026148
654 2.907313873953992 2.1779210481001594 1.7527714326430688
748 -0.8848612848069387 -1.6479572308701056 -2.9180886067930523
1260 -6.06818803924501 3.304797471456269 -1.3180313984815635
1774 2.0812815881725415 -0.1765764312337865 2.804737119380671
1055 -0.8429484074951417 -8.420126897511455 -1.0823818616876597
1873 7.254588364069191 3.1841600838299087 -2.027882770125408
919 -4.919854879462348 -0.6393568559597532 -0.0718203561554491
1578 -1.3302054008512318 8.111282757660533 5.774834897387599
34 1.0314691072761357 -5.971084544763857 0.013894157603481668
73 -1.4257672573659648 -1.5685514500475801 6.192699450441373
1524 4.392362800550289 -10.137588850872365 -0.22138090433161584
1154 -2.5740707559714266 2.605912243487994 -0.13036807316640742
270 -0.47621250342443416 3.040579950170639 7.79091389245358
1916 -4.251578857215398 -3.7004542761454986 2.7018565296110357
759 -1.4111472412411652 5.457155108391808 1.3100814221766486
1511 -5.345197370785827 1.1095028394229878 0.17735235122768503
806 -1.7618050557246294 3.1291023852853392 -1.1724451448117386
1146 -2.1551772959342532 0.3601164797727846 -3.6814399640716737
892 2.1376388440529484 5.418331875942868 -2.377357331005365
66 -4.433328268799474 1.0750324558283022 0.5946242086363163
994 -1.9477592885230983 2.6378734676826805 -3.1973452945670098
105 0.8594283297002369 0.6172586093348709 -3.0825065576910617
627 -1.588124183312725 2.095786654162034 0.8640427080598325
1638 -5.777222478736816 -7.211277290667096 4.556139805629326
536 -0.3022913760523054 -4.994131249032877 3.7145082268026757
685 -4.679509925759086 1.3635272545157475 0.6240485517266916
1872 -1.859857679686617 2.529101430838164 -4.489405089465065
1111 4.940253046125254 -1.6749281457083138 4.089962085655922
1550 1.5528920615307409 1.921466081113508 3.1223749722490983
587 -0.783692736909369 -0.23053640810171663 -2.5930310419281475
1162 -3.7969441823152095 -9.405521375083358 -3.2786465224855608
2104 -1.4876620063578236 -2.04506201750683 -0.7991881576799392
1794 -6.906404501700615 5.113757809495037 -6.523108423579456
22 1.2011542768086656 1.8750255039473323 1.650656953782823
358 4.151982309885307 -1.8618386646334348 -1.7489321113164245
1567 0.07490437488407092 -1.3090221757232487 4.068048502096327
289 -0.7267573329880197 6.265958993767297 -1.860641125838315
29 0.38277220314872773 2.375887847309999 1.2898331675951171
857 -0.5229554825677196 -5.364354676403803 1.112948108159685
26 -4.520578324683246 -3.049288937884742 3.3290500030202343
1520 -0.697135160335943 6.5644360437858635 1.4885639980613599
182 -0.2726560577343833 -2.7103958374900974 0.49140386088792326
1482 3.9381703556154046 3.9188160082101295 7.991000824558902
738 -5.824964783856272 5.040193551528414 6.567473388039286
170 2.8613660070041034 -0.6310733274262719 1.2077064500903751
1433 -4.624470773906846 -1.645734553719007 1.665148322357375
1742 4.01146202899254 -0.9431772800018241 2.4909433792756595
1098 3.2810869908079776 -1.0439965938259277 4.210551850840923
169 4.420904867157828 -1.3392797772651148 -1.1688316563475916
1351 -3.3950393110634876 6.422493741747318 5.11791718678621
1252 0.39153858863477287 -0.7666787803603926 2.4498466825250054
570 -3.9665160643967323 -5.504613739685375 -4.416447641998711
432 -0.8702231887074492 -0.021180917361504004 2.10739171391132
1 0.8447726593067741 2.592615867570742 -0.919197026672281
59 0.9811866561805426 -0.09067433727680928 -3.968198213722638
1193 -5.099136333132953 4.320865973993453 3.346116783317725
568 -1.5462961926056966 -2.8948196996223716 0.019958935050469435
907 -1.556492531174229 3.5509544264684005 -1.4118599848964006
1991 0.5445294275096905 -0.24692916939840398 2.515615476010261
1912 -0.11128874348485485 -2.7973099477852332 -0.3383714982459581
2070 -0.8648181548522211 -2.175871849233046 0.9316177737502283
1807 1.9073103250156163 -0.7357785441040898 -4.303279355503865
2008 1.4662625110062069 2.049812622872371 -4.268400625106774
323 4.945878445853397 -6.335038051455788 -0.6395821170911468
1948 -2.935902873490684 2.783684054827605 -2.587203763362925
753 0.32515505577857273 4.880891301038285 4.202222749923632
1205 4.89986162637164 -1.3847046302222605 4.985496602500212
328 -0.8496812732367225 5.799635633330567 -2.053901588303085
164 7.6388915567978435 -0.9877030377532742 1.8852570276209555
1824 -2.8698293395590118 3.7535721755928964 -9.50521970980517
1444 0.4801303866004436 4.630052274687807 1.0601501202375103
1251 4.300140262042251 0.5552543072808924 -0.374921474011814
1462 4.161135593019051 0.17374072075557132 1.6832873652021323
1666 -0.6503201910223857 2.822025295089734 -4.499910877384476
134 1.8894749618981836 2.868934508922099 1.0823687205004018
1782 0.9891048043371357 -3.9454418438145797 1.7944841347870446
2088 3.457278769056869 4.974994232119889 4.892218887111702
290 -8.008004533727512 -1.3878177605605886 -0.5343569196837138
576 -0.8863939079808834 -8.656407010284495 -5.915319096028168
294 8.083421701436503 1.2059848752871491 -0.9183562453863615
171 -1.1291916998172944 -0.2775436143257331 -2.7835443340097963
1280 -0.3583185603729743 -3.926425249800988 0.23568329459974163
823 -0.2928076882867924 -4.709641474489817 1.0494722824667302
255 3.433925404085426 1.2028928846109248 -4.221166406438919
417 -2.1338041330235273 0.38491492882959943 -0.9841382009319484
48 2.4766206287901547 -10.609820501105343 5.018855154284171
1849 6.0599439182465895 -1.7954108666977415 -4.165811615938344
311 8.699758692256266 -0.06418253850785291 1.1508958593962444
1054 7.956265130255727 -1.6110206737851025 6.198754967826346
1081 -1.557853248926246 -2.4569824205448425 0.42520447906127473
477 1.4206297932973269 -5.403551165023984 -0.30851368702410864
104 -10.17180201085718 -5.288244054519285 1.4743969464844455
807 -3.385927351195419 5.961746664731499 -0.6926383225214029
1521 -1.6587737477986555 -6.226233147081577 -1.2941069059444386
84 -0.878066128852611 0.9330158518291795 -1.2232544384154498
397 -1.6590967302654454 -5.371394928109225 3.7600997770845366
211 -6.345322500437462 -3.6220986880673234 -1.2012321130236558
4 2.1116606569482284 -0.7586471492342601 2.790617277506421
1483 3.1982650482353803 -3.9054204114492532 -3.2704694283552795
1163 5.165008259028292 0.8985151645911844 -3.604619336092428
583 7.938400631916021 -5.1592453761740025 -3.3675805835034653
13 1.0389734416751424 -1.8353939694965429 -0.38626129835345274
379 -2.5477737427083462 -2.5192029031838166 -4.6227259932164815
519 -0.37162637559693096 1.0047264701455556 -4.531316939881109
1043 -4.150262884507267 -2.2153826929505356 -3.6121827909220765
1042 -1.363851708731676 -5.023555651143658 -3.407430827083574
190 1.4295615151617143 -0.3628844432667951 13.644385813717253
1374 0.788100293836453 2.370849808570384 -3.968420419293055
184 -2.597426919019171 4.639901339144796 1.6360152981968925
791 8.573597029762619 -1.3432736943289918 5.517524116323733
697 3.67325014281169 2.5155645886333944 -1.9299346877118198
2140 1.8541611964142202 -4.246137709952733 4.89029365603444
192 2.217815339449845 -0.5286997926388269 3.7294683187285007
1307 1.6206824267984097 0.7385496990253682 -3.8434208553491063
1705 0.5915085061860696 4.642376839248526 -1.895139880182691
188 -0.5210203944274684 -1.0677002885298768 1.7100861872392903
47 -1.0941409505699193 4.849535196982101 -6.7146861070601656
1572 2.1489511839900666 2.5117938677199296 -3.1594556645073473
1089 -1.6350764981771226 0.7663868741529437 -1.1351708216490306
1207 -0.3789222051840937 2.556101184062891 7.039273202439458
1803 1.1105849473990426 1.7429384308038804 0.7156818017941652
1565 -1.3154244414195948 -3.263857996973045 4.865577116262198
145 3.299950828728808 1.497190071425869 -5.921935841561459
818 -0.13968445030498866 2.5426202597322884 -0.10317162999882289
1761 -3.4131443220009055 3.154638503982671 -3.062751992015831
1561 -4.457374208005669 0.45579257819161345 1.961465680708091
1787 -3.3895979831050225 5.4732123404253 -1.9150068918531489
577 -1.0363606800955278 -1.9337032461617756 2.445680123458421
833 -3.1256040444690396 -2.157683395494484 3.919504365049325
995 3.289234556888775 2.0894000636782653 -2.1521167425070082
278 -3.400841983454374 1.8727949378612456 2.0344520186488797
1978 1.0258486381409126 -2.2321323420753534 7.900044724134108
288 4.8691954685184085 1.1392900386270057 1.70395497055884
1206 -1.0891283956150648 -0.2207035399329692 0.10656124060526512
1504 4.784867222682168 2.8338211467607684 0.0986979439323233
535 -1.9992126250915154 -3.605220327181364 -2.996581812221229
985 4.628793231853167 -2.2801014810622835 -0.5427760394959966
728 1.266697809044335 -10.509044251297393 1.3349661086686702
434 1.861898122032283 -9.588026048898735 2.983637023354306
282 1.5660375547233512 -4.669138816246394 2.8449509447351207
401 -4.233095354128558 -0.08166957168431871 3.000945252821714
588 -8.001663617355566 1.1268595746476409 2.952767694546468
341 -1.2314450087331668 -6.1934130432976735 2.3085292170337723
2125 0.11089835295338456 -0.43855773719464064 0.9032588165287748
187 -4.812530829991817 1.400512688636494 -1.265940763080858
1726 1.7968849002529605 1.2266200075586278 -0.4466132843294741
1443 3.1930507080283683 -0.766486833690379 1.2959428614395518
173 3.1541529046770265 -2.361115528099338 -4.4558610291236525
1304 5.2083690440644075 3.6365151403180076 -1.9475597731260836
1222 1.481298789240687 1.58020661932903 3.4726909140065754
1760 3.920164713534668 -4.950815952998033 -1.444601733594608
1470 -5.5297088523593985 2.6969838790042826 4.497180527953478
1453 -1.095001485417643 -1.4126198009441995 2.2899397702329427
668 -1.785828211844143 1.9905304025832984 1.2558786046390342
1165 -0.8081385519766836 -0.1478947929194702 -1.654144691911813
1536 8.096859408577968 -4.890472895707225 -6.601385073561484
629 -4.617505276739182 -3.8493538278462553 -1.6375373952565209
208 3.9896931366195987 -4.491622394423144 2.091720006677585
384 -3.190603437738263 5.174323847910619 1.5633539957328433
2061 -2.882753636965609 -0.477062582030758 -4.100788965527163
1420 1.6380382517980319 -7.385022882453552 -5.761696335739899
752 0.42432429453846837 0.7756286143484933 -0.10470760531469878
787 -2.1975450279846673 0.36059333838905555 -1.534241885517007
1342 0.27104869687392574 -4.86035913123195 7.632830670799603
909 -1.3421358765745248 7.023687847229028 4.609769175968999
578 -0.7925542227415776 1.6678510891451455 1.9483073940233084
888 0.30653447254434735 0.8961391035087106 3.010535447997478
1259 -6.305826169998272 1.6188151491557206 -2.6307744482584274
1828 -2.653295988738918 -1.2093700463928487 0.14737473054873335
395 -2.3626423960851084 1.5201306268811996 -5.073907341253771
631 -9.886150520430308 1.2206758273448248 -6.912836670813656
130 1.512390491146258 -5.628044779042363 -0.10865676534686265
580 1.641896486131378 -2.445542477703897 -1.3555014167445865
673 -1.243756339967869 -3.6171840017395396 -2.442109960479415
152 3.5696301655457914 -3.308305009737836 3.6063857618432116
1465 0.9846528499887185 0.5059236144541088 -3.1085583197301885
248 -0.8862672916516448 -8.503515917868118 -2.5563574382872365
226 8.994302686504009 -3.960817400466444 -0.9565993700000008
219 -2.127936387960224 -4.573157851858694 0.04654706178182758
594 1.1881167628171818 3.4833537766324723 9.291989624371606
161 4.779301959079032 -4.842641104261174 2.7826145164051277
966 2.109609928036898 -5.9048039330830955 -1.1529684979292076
373 1.8486877591286843 4.362949489074971 1.0243505681592449
316 6.6464056136239416 -1.9850716888815925 1.8287690322419345
1292 -0.6501458773609189 0.7814078562872667 -3.5919345277644683
405 -0.037304124832723724 -4.046424651321067 0.5099297458585735
1867 -2.886460853250394 -3.057403427706373 3.747954329924204
1393 1.0357617612734522 3.1438649413116333 -2.649685574297849
898 -0.8138932283188294 6.090886364294436 -1.995538796599926
661 4.085762031314931 2.216927889192688 1.2328760814982702
1607 5.703390776190931 5.1331436229372995 -5.086844989513494
244 4.496621740245394 -2.850267086828188 0.0002876108204193087
643 6.409711748619676 -3.5175178396314872 2.9307860278368474
163 -5.068021615978564 4.989415687719247 2.471017813606371
1792 -0.8016747099821775 2.221596181763885 0.37469244457515616
504 -4.494226621525516 -9.564954374957301 8.14195159093268
1892 -6.507233068653888 -4.932016439480548 1.3711921572920915
228 5.424146275055571 1.1115473375868288 -0.9097653720578806
1262 2.4703567814701994 4.757919467082694 3.0138194299059227
1887 1.045471878201521 3.3413106546641336 1.6137504071511268
2102 0.6047076464671497 -0.823228704289568 5.23611734738718
840 1.4891781470843253 -1.013470091695673 -4.97444555820269
222 0.4922421020064477 -2.214375789281836 -0.45975930706177726
268 6.095792510519268 1.4271291149861276 2.886166509888741
527 -1.863150447761575 -0.8055331558198113 -1.4230712580786282
1172 -9.245333949046303 -8.205598746470896 -2.7821488398355094
2081 -8.359810246317533 2.8247965976766656 -1.8329016104483355
765 -3.167850951787772 0.3259037451280817 -0.475781915596809
1950 1.5179095944327148 -1.4691742845144817 -2.438261071165862
412 0.0711921821156461 -1.6842668166651713 -3.1280637655257744
439 1.283052874389788 -1.8425357198450278 2.3289509366978214
977 2.4260349314143728 -2.4558969982657843 -0.30732505213959027
291 7.264111128353921 -3.000963823480378 -0.36161663599668786
1529 -2.6128658178723314 -5.32597718378 -5.772042259985134
522 -2.536214325354624 -5.168548881972111 -0.2634349555663113
2033 -6.3431488869593355 2.6627345261280206 3.2062996646181245
553 -2.021857725447826 -1.827060979011546 0.7658869232847766
334 1.2428523629425543 -2.5385826845389987 -6.690177364350095
1240 2.575568307649781 4.7689969603541105 -0.7027943427044558
525 2.682609811099696 0.11058418419129146 0.47153053258811406
271 0.8787713647182909 0.19130248832286337 -1.7310681407376038
287 1.7466141934027408 4.237440894751798 -2.7242434396495394
1743 3.8023954513882097 2.7379792049271736 2.0300929860042887
378 -11.646801586390122 -0.4595914436138651 0.1997474992083787
1735 3.3834190343349952 -3.1938271513686267 2.5699481714962293
939 -3.667254096380366 1.6633027177103825 5.808311438344359
1758 3.2485439327654473 0.2939357602248285 1.726371982504294
1796 -2.680989801579056 8.007056794576696 4.374871703998101
109 3.697990576611334 2.3053661553699984 -3.235760693314179
200 5.9868518788661955 0.3547369399475814 2.4125108955968764
841 -2.582838575578195 2.245946847005289 3.0804520655990384
402 -2.3312525051169173 4.405354151852987 0.5714249292768389
2090 2.2298726412799263 -0.6681370491390679 4.076306675485905
1773 -0.42383862664402233 -0.21516066877064904 -2.741074196440342
1257 2.5796834646824918 0.15341130559806937 -0.8387380827357704
1105 -6.076712476103547 6.066807918191111 -0.9737798499008354
1289 -0.764348051079306 -2.4019293806472852 -0.4224364390668716
149 -3.5877048378065903 -5.2215713911912145 3.2978828300685046
1711 -2.3547878416903467 5.344857961479972 1.1693871509998917
674 4.253888186839799 -2.51496618401704 -1.9133197424613617
165 2.4636385533837477 4.81515233145946 5.900953368024019
557 6.1712986999039225 -4.633805005102874 -0.010071599476156575
2142 9.725064498765118 2.688858765867771 6.2524608561792725
1946 -3.0719626836839082 2.720784112910988 1.4036443966897783
285 -2.4260264999127275 1.4426819712339756 -6.304649101870943
1114 -3.2026019754082538 -2.7938405813135807 -5.407738870064459
1940 -0.9990864227508828 6.462859675227968 -3.9169616363470485
1490 -2.0769659966145446 -0.3519611167874144 3.057252281351081
800 -1.6601586506744181 -0.959634975676639 1.6907786429139764
2085 0.42263234107238573 3.27380336764714 3.4534163798753945
363 1.594267195181506 -0.08478678618416825 -0.6640391203406427
2109 0.07602736445968819 -9.90871267985149 -5.147598879697158
1592 0.31296876189117373 2.243299446204402 -3.852581742692651
794 -1.4301536175098855 2.717130278502254 -2.1151756009123277
346 -1.8208006581479523 -1.7116044868464182 -4.2640839412111236
390 3.04141219646945 -3.974622033748982 -6.902111902626883
1166 -0.30767818449759676 -3.7021657828285113 -0.4650368757603581
407 1.5534963224549234 -2.100944570822718 -2.0472936057976603
243 -6.367843119437551 5.857588551881888 -1.556583759797194
813 5.290169593640604 2.6921314664538203 -2.310545862295812
633 -1.5640651767179115 7.26316394171901 3.7372187142267412
433 1.0491570750636594 -1.0964646905654316 -2.007063197396537
418 -2.8514641973050323 2.0230515002021696 0.22146125417190074
403 -6.049195783651558 3.1398532700050126 -1.7083754779081197
1700 3.2153548968008376 2.7189340330154734 -2.3595783297378454
1519 7.040859599603225 -1.3681801046727815 -2.3139765137160424
638 1.533364727061046 -1.3184137058498857 2.478195345762931
1771 -12.213169479127659 5.221383260473507 9.29187431920332
532 0.2544163765134296 0.77837183432755 -1.9413848829491085
871 -6.053396652009392 0.5353872014553714 -4.564251769531888
1241 1.9605892798666584 -0.5487827090018735 0.6089925190379972
1237 -0.7703353532974052 -1.603972072608705 1.4103493522594202
1139 -3.5687184468077473 -0.052624918819200686 -0.45894484716531114
1186 -0.8556281752795877 -6.379582758429775 -0.9471653737168985
722 3.769046586126562 -0.20981161736722503 1.7267454538398916
1366 -3.6956762709735984 -3.5056946348007147 8.554721223384133
749 -3.8199692583402474 9.599297201784811 8.744910415474632
1125 -0.2725562576930024 -0.9578386355827684 6.607299147707774
1377 1.712372870906444 -0.9849914047959264 5.31881703745319
2041 1.5701439516497175 -0.7374038722239572 0.9994746387939013
234 1.3620338070972509 -5.769645321378088 7.308396080287565
253 2.915991344043557 3.9513759355060514 3.3439572094726446
652 3.840388454973226 0.33859200314873483 -1.010713867980511
658 -1.4402066194915872 2.916032287805707 -7.622067223466015
1065 3.1604685228000218 3.5407203926623243 6.411944283193346
1812 1.041044778403551 1.0420605492972947 -2.55685020267835
1820 -2.667225377477324 -4.457791428384445 -0.4609865609492768
482 0.4312105762356501 -3.2628270084112905 1.4478445668866533
981 -0.29833611113657227 0.3153162453556311 -0.7896091816251485
393 -0.03222768450732409 -1.830164991940725 -0.2174836974450452
1387 -0.5807756097855926 -4.61831088970335 0.12479328762188603
866 3.0872455660319935 6.022366386003191 1.7061587080763543
869 -5.230908901562607 -3.6767938064742305 0.09864004343330857
1187 1.6550934505849564 -1.2261099894676473 1.0851165677604873
376 -5.863052138870519 1.413500424855765 -3.1452352171489726
180 -1.2993945639551414 8.465390162591486 -6.110586771959436
956 -1.8896701608256912 -1.435934196967974 5.603362360245413
1996 2.7324594826050834 -4.302190192726169 -5.487571243857093
516 2.1643852867379736 6.10656437789781 0.883161151302546
265 3.27971722694291 7.56246859755611 -0.043380331255953926
2075 4.910080780005556 -1.9180850598511399 -0.5151791605218256
881 3.276585275103317 2.7405915310412396 -5.337645470107497
1061 1.1458841233434083 -2.8170173798704465 3.180251334552421
584 9.411381686495679 -3.786181896883367 -0.8468566367329862
1746 0.11309531958017495 -2.3878685604866012 5.485149231714491
381 -0.2605551864824111 -4.815756301778597 5.020060580098676
1277 3.962662256139609 -2.595548947152773 3.5113671293817466
1124 1.4920867618349258 -4.714932755819834 -1.5600166247436396
579 1.653774808576271 2.1310651909603626 -3.171499309222215
1936 -0.7965348922549029 3.406053641242684 0.6849169911196147
1295 -0.5211462503239362 1.2278917679100425 -3.014178359492304
1959 1.692444298870562 1.5347478026466201 -0.13328033516871313
886 4.357834366486307 -2.2581377626348167 3.880133183107367
655 4.875517868623518 1.05701234904516 -0.3631447273691771
2160 -1.0085103739488386 -3.835556514046769 1.5638159160136722
849 10.402281516605736 1.7018273716357295 -1.0112632930589043
540 1.5858796644154338 2.8004436393544134 -4.7204503169085115
198 -4.465389558888231 -0.024145523332387963 2.4307854975964824
1839 -1.8479463338693307 0.8687632300063566 -0.5056761594684094
166 6.372783940167879 1.228412016384084 4.47835186732599
140 2.6192523282865148 -2.2896101680883043 0.6828449746686488
1647 1.0516183125745622 2.001034929743791 -0.5662963375691707
159 1.4045912171649804 -1.912834276039799 2.2264773489732925
667 1.9550094612057702 2.005251404665469 4.253839837873147
146 -1.2317992277644019 2.183397862309633 5.432837927699679
2022 4.274255382308818 2.1836330385239275 2.061150664366397
709 -3.5144178176407723 -3.961256626527043 2.337742527096974
1056 -2.41438083362404 -4.7467492751217195 -0.7720141326899321
950 -0.24813752985966542 -1.4688506369046153 0.3430011983860943
1847 -3.98376636745915 3.145730162856255 0.27111959659176477
1100 -4.03173298507541 -1.553916062492718 -2.1573408158228227
1659 0.9789596939689698 5.14376940594289 0.7068554476007365
1661 -0.015160390198529784 -1.2063986343817077 -0.29908513683440296
1480 1.0247173611039704 5.034987141268473 -3.2773748379344125
503 -3.0955383104327425 3.988232611082668 1.582551766670561
1221 1.3869666298976133 -3.050963851968958 1.162829989111682
613 3.469929863015119 1.5985749805372127 0.9115821825200311
1457 -4.002337790490056 0.8978280957519599 -4.601117788340299
451 1.7366968588730074 -4.094337767440581 0.10475222632346787
2066 3.643753900090718 3.151270471977547 -3.49570768331487
1456 5.223117969394323 -1.395727443952789 4.012484048548761
1604 -3.362840372492967 -1.9264476439328497 -2.7383315992573185
9 3.3222986277322946 -3.91289228734196 1.5737556159914226
615 2.2513996641250507 -3.316356836017903 2.251417924453435
293 -7.120298151750526 -7.881884197597106 -4.1864506098318985
386 1.6583899382876761 -1.7608071300704693 -0.7389331557661438
695 -3.590639520950067 -1.0584998198857203 -2.0319879612741283
1027 -1.2943358091362334 -0.7244498414047092 -7.560138898291584
1975 0.7354500636722426 2.1560662443767717 -0.333106964109448
1624 -3.258201858256865 -0.9528007759311815 -1.9057288685811067
1050 -1.4636561086548887 -0.053205649925627894 4.763595117546571
1074 1.213184251621379 6.908519814549619 1.7749008004674613
1434 3.798534509775118 3.4338497830230486 -0.8448394901499772
1407 5.862894605596029 1.1755355151977451 0.33477901051121267
859 5.045365723631551 -0.19871057129620529 1.0794491653210774
624 -4.48695779888784 2.719675802108839 -2.4456348280149034
2036 1.822807813791557 -8.038656077007309 0.9534160286490808
40 -3.9371335276835446 -0.27702591537807353 1.0809507447155071
852 -0.715805638338733 -6.113123913208087 5.652923138401316
1398 -6.251558131581766 -2.9268410145604564 -5.274853147438427
1918 -3.0060745840390224 -10.309752091619002 -5.92864675702093
230 -1.2866324639771143 0.1969220159388901 8.71807826187021
1391 0.26765319408858773 -1.8096000377329196 6.8992588810040685
512 -4.517360173961652 -1.2247698709330814 0.1721789424219628
1037 1.5529157216591218 0.964426767047349 3.3858847573940203
1906 -6.677854461429512 -3.461904084843246 -2.510111788006758
1168 -1.9696070955195137 3.1762183253781946 2.507739322526808
978 5.552320203913477 3.0237115491296684 -0.44159055690154037
1653 1.7900900519844598 0.2580456343479142 -4.705373429803182
1234 1.777214093683476 -5.828793428765622 1.9844192798071838
1876 -2.8199999124999287 1.5147017419539086 1.3197594088928204
345 1.1434889665443304 4.47627423916577 0.1926561595641077
1896 -6.631487273855483 -4.321226804702768 2.5823174650116276
734 -4.912863176899823 -1.472860709206018 -0.6834527785023804
622 -1.3449767179623071 -4.621069642839629 -1.6450626200057514
2055 4.271657614645925 3.3170978690585535 1.6745125047446068
1218 2.550829067285787 -3.284945961974939 7.727894156608892
2020 -1.8756683335154578 -2.7968580753691215 2.6506504836881097
221 -2.992054769074832 -2.522294131534339 -1.05268193211399
737 3.0604200928383576 -4.4971428093096035 0.6426194377547252
2083 1.8366478479929582 -6.8299286514730815 -5.843102007177885
590 -3.0880588190194698 -0.506282596091068 -2.7700509347958637
551 2.63483833050234 -3.096989311892888 -5.822873080203829
1261 -1.8009818347574944 3.6833114518171697 -1.3883586048556797
922 5.421554635212915 0.6323829271885824 2.382008683936142
194 3.336343774508521 0.5027576446963764 0.5308417477476455
1455 -0.8197466994371765 0.7503961913773932 -3.6115892090461843
118 -3.619960779010998 -9.00422648276647 -3.145504055190604
1449 -0.6937648518654849 -1.5776827449255628 -5.9293022500649055
795 1.8421047297098367 1.4171783655134875 -2.809616544786235
141 -0.4438451142380034 -0.2504942231435933 2.6352252733594517
2076 -2.573419350406686 4.256375246182953 3.382045657844592
1994 -4.398946089868048 0.28382428425616724 1.6269943730539456
1976 0.13399968507236037 -0.756896220639967 -2.794307147999805
779 2.410376545955791 1.6221912645125778 -3.5989099344374873
153 6.259164884241938 1.9568966929066602 -6.301804918314769
903 -0.2340120885015731 -3.291564208221055 2.3705477832401507
474 4.10347614779467 3.1398310050581943 8.78656252193516
507 -0.90336457136477 -5.626559482500945 2.342754428821784
741 -0.668078500450175 -3.5038822836023447 -7.675489724835606
1083 3.6048354637139997 -1.4269696041877373 0.8735279461061363
1714 -5.245628202601247 0.07592924325677036 -4.175165988309352
1085 -5.161125660984333 0.3111924227130544 2.2182012569932312
37 4.933824494433164 -1.9641841849066395 -3.568345061160765
2111 -2.103957073871138 0.12501367664540475 -0.36669728180677363
600 1.1403731782179534 6.569807540796973 -1.1235896559571692
348 -0.3636559523602287 -3.9662274316690795 -4.406952666795557
2042 0.6659547303885894 -5.2577442367388 0.34856034779118844
905 -3.281583888615048 -7.601741835283188 2.0961653409432057
1625 -5.44664800076059 2.318583116312105 2.929640302415805
2053 0.4049394906967173 0.005813552740733714 -1.9276763890498454
322 3.337311148446559 -1.129054809343622 6.791351618143555
589 0.2907397040490261 -3.4514565454240147 1.0961551620666252
216 -4.461009929058077 -3.786013167204592 2.6552489871164897
607 -6.516197456316516 -3.059756860155424 -3.0971896291678873
8 1.7268401056815899 -1.9918664554913803 -6.756287702995409
1636 -4.010854144744062 2.1701092431707227 -1.1358391125109852
929 -3.244711895943505 -5.536687039663359 -1.7838506492856727
298 -5.16021089407854 4.2498151849348105 -0.9971292013384524
733 0.48687888495996356 4.877590669183573 9.551806201163322
782 0.626392210378519 -0.3994124013917047 1.8977252950768502
660 -2.45691805631573 -7.377599299347016 -1.4818937865375774
663 6.631993310899621 0.6429801028620385 -0.21567342645034468
1725 0.8727156640287365 -0.7573420713565344 -0.9337433612748196
2059 -1.3314130599153569 3.221272087799772 2.5869282313374726
2072 -11.002295031103465 -2.8210249388501736 -1.8902074688463004
780 -0.017537922638501298 3.239895580754767 -3.022679809082524
144 -4.900249173692065 3.4231133932286397 0.3267400268897292
517 1.43186725029432 -4.041366233748702 0.6497357131938221
1668 0.7784374094649992 -0.1477844885815713 0.5608747111948875
790 2.616645226597996 -7.281910796520919 -1.4984940725913058
713 -1.0189944173624836 4.281667206391974 -5.295602740117854
1690 6.384907163260591 1.0007999503009848 -3.422344118335725
864 0.19761442681622446 -1.749507605241087 -9.461158667929304
2037 4.271128877711068 4.036042528965642 4.72262697878755
2113 1.362962116226288 -1.4042929678630107 1.3828721197486509
357 -6.989217666043196 1.0995491697884432 3.2870206907046176
895 1.3351750784685061 13.046621450653898 1.2584183887604805
699 5.238426794001617 2.544613696025078 0.6115792120849359
310 -2.164975997556938 -1.5513804341339776 -3.2953534272480582
1806 2.3822844915692962 -0.5950900646567723 -1.2527424893582182
1287 -3.7231130317159153 5.88942116927533 3.5605162294729538
739 -6.915153990594834 -2.89728334596681 1.8525895481032082
984 -5.086761966313358 -3.1435472874555233 -5.78461585742691
456 2.424898455128021 4.185939476827384 -4.778020075411298
1952 -0.46526655811950335 -1.0299352063721892 5.534828566291346
603 5.259854865204622 -5.581901573652854 1.1244718945680885
874 4.565324887742472 2.0974078944657117 -0.7222369510362915
1478 -2.1643923166074304 0.6972995285160063 2.382004785024747
1684 0.49255082330017064 -4.3171032717290325 -1.1900662340950356
969 4.423440656536458 0.0663093909827818 -6.7549159979070765
596 -6.070441304588087 2.5421197965833766 3.6561136682510034
997 5.46339656074195 -3.4445585803075622 1.2907178360621097
599 -2.795932295126864 0.902501708933817 0.12704514378452714
720 0.30158924869152803 -9.038097483296601 0.6774157796547758
2046 -3.6710354339460123 5.354528904714095 -0.1349844845427982
2130 -4.108029003232086 -2.7219771923666713 -3.771938108433753
1983 0.02682983901508306 2.646963631236688 -0.45406561463709744
766 -2.1249298546587965 0.8889901806387431 3.006208311627013
1104 0.8160666075409754 -4.824620339165767 -6.2353797453636215
457 2.2551768460195523 -4.014536114404144 -5.4674280184666415
528 4.532609992101946 1.16707765650392 2.939565465728392
448 8.35983870142661 -0.7323961229126651 0.3142435912698445
1224 -0.9345852302407287 0.9632510468294498 -6.494163535491545
3 -4.8606002925635385 -1.7384298023136495 -5.306582428866529
428 1.8322770928168883 0.7759612810556782 -2.8351184772201514
156 0.5281027723193559 2.5247186494133476 5.590830634810077
1649 4.558770531422793 0.5290546608858571 -3.1811505398545292
1364 -2.5755889405861563 -2.9244618708200174 2.0090755415417303
2019 -0.6431315471312762 -3.9388138665808854 5.917800738133202
1941 -4.48889478441205 1.593338866814806 -2.214318561444223
1388 3.6202293851103167 -2.0832993194532534 9.049895164377165
1805 6.201782288754711 -5.115809991460986 -4.5369407474674714
1274 -1.0847502673234872 0.32011528884824814 1.8818696054602086
157 5.885734371895688 -2.7940730869301214 -1.8330506443204417
777 3.9950550586281515 3.2424404018492003 -2.3037337501808586
1183 1.1088965945735412 7.368629022725635 -4.691871162497032
1492 6.380273855172342 -1.846737113040887 -0.39724257959948756
96 3.0631759386061357 5.474400612078681 -2.330574774451155
2153 -0.6341716981313323 -5.697972123782397 -2.381916699869868
1265 2.5912880196195593 4.112154634211103 -1.8863192175934616
301 1.4610974900120315 -3.6240873290988525 3.3547427493460122
429 2.9047583598365643 -0.7173662796903431 1.7165832453948462
1078 -5.905943230776896 3.634445931026585 -7.426180742435775
650 -2.237649549411663 -5.2031217894288 1.2032536990154232
1368 -3.5278021236778954 5.063514261659031 -2.4350941067973175
537 -2.2239727815371158 -6.403271051796506 -2.4573123219971267
86 0.42584042832583263 5.482671819265868 -0.9363096501833745
30 -4.7884886936805175 1.5812159210972159 1.0055254073595037
437 -4.731755703187472 -1.7026313378122993 1.8588512317404622
1200 2.1180476596762396 -1.6504947992489722 -2.0956894285397736
491 -6.482329961060492 -3.233444110329442 -3.4590855563478615
1798 2.614565336678473 -9.17218023252327 -0.6860893946706574
1932 3.8205597101106012 -0.3588675740447421 -1.9188097473686994
949 -8.16930256347437 1.2186412836729459 -5.014753990409593
943 -2.1450834428092436 -4.456802743543246 -5.084406520199431
1340 -0.7667200110523492 -3.0217338779217044 2.764864829901485
1825 -2.406519088578613 -0.8953269799267602 -4.81479250057118
1051 -5.6016278315606 0.20749523025389272 -3.6188001077954963
466 -0.4676796333381629 9.89019675074124 -0.6236036325564084
815 1.107639480610293 4.343794221521202 3.0503314401019277
1266 -3.7320749272904354 -1.119096224159926 -1.5833834748918554
763 1.9352853353806057 1.230230089888676 -4.759945516765217
834 -3.496042459005494 -0.8632501553373909 3.501663558253206
100 2.863214881907005 1.5616175213306345 -0.4546066328730528
125 -5.395778932352762 5.000502196342884 7.000047500729498
1033 -6.948307263473309 -4.36131957607862 0.26190899361991155
138 6.436051803298327 -2.2710954471790243 -1.3828467177027557
300 2.8864283449279595 -4.007009302708268 -1.145337093774627
1610 -1.3574315678467344 -5.302106237806321 3.572094884471101
1012 4.6394645851912175 0.5935804074021577 -3.672455794171485
1409 3.4695333699368365 -3.7433688622147785 3.4939180391214575
232 -3.8800260887115035 0.6054269272856231 -4.710883175326648
359 0.23849253242226484 9.695162556232884 0.7022078802737703
489 -0.12072000003105046 11.375526821765336 5.314280928817117
69 2.4420176170727528 3.1088077274135566 3.466966393083649
1337 6.6888634357949694 1.4763745924194511 -2.6142474817841554
1009 -2.4100960930926725 2.9813938702652445 0.44128134594637247
1537 4.295728041764057 -1.7757473766016605 -1.5993834486473446
1589 0.7962029959199155 0.15423585702146683 5.092009011225312
1118 -0.7853131068108289 0.8436638668822902 5.235416800519128
865 -5.838635721409426 3.6005738185734675 2.0899548612862575
1355 9.426658744254638 0.19702043951589054 1.5194543027319711
1182 -6.719572276819069 0.3268503947315394 -8.040981397746606
1596 -3.931098316910578 7.996960498097453 3.0866416217441675
1756 2.8238702757842167 2.194537669476644 5.8401576852586965
675 -5.621081326589882 -5.432592459419112 -8.599440827757933
1426 9.188782954206765 3.0832984413487954 -6.211974852026773
2005 5.436209579390618 -2.4135017006595447 -0.8545931807444225
45 -1.9439784852080808 3.5548408906388445 -3.318747807817499
143 -4.6010399812818905 3.4301149139148492 -3.205560234117266
267 -0.34722570617170473 5.051876112055929 0.7200133264030186
1481 0.39935734175283943 -4.963362537372702 2.13249129899473
435 -2.663154163225026 -4.606894360058577 -3.4196931762936806
1134 -1.4412487833556498 -0.6051478333915022 -10.784640563757169
2014 1.7746232962017015 -4.143502181495877 -1.774408369091398
693 -3.4019249714783477 -1.4616482035924558 4.176491396189875
139 -3.2436588604737597 3.0098081356864257 -3.112933323235629
1318 1.1315022797716312 -2.7777439316435673 0.29482727844897266
225 -4.167899984669399 0.9373090242045752 -1.114626570872355
351 -3.8312677525449708 -0.3818349330401624 5.496184345483599
2016 -1.7619775307958288 -4.477713368759975 -2.186062059265126
1229 -3.3876062092256416 -7.849686489746423 3.0085690444074182
592 6.325481161990344 -1.5636032099972021 0.42982143956644986
1094 1.1545225450023828 1.945969711798617 -1.470009135486318
918 5.963758788589722 0.7185708891841032 -4.257501012237451
396 3.434612845803625 -1.7083122524666243 2.2399403087413616
614 2.715288251118038 -0.15084853281038654 -0.40179670995021344
174 2.1045736444438843 -0.37377909071496646 5.016853264512999
167 2.1030217817540917 4.439041916431063 5.360294407954624
586 -3.521227061476442 0.7123823168645382 -3.1286629863836755
2013 -4.010893716326487 2.5624861652603554 -1.0880055362751055
2078 -0.22483709953331626 3.4966703689178047 4.896086778611899
263 -1.4503759671450858 -2.7344138749137197 0.949808302281525
735 -4.107060659968896 5.465212658478704 1.8573828597676418
1101 -5.2023862568032415 3.9755208984456307 -5.170228815440636
158 1.1823889391701472 -1.7778623366001152 -3.351919965246184
1651 4.6248131526901295 6.1336728751203715 4.4003302146816345
1541 1.5526915656564857 -2.797183424679953 -1.3752621711901398
213 1.820829780420245 2.151314818917985 -0.3031645993120314
904 -0.6028971655828422 -2.9626789626301813 3.0292049253960256
746 -0.6203038699777602 2.651446365637997 3.40983425184619
404 -1.8389048240804458 -3.709117441263338 -4.684356318476083
499 1.2128975421046166 -0.6318958355165416 -2.9499319860185964
708 1.0740907509161242 7.036088667103421 -2.5412977048482386
1035 2.461630435970963 2.4850737176373237 -4.880937338845538
731 -0.5104674618951845 7.126157014186063 2.5409404917887266
1203 -3.3206014828913437 2.819621757751946 3.4553009866616966
49 5.152063728332015 -4.068305795823395 5.333384949675286
1926 0.7946527379320201 -7.265854350956709 -11.292441962551045
2009 1.4960294061653594 -1.668525460102433 -2.5460677802516236
1748 0.3119334341562255 1.3593095728654572 -0.6147136220502198
1250 3.259614076086603 5.058043145515761 -1.3520139937588052
764 0.9801327703526777 -3.927765945554365 5.839461420001091
506 5.94335389692405 0.3049630176481641 -7.026130134246175
1858 5.402895442558087 -1.428384823689372 -4.754787456166764
160 3.8947276108407523 0.214653224906499 -4.474735103991431
876 -6.503609119442553 3.8881792405476365 1.4726128893782693
784 -2.812821790963046 1.182259516279786 1.3588908921524585
1654 -0.79830975226052 -4.73487343810221 3.6801161492578447
117 -0.9941064255258327 -0.7462882559962926 0.089067729885067
1381 -3.6122081589969213 2.0912762455086096 -0.017169535192876697
2062 -6.959774175496203 -0.20510321999976752 2.139834075263631
882 -1.1980468557892925 -9.988919283945016 -10.425821157868922
1301 -3.8517337521400536 0.5531998416091126 3.588966942564471
116 -0.17703908150072523 1.6820999594468615 -7.789801990035462
1645 1.4286643264711654 -4.293354417117326 -3.0976034874466913
443 1.7148811418638534 -4.774824029301892 -2.5456837645570225
808 -3.0464051644666923 -1.2829319891005542 -5.007532995522586
549 0.4245249556658822 -4.827990123033029 1.158997957997713
299 -1.920347753831249 -1.4911357543265555 -4.4271310921727585
90 2.191389621148137 1.7188140279866266 0.11400055981980556
1935 -5.308592510239248 -8.075620607346833 -3.6791286393192975
247 -1.6302394983679873 -0.919867094592848 -1.1741241556170332
150 -0.48927811334129157 -1.039896995827444 -1.1469035767834006
16 2.627237142817978 0.13187632232353325 3.350852998741525
56 0.04012120542547159 6.767566290081859 1.59034451246629
1352 -3.501188265532808 -8.035780286554477 5.542781795128274
1677 -7.433061484562204 -5.098808984548477 -0.9137711919577279
912 -0.7911982267416526 -2.788591763862557 -2.001595165117704
1615 0.23398043993205983 -1.4854449587306586 2.6514698781539963
1698 3.6225157906950627 3.058379601105726 -5.56991541391025
2080 1.8049565480748653 1.4785623516172317 -2.259210992270792
277 0.3573590217513439 -3.970064192131942 2.0242771943336137
511 2.664072523546581 -1.7664695988762298 2.786786782106911
1667 -7.593003812975104 -6.774160700295199 -2.6309094396108237
2065 -0.07868549636659061 1.9267835351724605 -2.3520249518141365
476 -3.3694648585321954 0.8377208411266489 6.064978892854549
269 2.0663999225537473 -4.955094607679518 2.6545014112130305
1095 2.8365077697104084 -0.43371311818758035 -0.7258573961906218
2147 -3.765297278165485 -3.6294134606443325 0.11237081098448357
1863 -6.877323238320556 -0.06376081621214555 0.1548527889915194
1161 1.8517788966364042 2.3151850521761004 -2.896969418271405
315 -4.122814839889064 -0.8021004574605765 4.980423375398746
1903 -3.875858125486992 -0.2367915487783214 1.5135951012601334
229 1.3418195469781153 -1.4726738981859517 -1.6628202110520185
1354 5.588615862200793 5.286217759917467 0.35471285185003537
930 -4.597577037054719 1.9756529866596055 10.775520072246682
2089 1.4882802206450403 3.795285842709605 1.45746853181717
148 4.2611583568551845 5.309231881557463 3.1383993617431623
1703 -3.611287881471181 -2.035382173848779 -4.8904008870141435
1312 0.990311842430247 -2.241411927960582 -2.2924018358583136
745 -3.053725498609365 1.182547847695652 -1.376381953923325
1423 -1.2667964759710615 -2.456159361535284 0.3881538587103673
582 -0.23726337902236033 0.928009875300122 4.314470276235128
441 -1.3352177147598137 3.076857023807399 2.058056825892697
121 -2.3693274018183956 -0.6347374124795387 -1.9597693095464
449 -8.27282011466704 3.228424633319524 7.6742014945499575
1269 1.9727016321054671 4.041953535825718 0.6778863102659053
1971 -1.0775862874564763 -3.2583931342512806 -0.28820671434964856
467 2.4087517788601773 1.3697040649077536 -1.6668934774826722
890 -2.2726375686824265 2.116572051476762 2.5416820215098834
2144 5.345658389894285 1.7869286550124128 1.1484055066542214
531 1.6719973931216172 1.24472362389405 4.2656640715349425
2048 3.342552042461492 -2.0080918079039494 1.9439313576592587
355 -4.333117684362553 3.190841555544236 -4.738840643446853
1691 0.5108951209849226 2.9560692884185737 0.3917545567495744
447 1.454125157278141 0.2855586841065307 0.3196437882607023
850 4.131978697743189 -4.941885155141539 3.1861993861837163
544 2.442066418299047 -2.131693738774451 -0.832823452534632
1197 -1.4502243766083966 -6.707632245608805 -2.108084080194129
1254 -3.6808501889130385 0.22657142422423285 -0.1947273188441883
52 1.5905754409920692 2.048355613692508 0.05136030875180875
252 1.494169953311253 2.5897724833096274 -2.615947062745401
942 0.9703489751322328 -4.166185123297379 2.584671125529028
112 1.9283247485377657 3.2245126886386557 2.5682567650604198
1070 -0.5964344409976836 1.2846003956193952 -1.5711125671486228
414 0.8562986392898677 3.158124523467633 -0.06807373452993262
1751 -9.47256766964468 2.773489516775467 4.884862220245146
1000 0.4276018716134836 -2.313724086954065 -1.3870215276804012
595 -2.06517058372787 -1.2357700136344467 3.2926422573599314
245 -2.963421264410359 1.0540235029074454 7.8463196055328925
2115 0.957511925964586 -3.543075803683071 0.9087167491676018
259 4.954255859760987 -4.419926329691325 -0.7564869611328457
1148 5.081165366188284 1.277318370104495 3.5274612782564208
1003 4.789659489249665 -0.7410974083707069 -2.144522432732613
295 -2.624284228714994 -2.0381115763484385 4.617187484266717
23 7.835826318582557 -3.325265154945736 1.926446338409818
1558 -1.6694981003180946 -1.7283997089979874 2.3266773311907123
1429 -2.313023849240202 2.806258372191132 -1.125688124020306
1121 -4.67417155825582 -1.1528725340668655 1.303699760087877
179 2.529666284534482 0.24718376782467602 1.4233344386344162
186 1.1804105161187042 -0.7633709842894107 1.6997678348094667
771 -4.470397815211633 1.1990210932206788 -0.5739557252919381
1808 3.8823591646050466 -4.057605277148554 2.7718844984956292
1372 -0.5812272785075622 2.8253598372474253 -3.8472729373552665
1248 2.336910493111303 5.786870873572846 -1.663613151647694
33 -1.541156043360356 2.61566526486497 1.0993508664207061
483 -1.6764232405206902 -0.48039896879221416 4.937503638591561
1727 -0.8854630472193823 -1.8930496572188147 3.711385470095028
1516 -1.3763121040014759 1.852751908654492 -0.49480888104274506
1412 -2.0490095168841402 -1.4589196497313146 3.7902172164787835
331 -0.7979330148785809 2.9886524239814647 1.2925978882728508
805 -2.4401991188060532 3.4338709565416043 1.9985254027659196
10 0.1770517542960045 0.307645695894286 -4.585881171796074
352 0.04360550194246368 -4.101743741501377 4.228131525934898
1159 -2.350062182924041 0.197765965274429 3.3606751877311125
1156 -0.9640244353477401 0.14331420797781716 -0.8761787708333355
785 3.7705138802929574 -0.713820031558658 -1.2249717452762185
343 -1.390638434476472 6.850237800395323 -4.000508406565653
1575 -2.0043062752872673 -1.984519858845194 1.9207405203291612
828 -2.6462052338591664 2.293133363624068 3.539506099253664
1435 6.12452603118875 -0.8154152211418058 8.118210504821205
1897 2.4018037569331234 -1.3561007941332803 -1.0709613525558244
500 4.737134704209273 -8.986774064542976 -5.5892293039620595
1220 -1.1589501714080879 -3.1340687763179957 2.4297563267887194
1142 -1.6473554930394174 -1.0626988131088984 -2.7185634025109433
185 -1.5944654181377649 8.676524114276711 4.394274878665931
940 3.785583810536895 -1.8946216689659017 -0.5374815934533064
383 -1.5330027125761432 -1.353797493643078 -1.9394653708272436
1210 -3.224545367285292 1.1815923183659511 5.618565882165862
28 -0.09039552272934512 -1.6601684517337238 -1.3473794422746983
509 7.818977260603956 -0.43926079548267766 1.4241794135141042
714 0.3749535528317606 1.4095200267945704 -13.828654682152418
1564 -1.5986193705543168 3.82385324865623 1.3787341520104621
1508 -1.8283638366320374 1.164549459969706 -2.135474515377076
436 1.864728839905577 0.17743345925070986 -1.0116909638833165
1882 1.4136603583985818 -2.2111851145771 3.9229596937925835
136 -1.6740926909081537 0.3792463776961805 -2.5404280794859884
1531 0.22844185232735278 2.3269381894347902 0.155813123471464
776 -2.8030703703456625 -1.5509696396394401 5.671105210050075
5 1.0678403700030843 -7.796878253398864 -1.7240131405483101
2155 -4.49713764106311 -9.013706081312893 0.6106416860657188
1302 2.291216292159623 -0.9414715351945441 1.5805477167654791
760 3.035533090095894 -0.001231284298878053 0.6461508019380717
1127 -3.475096326162487 1.7396301124114109 -1.5605914776366703
51 3.124891408534078 0.22626829050753827 2.3296171223156645
917 4.6478998663171085 -0.3732631401021523 0.8718207091329354
57 -1.955905870875274 1.9402687669321805 2.6221703719422176
421 -2.2160026376040736 -0.5224466518568144 1.1104763440605616
651 -3.9977238872407166 2.1866386326833873 1.0142237053492469
539 1.2816374655462146 -2.9682376697991906 9.132161118064253
619 1.1340250991355783 -2.490488549145623 -2.9088515684315057
321 6.550035091627108 -2.482791059892383 2.545988446589496
1158 10.917275166080687 1.2471601398965708 0.0072374817039420085
1755 0.042723144444020394 3.1059366433021576 0.4947928104905068
1242 -4.777605256779169 -2.6524263678928195 4.520742252578286
696 2.8577627063114086 0.1910211048751711 2.4779009232998934
1687 1.5420677192894483 -0.9158470420940076 -8.447481945383306
242 4.68487148360836 1.5163695529658134 -0.29460644868557384
773 4.426319779789894 -0.4186130172454963 -0.4207837598565008
1369 -5.541726228151299 -3.928187787138318 1.0271773169269618
669 0.7406510280795523 -6.602536990619833 -3.33139888092434
498 -2.0569721582992946 3.8369597474266772 -2.934105657088303
725 10.820957469201987 3.6350628079460834 -1.1569701399792387
1891 1.0095933769793937 -5.451822642256348 -2.8164367696543415
1325 -1.6025656917555013 3.5873174782070136 -4.893460181015894
223 -6.523050860057991 0.673262260952984 2.4511145995201606
542 -2.7661576659426137 -0.4797032458134359 -3.7038517679180947
1966 -7.372886695115444 -1.659109939756406 -2.210928533118024
1076 4.925007251051382 0.21653084623021077 -8.21876247040298
910 -1.9378085500129647 -4.430450643780339 -1.8991035698418572
1160 7.853532776258197 2.7802012165471828 -5.4317226806483285
1345 -1.4137117005397877 -0.18009369229906075 0.7425412651787501
1052 1.574842643285199 -2.9731817232541022 -2.5689415055416833
1970 -3.0667124624181725 -0.20059738834780685 4.816400928689624
176 -1.4156930181361962 -1.6481249133991243 3.361478308106748
812 -1.5081763974136957 5.24361637145537 -7.60912092546171
1986 4.096854167149644 -0.22136631889127834 -7.975300656679539
123 1.3787268057442703 2.825355222189944 -1.856698269825883
1533 0.05351457222079583 4.100757106642947 -4.794492344635896
1675 10.654945511708995 -2.211397813346943 -4.755649098350047
678 5.710967875601919 0.12131985761823484 -7.64911529320615
1611 -3.03833441299559 -0.07456248735600601 -2.67148210940891
308 1.1176455346601555 2.849988062897738 -0.639753626612641
1488 -3.379787977139649 5.981349318089299 -1.9223104609916994
237 -1.974105398389888 -1.3616444813710231 1.7404772706594582
508 -1.9365444354669676 5.806136066647562 0.15244504763999117
1130 -0.5450411933603044 2.8112029513934083 4.8590313903401485
502 3.298990038311025 2.0284027907031232 -4.715628894251359
1138 1.9014804564701553 6.066953617552514 -4.355907948274903
458 -0.6709355409633568 1.036157122550772 -2.2573166338156234
1626 -1.8531802236720984 4.9728452647116566 -3.2748054882007276
1594 -4.4341770091408526 10.557376819802997 1.043810292699511
1688 3.1376695575409346 0.5685634390675003 -7.900299112737885
459 0.641131374855213 3.7882697477364964 0.237409481134156
585 -0.26267930246082855 5.191555303647739 1.7602869954476084
1256 -2.765108130850791 2.061541295438706 1.852261490051257
604 -0.18845448309641888 -1.7369756632956188 5.369354418333342
1233 -0.5496639125145637 -4.1774556815697546 1.8304604982459645
209 5.044663397441015 0.005712213834950344 -1.803453336235825
111 -0.37161309509897544 5.114785110275137 -2.854029845629837
1695 4.283790670748393 2.149024406280373 3.284429447864091
1545 -5.0780222649174656 -5.610269272949961 4.0740065246402315
1151 -1.205383521770379 -1.0537489566008977 3.101178478051868
769 -0.5734139825641936 -6.064281161569065 -0.39602236685677
1253 1.2089198844412892 -3.9917387209693014 -1.8758185953290378
20 3.411689988791206 2.935199391389547 -1.932940533255998
1911 1.3034576296770912 -3.2542690801839402 -4.747515547048526
700 -3.234492616924857 -2.4541560803068614 4.986168694765964
2004 1.9968657317577665 -2.433983524935275 -4.426803888301027
1678 1.0075845643018304 7.394853221284119 2.0327040841796653
1285 -0.4255048617778835 2.8578208958870976 -4.571835989563286
701 -0.805799058636016 -1.185835057047175 -5.752397057019613
65 -3.537526706572952 -2.593371068369734 6.003862427369287
1329 1.2815082443426826 -0.7252695595842531 1.352121303579808
1417 2.8570952669858323 4.184780925545029 4.708323392429316
814 7.378829124567978 4.479712010161937 -8.160830251169996
1097 -2.202015099464308 3.8688699898328025 -2.5572379754197208
162 -1.459136586875747 0.1862018934866768 -0.5355385691163645
670 0.6198879759563897 6.244643155976164 -5.367363866177555
1191 2.581755726065028 0.2637388985165892 3.581678589451677
114 6.201742085455125 8.37937543535604 -7.806439124915398
804 -3.0883748973072094 1.7201749325716664 7.774116599311266
555 -2.75684884157916 2.054227716641382 -0.6237626120821885
203 -2.011635690847687 -2.253402759536693 -1.2115146231112102
858 0.5485132839107006 5.681650115838166 -3.0351056124148026
1717 4.075966318689727 0.4556989461644773 1.285612369003869
450 -1.7256378003749036 -0.9094570550872491 -3.538898109704148
926 0.1726080293170051 -2.8484427885324206 2.864865137893478
937 0.4306190406353138 1.027855932197239 0.7532655353396067
317 -5.30866524069963 -3.923407141714294 -7.146833987759556
552 3.5907908953279315 2.83738727393363 6.216460693591253
775 2.5514054811211806 -4.621536603692444 -1.7590692409175208
329 -6.548642302028522 2.744645854364279 0.21865746104220704
2030 5.151264044098478 3.310674754237804 3.3234344673092506
1893 -6.565794360082697 2.227647339698197 -0.46349325422519355
319 -0.6002437324992776 1.1829557744006252 3.5440043669821097
469 0.938362229078498 -2.9253254077510205 3.5640952739058807
1430 3.012762811156765 -0.08493609635292272 1.233479159448948
1067 9.923736858480714 3.908948026977716 1.3273545940148987
1170 -1.1456847817082947 0.24809625838092567 2.1616767768486445
416 2.2909751403453074 3.5222242131277652 -1.3868427134593047
1023 0.10269117160270429 -0.33031255912357516 -5.53778592091596
1514 -8.271716575489098 -3.590662286427366 6.467403138841533
2063 0.1337438961014437 1.1872402002049145 -0.5763239087766414
461 -1.1428489789147873 0.9542154426563412 -2.3923790481352962
1244 -1.824727989372763 4.64547442155778 6.4579166083585235
1512 0.8861133390718052 3.6488260765086644 -1.6062428404994318
374 -3.1520776856464847 0.6841084422763916 -1.8095501920513717
962 2.336051924390499 1.9871868041498952 -7.790684401298557
83 6.006882713699773 9.007910754569382 1.0232699746641911
1030 -0.588055354651813 -2.0177303484874716 -1.359324205761687
645 3.64781201075237 6.887651910362532 5.900062429374697
1929 -7.256728937113484 9.794818338044168 3.446011859494107
350 -3.835375873446255 -2.531812793676302 4.630121659859219
560 5.26858625563708 -2.8717810681717197 6.703551671907149
54 3.2733924533596923 -4.0039135257242915 -1.267044516707826
1309 -2.271061493144677 -1.4945327081382416 -1.534209638564695
1664 -2.3531856042034405 -4.208801743770393 4.428175649905207
2106 -6.974582843804988 3.106742619510375 0.3036967255976381
1288 -4.881825492058688 -0.9488621561084841 -6.04415302890785
505 -5.972900363951279 1.0620567216875414 3.1880763061202857
1836 7.5909116701353145 3.5592488307524484 0.6727593587108848
1135 3.703061836490489 4.160051844173588 -3.729511412650807
1939 -8.36806033202961 1.7505226904024074 -0.3766891680301005
533 -3.058088742493363 0.31297827966701414 -2.982601028148272
1133 -0.7600730935490488 -2.8390260192755674 -4.363154826594852
529 -3.474423400792908 -1.3397968301456509 -7.210314322861117
1881 -7.011725429503627 1.7519699880617827 2.059854161398035
463 -9.63058545423623 -0.16172287994702972 2.5407741665236636
304 0.4416879386191105 2.9115854393350427 -1.6523369124535212
17 1.686323847766994 -3.585592642972757 -0.42181054237804494
1633 -1.156555707491081 3.64499773496703 -0.3706325227234278
2108 5.435938829569862 -0.8187320575724955 -2.9886627108855413
665 -1.4420696916891942 6.57139522771738 -6.1854862524402865
58 -9.59896284092027 2.926806193780527 4.634498456895931
824 -0.7576976679964516 0.44654850775627486 1.2302823258973539
193 2.0786097146911318 -0.8410304606946736 1.2475348780640578
911 -0.3530533953129209 5.664599276388408 -4.154482486918771
1279 0.5342961183944038 -5.887772356824967 6.964527497653387
61 -2.3582361870647874 -1.0994936440930052 -0.1978878223048255
1128 0.5297990142880299 1.293686238059456 6.30330965722986
1637 0.06783472637843908 1.8576448223025988 -2.801151651218596
88 1.9999285964573263 3.358733936117896 0.22598544037447632
1363 -2.825762695835964 -3.021931031016179 3.5848923770460113
1173 -2.448981219946484 3.5809429389651126 9.546305482335264
1331 0.39593502254163415 -1.4669104017440087 1.0066577968570585
862 2.160996132944284 -0.7368969769408816 3.071189106382996
349 -2.904988477832086 2.4092512360336213 -0.3617389737469079
972 -9.965485238394434 1.9054085102220195 1.4963935436005125
424 -0.5652760075122554 -0.022810614598193665 1.6821053271001212
1404 -3.1355723462177885 10.256212649227374 -1.581732020762013
1467 -1.3089109717435383 1.0520763908209172 2.1034272262683977
465 4.382588059637157 -3.3438350884911054 3.077132934894243
914 5.981974658103495 3.631896568313151 -2.025232491049268
1341 -1.2353081501091 1.6052511933828542 4.11789149129453
1029 -3.8559996449277874 -2.5193828851080515 -6.347859773040179
548 -5.959022771290404 2.760569583512035 -5.540899757027846
385 -3.1899314134055783 1.0585618387765927 -1.3262062484181152
1765 0.41407595583151463 0.6840577345420314 2.0731900891918453
880 -5.828151868473477 -0.6656308734427995 -0.5242259837725165
778 -3.831533715225481 -0.9141084121683657 -1.5789154837618915
705 5.163740368213155 -1.7108482526820403 0.1582854465296258
1339 -1.2178438599566974 -2.221528557795709 0.2099705427543496
653 1.3220746988589889 -1.0779229670104282 3.14175973917131
816 1.206728715851733 -0.9035132224087259 0.62780483052697
1310 -1.1542675163476266 -1.288307033769118 2.121462666450915
1188 -1.807704334843106 -2.588363989706763 1.4656847713999568
915 4.704530533983434 2.9467007707029444 1.670771974075046
70 3.765570264545723 2.138693000781794 1.0763216625225154
1358 -1.056885163841176 -1.8588600095616226 -0.21679741196887323
490 1.620246009126702 7.060987585588485 -2.0853191031651708
1473 6.794296086138981 3.160953208217645 1.924519189486469
1697 1.5169200050894929 0.11828579454943496 2.325278083474576
1414 0.2512243065917399 -3.8060214718742005 2.0473103253141205
413 0.5807868761973045 -2.284111090510679 4.338399211329717
135 -3.071993982449088 3.4119397987226816 -2.4635085814012276
324 3.208999939710095 -0.6439886907056254 -2.6838147112081505
843 9.433481928758681 -1.4684013581913624 4.5255108108337305
1039 1.6207795432394034 -5.6382558306684825 -4.751665283536876
916 1.4062256919087415 0.5676471555575819 3.8818508807602323
2158 3.5872484771189486 5.052622061125735 -0.10680296043418912
649 -0.4593631849463839 3.7128678580008385 1.2669407447357066
546 -5.1519747769053605 2.196441750462726 7.3053891614622914
996 2.948055206450596 -0.939355693724954 1.1721396619856166
959 1.2272038820418976 1.7782376064091874 -0.3790383808588323
1669 -3.3115873704123184 -2.3556889746641527 1.5748411315819328
1007 2.5486089074455682 -2.885121737964736 -2.5391747419575665
487 -1.312307056904404 -7.729639694083074 0.9878737217913975
1334 -1.2203570210302008 -3.0200380040524686 -1.9943393379732057
1018 -3.6376325596094117 -0.2597109642611282 0.4858939685352142
569 1.7107028193637028 -2.886727127560103 -5.769551578792244
238 -8.372417010361433 4.7542150190616965 0.24081379997401373
565 -0.8307474470882856 -1.0972309604200123 -5.715570116277059
2045 -7.330423813200223 -5.407090595548333 7.902566670613526
1092 -3.427626344166453 -3.0354561830693214 -8.74068192369191
129 -4.6777497056509185 0.6467831821290769 -6.247225519303865
621 0.8766412781344988 -0.6195249135127383 -8.425942402934375
998 2.247338355017957 3.9063459629865354 -0.013203374287436617
1501 1.4926835374046605 1.7707034368355867 4.2516767084466105
632 0.8563180399952665 1.0927498727074256 6.425792199523788
883 4.774808050345885 -1.7755705345184423 0.17025868594844792
1658 -0.8589768904790946 1.7747251423644657 2.5504385206473934
623 -3.348823199851187 -7.807007658440177 4.437299280304544
727 1.3795568322439222 -1.8670169307338353 -7.354530918850294
1093 -1.1999870978341494 -0.07683387778402438 1.0295767210406144
1291 5.780152166749052 0.34060634024851066 -11.43106120954726
952 -0.28357704404438283 -0.24212857922196382 0.09597855283368507
951 2.2442468966186975 0.47816944691048535 3.0389166604723923
1014 5.472029024001411 4.570753059097912 -0.9865182563622978
690 2.513922392693788 2.7680727212175547 1.3751351147518496
2087 2.805263249637992 0.09222948671636212 -1.3525597556463569
1370 -0.9697685324889681 0.6821052834279862 -0.07888837159575372
1176 -1.974502840540395 0.8308849550918894 -2.547757727099676
856 -0.4530330460160956 1.5880084258433784 2.6249472368356694
676 4.866119193602168 -1.5725014022633808 1.7292728695011432
993 -6.232738785567944 0.07641928109420995 1.4562524461765198
1157 1.4752886080707157 -1.0051118134134631 3.054073496949581
1236 8.516441926974748 7.9943366912708695 1.0722120028976219
1297 2.050192745579421 2.6167663200854148 -2.760980547747633
1113 1.173624228037071 1.8700878826783074 -7.218804010677607
992 2.5277901677725882 8.76447305981518 -0.2013223803704916
1102 -4.616438147615915 3.478542747586182 5.3642538792161965
468 5.056758724276961 -1.5226322061700703 -0.44689885012713204
1190 0.9411850835102474 -0.19890326565082672 4.797401475930423
1995 -4.275525260430687 4.877835936993623 -2.5778540648418744
1532 -8.18622097473693 -1.413832521684873 -2.036731463092405
887 -3.258591998338898 -1.4804879577897223 -2.6196017875347732
935 1.303218911734804 -1.6354014377810715 2.8158182038889707
1468 0.6126844015864104 3.753190286042017 3.0748322656107505
1198 -1.359680830456714 -3.22196635258504 6.046179829470122
518 1.3464993220747072 2.0994434029070153 3.130202423482131
955 -1.7828288960830585 -0.7492732064476926 -1.8154049065079765
2156 3.917695814553549 3.7651725441396384 -8.466334033290222
1713 0.9107873514775093 1.4845343469815664 0.702856366698507
314 -2.4380510305718204 2.5689992809857083 4.759510747377868
2097 0.5655936795879721 6.094039252030544 -3.703464812910019
755 -4.490453584960551 -1.6331749251048429 -0.22183615547457755
1041 0.2684547772907916 -2.3961643682352474 -2.7469410767456033
1119 -4.528103726651091 -1.7297964305766305 -7.094877787456007
770 -1.4751333320130544 -7.408688503979556 1.8430990844809887
756 -1.1473158544279378 -3.7259881096424947 1.0193870997633456
967 -1.871228053231841 4.09672386642392 -2.618642691097398
640 1.193621705194378 3.8108690714563673 1.1905703966762577
1439 11.09711714858806 -0.9945809685924777 -6.858203413296934
1530 -4.846016589549317 3.996975177223694 6.5129869628743275
1028 -1.435199779735558 3.861703365727174 5.607143077080402
1579 2.9893834639496704 4.824604908710342 0.4324362910594842
628 -2.4176426938874953 4.334276059675477 -0.6666388007681482
210 -3.6108155500922128 1.365165574243155 6.176719953440836
2133 1.962836146189659 -4.62351764930947 -3.637439391235226
1131 4.035212488258623 -1.7102829116045906 -1.2885980336554415
521 4.433202075144406 0.40266782485694463 0.5515859033478231
342 -1.4251795433166585 0.7461423251930244 -1.6172974674590435
2092 2.9705021270822565 2.4677884331127355 -4.858539937454453
1670 -1.2573523056842315 0.7800446654722051 -1.9052137242205152
1641 -4.49068498506324 -1.767233827044035 6.376458328706249
494 3.025042285347711 1.3704049173316677 -2.2855388698874917
1616 1.3904236757207775 0.9913387895456814 3.027909992260286
846 -11.098658164685204 2.5291513368059113 -3.11039092853631
682 -0.30579902771980033 11.903991608865711 1.0182077765301754
1178 2.513460369492286 2.9112458257288165 1.7784931905561914
698 -6.012471483908663 -0.44097289072173823 -3.607961232137463
227 6.444561990675531 -2.1914620723578855 2.937513644306969
389 -1.714198125426657 -0.5626107531218159 -3.9512380932393425
591 3.494576679826918 -2.737355234720127 -0.6697620696817578
1737 1.0772489778725225 -2.498546695953882 1.3347235928780168
273 -1.3492531343758338 -3.404690547089093 3.988818718480939
337 -0.8036232415426242 1.213665129776876 0.7232620796585809
1243 -3.3659039296915765 -1.2284790372721985 -2.5933877814780018
1582 8.564168473151245 -6.549421507301152 7.666406142817542
1846 -4.549793546745509 1.884941310243133 0.06175999418532165
1223 -0.870152891189957 -3.8527253396204153 -4.312727406272939
1956 -0.11422490547523582 -0.40648565262399733 -0.5441485420235789
1617 9.909544052066055 -6.369547511642088 0.706601465292654
1199 -0.5868264378267577 -1.0201915035172593 1.369219201286855
113 -4.466043381825996 0.07044230426575354 -6.739965709019901
988 3.952696203979895 -3.9328582876137834 1.1872455659135384
835 5.221617419565617 -1.55335461358028 -0.5812124970030719
330 3.4188164774335754 -3.6074382937910823 -1.417935552739093
479 -3.387991223733641 7.206466041496907 -0.16566705246266608
1320 0.9924171495627951 5.163454794747408 -2.6657824101744385
2114 0.4549786940945825 9.421617269007378 -3.1301212278009367
1317 5.008350664846492 -1.76428260736641 -3.1338690205690334
205 -2.653892140690483 0.6695583096415874 2.214036283970041
1112 9.781467650327677 3.036719484231684 -6.405554667550829
1942 -5.542690552197204 4.761586560597419 -3.3243966834880516
723 0.9978295560146075 2.496078943893227 -1.801634662549833
370 -3.740101683810812 -1.5504745277923402 4.463869084729731
1179 0.47013992134590665 3.116187614671395 0.7974288530134855
1716 0.7564807426307978 8.794318039424892 -2.3037655212879184
1282 -6.217644659761703 8.277678491984426 -1.3953640289399432
1026 5.014873375219954 2.098505210871003 2.5006364922501567
1347 0.10941076427913679 -6.423955985235465 -1.624530145240724
1276 3.4086661755513434 -2.07618460930716 -1.8085105599065043
2028 2.4964843047372374 1.683461067441569 -3.0555182125921174
1699 -5.929253888265348 -1.6735098201480934 4.041504977782976
896 1.3699519107369045 2.5205334882549146 -0.744372128887537
1192 2.4158849517323966 0.0618137895427725 -3.512627916254052
836 5.996253480262432 3.320199106005544 2.53986829318212
1209 -1.4186562326859973 -1.4978671743442848 0.1578724652411287
639 -1.8494378451514681 -4.3426432911434185 1.7703917544255643
1322 -0.43193402436398765 1.0457991739991754 -3.4193696389458994
822 2.5021546343659993 -2.1240217266445045 1.6904852181251124
81 -0.24387135079800581 2.892589897382151 -2.7293188919134312
1506 7.614946431782426 4.924686727948378 -4.3965579676415985
1745 0.07616022654625682 2.573322915199414 0.42849164735753426
1790 0.8985327738833578 -0.9325242576809779 5.38674256697758
1871 -2.3645283010983236 6.795953161908263 -2.075429297794615
566 3.5973713450052545 5.199426256414746 1.2874605488817337
1175 0.7023911715258326 -0.5552911855084541 -5.698990032270356
1631 5.004404908019065 -0.10427202381152342 5.8796303879832665
801 -1.134702318699541 6.630320763060168 6.685695364313002
1489 -4.135619853783383 2.1280257963425946 -1.100454660468116
444 -1.7506589641950627 3.9308593056053995 3.8407299693559707
1314 1.0345983062696853 5.417028826191697 0.399972216586599
2079 2.7255264941713544 5.078545905206745 -0.09592296155832086
497 3.613927108054887 -0.13153126178588528 1.117024969392257
1555 1.0454997071175953 0.2826494767332866 -3.4728769610985917
454 2.8624527968791016 -4.973017351543876 -1.7434734560140335
1323 -0.4175330958484787 3.054002352744096 5.546092936746136
1437 0.4657235923174765 0.6693625649557807 2.736827666987635
1587 1.250448724416253 -0.6645843155719602 1.1365300424835114
2131 -7.553276999833539 -4.017655142846684 -5.336582358264721
1427 2.6017517051721395 3.4634296886159586 2.092895500542161
1249 -3.102808990310871 1.2566376018628913 7.3647080750431515
336 5.647267513896112 -1.3602454388685434 1.310735551234435
1676 -1.1374819988421465 2.478435812849692 1.036055587171238
1011 -0.790859143553085 -0.9888826861072524 -2.1817829304612855
644 -1.1008570251050185 0.9039510494385622 1.5997790262547043
819 2.336445235990933 4.194730128689626 0.6232068203421566
637 -0.02290400513963724 0.8570107795871125 -3.1878952851649927
970 1.5668745392889707 2.264201358609632 4.513504207326611
1770 -2.630615068609006 -2.033670453414762 4.352368009903288
1559 2.5711492765611355 -0.34030993387090513 -0.009419337944514791
1232 -2.6313453007044956 0.9224753570670378 -7.579752304349689
1923 3.348239096446308 1.0979644159141275 -7.89535674569133
1969 2.4395027452593 -5.798525185956557 -0.5244079186042505
691 3.186639861197853 -0.06544653815501947 3.9007972261660235
53 -1.742290817668747 -1.2301434641355375 0.9038647717191713
1227 -2.043386451325968 -0.559232118834858 1.2036413062819071
897 4.1593750248186065 -3.2460153495007535 1.493907318941233
80 4.6784741557442455 -3.973803496040762 7.48316435345447
927 -3.5757718205442073 2.144640791209097 4.950146716775543
189 -3.1235521511342457 -0.12810058832186433 -2.783779929637774
1834 -1.1576641737761648 3.0600335003490504 -0.9108440893731037
878 -2.0300136179611514 -5.386215273449457 -1.086579500073325
2134 -0.05704416160926205 -1.620507191263526 -5.93956803634823
1313 -0.3049268673564275 -3.130033102908026 0.4820147206484002
680 0.5460687917425918 1.737941210455286 -0.2673204311407573
2126 -1.5704608296795328 -3.1326898165264265 -1.0921838495503178
19 -1.5904124497334973 1.8712105707118356 -1.8959166632612856
1008 7.671295918508196 -2.488698460364022 -5.497878763165865
609 1.8156542270678924 -6.773602287515449 0.06989456207019512
1766 1.1915933321793422 -2.8567128022786266 -0.2264815190998347
1196 -5.918839608152974 1.4232181031379574 -4.529945543556427
231 2.2839331701219985 1.5248014918123798 1.6114126293923516
281 2.3712171939912148 2.2885254253256497 -0.47587465699189685
24 -3.3801563764141758 2.6781727826406736 -2.303233977734357
1539 3.1532802518821037 -1.8917567835295201 -1.783761239355379
1749 5.519485184783518 1.7361372717816876 -4.074636156934383
2069 4.297278756256713 -0.8194238920924919 1.1748257635120267
1655 -0.5349657031558264 -0.4837554092451883 -3.1085624317617886
1421 -8.686212120022962 8.408438806626206 3.970930707545977
743 -0.15368636258875848 -7.390662002230001 0.608137681209927
327 -1.2379858874919225 2.0957972108401086 3.599233554348604
717 -1.226402471645765 -2.1515566546386546 -2.226903299717668
280 -3.2751393326328038 3.4786847252608672 -1.4687266390798377
647 -1.0646615335330674 1.796671849528746 -4.226487855680031
1150 -2.8825516373865234 -1.2707663610983377 1.167047512972521
989 -0.6565644487928892 5.580576521271678 -1.9749581430751262
1185 -0.8230496936870138 2.0779762945021485 4.091352228172936
1597 0.41260649892937445 4.207113843942352 1.275112730899631
968 -1.700729570659867 4.757450140486032 -4.248065357428919
938 0.6086751384189191 -1.1488893178518498 -3.715343944110538
236 5.582950725719234 -0.8405532637616416 4.577632894382849
108 1.8903304269022951 -5.180815952248875 2.825127184276313
1731 -1.8865120947947442 1.1804530457546019 2.6291257091791094
1831 5.05934720374824 3.6729373632566533 0.20914073682382742
2000 -6.122070266714547 8.990597393669207 4.439807701808617
2091 3.3339807818606197 -1.5125819692827784 0.8195913417246983
1422 5.116013238268077 -2.267747901565725 5.350797000703809
1247 2.5371293497808995 -3.8658278009103073 0.9845981119571416
965 -4.478355688714849 -2.546976725720861 -9.889207350140936
1665 -7.7266797484641625 4.5214101848549495 2.543782719482646
1107 -1.9677782753301476 4.340558233596939 -2.117006456071722
1126 2.2536411547923105 -1.1317225849444976 -4.401208065055874
829 -2.616402023603558 -1.3043475433705847 -2.33813206673918
1985 -0.15939370995545382 -1.6851399199955788 10.151970172816995
1458 -2.1344461116326614 4.444345712680817 5.921207266765951
1515 -1.432248413965295 1.276216434249927 -2.6847895322486024
1401 4.251904227361359 1.2761266597358174 1.3052210119425849
318 -3.79906318073038 0.2965224703950462 -0.45902390212770416
954 -1.9382934394615545 -2.2137795494341135 3.5102556477835707
98 4.101848981311655 -2.639242594221945 -3.069342890391357
1494 -3.4893453035873345 -3.129825819853756 -4.380254290239352
933 -3.4792773875325205 2.7825321792294706 1.2602793940035313
1143 3.1886185692940385 1.6155000992333566 -1.3389883679867696
605 -1.8458474305535002 -0.49276151512605637 -5.515293199947517
375 -10.377217586690735 3.753638701246424 1.2739716113963127
944 -3.4523461622090514 0.24954647907085528 3.029407792942593
1204 -1.253305154900296 0.8545048280796572 4.3274532922485305
2035 0.9037321762042171 1.7900836475536834 -1.042683646074681
999 4.360190116752228 3.5678305305465186 -0.13412513770610415
1630 -1.0524761376271627 -4.327275331143373 -0.17598335022625416
1047 -3.617744689609586 2.7635478787200056 -0.5433223403998437
1715 0.48417390106797975 -2.2207670315492605 2.3773894515911915
877 4.056029853310586 2.225893989776924 5.292830354039151
602 1.5000300211726596 0.5164750142027631 1.9820638888876039
821 0.3278393789872083 -0.15789562112708944 -2.5278328189384975
1400 -4.087530427128862 -3.1624647872783522 2.6633016213054397
1721 -0.11026090618597577 -2.5406181227005393 4.355307559051858
1155 0.9456390527694947 -4.067305024711925 4.688712601513969
1962 0.40018012245089385 -3.9755580248444753 0.3428411001151522
1324 -5.549562373285363 -6.766428881475475 -6.033617049528288
945 3.919757273996969 2.272210122388507 2.72384531387739
1284 2.170019161493616 -0.28958683663390683 6.030584810194127
811 2.6352461222389003 -2.5667249561296015 -1.3809598000283079
445 2.730954818313122 6.459768286469644 0.7973470918958498
2121 -6.244354054931454 5.172492581075701 0.7294443801382389
1286 -0.21471208019441781 2.0265655645340233 3.025460045745344
802 -4.726237688895343 5.297701392500942 -0.8409564387542008
899 -3.2390694385036185 5.9678490865994736 -2.8140373570345325
1308 7.466279603260841 -4.380329783635947 4.06588040141286
961 5.773284888537386 0.8386544587367534 -1.5469114375875137
761 -1.6304689877400251 4.084912252715995 5.629285755321824
1682 3.1870172945470525 -1.966599209706599 -0.788573647239882
581 -1.030040165058587 -0.7354399760498314 -1.7095493318860642
611 2.9248419824682297 4.086335457939185 11.6409046704367
1239 2.9480512902544063 1.034880369375953 3.398112310561652
2135 -0.1985918112878703 3.783992147545472 -10.017625410426717
1548 3.2960774839515308 -4.479842823167462 6.935104423221234
2128 -2.1054761817135335 -1.4510447064172887 2.788479346544731
1603 -1.3766498039032216 5.0640055606008305 1.1747537421680636
788 -0.8176170324990975 -8.61583118046746 -3.8595161720708084
1493 0.15097789737318848 1.2892973995529853 0.4106184800651326
1777 4.1971172385124715 -7.592876623920761 -2.2251630491370595
648 -4.410078931456137 3.1096388352680924 -1.1058261299514645
2086 -0.6127785488663651 -3.825685404601894 -1.0389070362951291
126 3.481529891593446 8.733498885726906 -0.8069113487942717
1353 3.953311875902042 -1.4615045634337969 -3.2592904834663425
1120 1.535814832483144 -0.21688346697500838 -4.178326106633209
1343 -3.7165067451859826 -2.4768433740043307 1.3745760117703096
1049 0.9906763497890693 -0.23104792172050065 -4.415591870526171
102 2.29938798144078 -3.552554834611417 -1.5682243343578295
406 -6.401201109382022 3.113098581977526 -6.343342948871742
960 -9.266573267168297 8.632039487702222 -5.6178721708947705
257 -0.5140130830829331 -3.9557998597131765 -1.1140886313832488
1217 5.0969950559929105 -4.346376155748943 -4.3933224210153226
687 -0.8336819904174537 1.387377356419183 -0.1350233996874268
2152 3.1981322740500797 -1.2922344691372114 -3.5827790925350844
214 4.308768363878565 3.573949029094595 6.53355611323395
1989 2.994589206907323 6.011137034396594 -0.5227696919525823
1057 5.367457669019941 0.5016351658331317 -2.7168741663224
235 -7.733581006043141 4.9177722805830095 -7.000988576809637
394 0.5957372140139623 -6.409229920327391 10.305866116870467
382 -0.42244299361305987 -0.17297640438169679 8.140515801421065
1802 0.30255944237797855 -1.1026760469608048 1.616460556234979
1786 -4.603372927346212 -3.0784382625016424 9.141870247088404
679 -4.791540738813653 4.456720986987533 3.02906949434466
1108 1.7085842709538563 -1.8132472755373141 6.929909058428918
1835 1.9928550544493808 -3.5410132467116293 -2.511145024982255
1518 -7.339818788154186 -8.02936674525735 1.1764519788959855
1141 4.233926463994908 -2.9475887893262396 -4.023937920636597
1152 -2.235635971125717 -2.0208222584067514 3.8082989134686387
694 -1.3884353556621742 -0.5788276198819025 0.031557026421422614
832 1.5166611450643697 3.1028730327733487 3.2892038606963925
2098 -5.204638919685178 1.3490754839942132 0.4293459936938749
575 0.027431783028729857 -1.9108186139674297 4.140306803326904
1718 -0.585009184048479 -1.3487661161083193 -1.3397563992006911
2129 -0.8837424086410047 11.013939340857513 -3.7145361278636058
1396 1.395282243293636 -0.20904939546777102 2.3561956579854817
92 -6.355309708300382 3.0755618388929644 3.052445433230125
1499 -0.672276681706811 5.6907525587122505 -5.379501647463848
2141 -1.7694780352057606 1.7009378989985566 -1.5646128249650118
1780 -2.3060666495315223 1.1511464920047745 0.8474102035665856
980 -1.7854946323638892 -1.4875310106492952 -0.6474668563096745
986 2.1097624017695322 -1.266534251961102 -1.6074488259790272
923 2.6896537775823375 3.0042035485716836 3.385495695890337
1225 -4.552680216776985 -4.469342222555863 -0.6267060882815149
478 -6.69100259006919 -0.4579567383006431 6.271527006368764
554 -2.1566526723215755 3.0396815491673004 2.181838787019302
120 -2.1415543987765124 -11.602398615448013 -5.078273026230688
1841 -2.0683788369425176 1.136290273411764 4.421140809202298
1840 2.149102324055366 0.8608347598748352 5.800620550695728
1650 2.4105108150621897 7.432424297643092 -1.971685431314677
464 3.5038480884172136 -5.121703022770684 3.0810049760075553
1884 -3.5004653241279144 9.906133014094163 1.864971718555656
133 -1.2363087867257911 -0.9829603454897612 -3.587576336800879
1316 -4.543757700690848 1.795354086153783 -4.656562584479196
1772 -2.690237741180767 -3.2584902614442552 -4.208559540852726
901 -1.2679413756387092 -1.868190655952426 -2.8153243002150368
2057 -1.1401318087872 -3.228749097044504 -0.5769457010927566
1866 0.4122880075395427 -2.0931574208290886 5.268637492598247
975 -4.3568653556338015 -1.0538646641011573 3.1785721189337637
620 -4.6158926299977825 2.107626680918909 4.058768474024732
1924 -2.0319567460097208 -0.3635988432464393 -1.4240977571861695
1832 0.31346297149423524 4.14366062499309 4.451244953245533
2154 5.765383182538086 2.540754905780918 0.16288294088422825
78 -0.878321497691599 -2.8043187488067276 3.4447185356189154
1733 1.5520273658398394 -8.664458764567142 -1.2717197672997758
1934 1.3372203863173986 -4.640312819158902 1.322672185789671
1290 3.071089923067801 5.864624051573597 0.6493304118810427
572 2.0622930837566606 2.935941825934145 -5.343459915104465
1811 0.8324992463159075 -6.561031307126534 5.684165441059036
618 -3.5165773580171082 -3.8492273285256973 8.82930840732912
598 -0.5476681904580712 1.5068389207422284 4.943009379504902
1416 -0.6687452454591197 7.849679972862166 2.87640611126684
103 4.497006477094953 2.7160149080839124 4.713812788718078
1216 -2.113063925392298 2.3776922204011903 0.9653581025598904
1719 0.48316949681822546 -5.430865251843718 -2.000967201942685
1868 4.666791520821315 4.283112405492567 1.4977371464262372
1686 -0.18356101308846934 1.253397368677728 -7.52203665030264
76 0.1556274886024826 1.4031577513127862 1.7923788423906186
1556 -1.980299364759991 -6.2266534709899535 -1.7956154611350248
885 2.9224632130899413 -1.8178097079619477 5.197900790379319
1293 0.057558407188171075 0.41104023160652636 1.5689610266808145
1987 4.709569326346437 1.3678543256647144 1.7359140268748479
1144 -1.7601486302556417 -3.358442336177169 1.4364521472732648
1271 -2.1729488259855936 0.9303546893302587 -2.088908987610615
1838 0.31634967547249115 -6.9052732424592085 -1.6746233410259752
1450 3.579424176654001 3.0860394156719426 1.504726755992693
1648 -2.3778705494340175 2.4603042813030322 2.672733445077807
973 4.714609582026716 0.69673011550277 3.5280928466691526
1523 5.129462364759899 -2.7810763714078637 -0.886923418435782
550 -0.9743727636666545 1.3718502768600356 2.7450801884327367
1823 -2.0219829998417107 -3.041658182033944 1.8391275077023834
1701 -0.22952488338454424 1.3270245758043335 0.026582932995946967
1346 0.7814046808460238 -3.285164050411612 -1.4898131797219447
1886 -5.45587416908337 3.8827108358273676 2.818815886753572
1799 3.305291963267154 -5.470123506218775 0.39667893342310095
1060 2.496055118523145 2.8066632296400895 -0.9132591278319498
556 6.72241254100639 -5.414768373236019 3.5104270823643677
1063 -7.98832846490331 3.4846178729874153 1.8442508033554845
124 4.682580794136268 2.6558949499812603 3.7209633997059326
1371 2.6027242930857613 1.120325767550363 -0.9751744069966729
1785 -3.62063455734673 -1.868813087670763 3.05222267326693
1413 -7.261199188476529 -2.0270056410180186 6.193280413274485
306 2.3885221528385503 2.988715698462865 0.5520755397865541
1546 -3.916398152512216 -5.290972551790682 -3.637631851646753
1110 -1.4407867737845526 -0.08885609370835734 -4.263469589394873
1538 -2.5905028015847598 -7.5850509589603075 -2.9921193257516614
1842 3.0604528001815825 1.0662449963564116 3.383157983073874
747 -2.462621777010729 0.02518263364984124 2.5118623539823144
953 -0.9709771200262777 3.9543093176867012 -7.035857864892134
976 -2.886919932701735 -3.4396698522839424 -3.098485614646743
1068 0.079223370697278 -1.3832875581712136 1.3863047698913868
67 -5.058315049644782 -1.2119321643889571 1.7745234787177464
561 5.6261329324089 0.2937756478165661 -3.9183408040363035
1829 -1.8395904048629184 4.893916839177388 3.591148204215001
1058 -7.494357907557585 2.459093324862911 -0.11154541792908784
2051 2.134256364897243 -2.4806822414457206 -1.0224791862940137
1590 -5.857016212915396 -3.4561608406373834 -1.1867673648483366
1662 -0.5512124569239678 -5.875482125250187 -1.4412339645348744
758 5.908344017653809 3.6579592961436287 3.5300507691450886
1622 -0.47251396185719907 2.870731314784626 1.5554296381254686
1931 -2.8724672710698593 -0.07569956706049363 6.39303839193428
1350 -5.688946324525973 2.2003913237442023 -3.920794856056258
1907 -7.395363532184528 -6.224331386991035 3.1625764551198134
617 0.3132137724037115 -0.46523307830408345 0.7952283964581087
1215 -2.5638566719571645 -1.5399398840906529 -0.3947065545369954
1071 0.5518684865435991 1.1365632498693197 -0.73503704289595
1147 -2.961504777864384 2.7384511798689504 2.3579059766540724
538 -2.250541950817961 6.493814087169581 -1.958585132928905
1865 -0.6460666369590796 0.051215498964268434 5.320418595350988
1498 0.9804721600411027 4.815483756495366 3.228850634400429
283 3.7032311348923006 3.7609239823996785 -4.27298341500733
1689 5.130898433017737 4.32155089887288 10.666906428501173
1431 -1.21809752972675 3.675735072232282 -1.437067374343139
932 5.218330545896665 -5.606397412367276 2.947850543239538
1663 1.8926233558677603 6.28249969259196 -4.119266041628443
1595 -4.204580684334874 -3.9364189771618667 -4.247918963488944
1164 0.5021414985572666 0.7184799945512421 5.243132728581516
1759 4.047865820213839 -2.6427357871904773 -0.9345090181336142
1623 0.46693982135246853 -1.1598092027012095 -0.7382147756186028
453 6.126086653562674 -6.480449471614356 1.2197055661229026
1180 -3.460108541995507 -2.9127527071317134 -0.47106407312026843
1562 2.579928106810238 -0.5545399112865053 3.3759349163354138
1415 -2.9264895579561987 -3.2774063757198952 3.0041209785735417
1476 -1.5347555284486383 -2.8005116004838615 4.809901009659275
1137 -9.988098762166711 -10.51499070699611 -4.023229602538091
2067 0.34888041053534047 1.0846991145185776 0.45252318631844135
1080 4.459115797224331 -6.413386324655979 0.5515332271541623
1451 0.387949741944386 4.945764837405892 3.611166754113541
1877 -1.0240251864535441 -4.137202190500481 1.8647606502803729
1375 7.204961274567204 4.5764005862223724 3.7109537211821255
1635 -1.9524030210929482 2.4356312209266497 1.1247610473364433
142 6.736191607406436 -2.3475181904134637 1.9229684800926097
1580 3.4551221772232603 3.182616868227683 5.233289304136939
1591 -2.748736603880588 -6.2230219282570705 11.8548893084283
1263 1.0714602692382922 1.1322437738537336 6.482075449246096
42 -4.218595949816919 4.766502061069256 3.2622311327960154
774 -3.6776594381228422 7.939095524613412 3.2210771679108334
460 -0.10539615964643186 2.201656565016781 1.2301781433343186
2010 -0.6559273029241336 -2.644887392376165 -2.4856887783598314
884 -3.22718161331659 6.874000437489295 2.196158243018565
471 -4.245481524252853 -1.3097618896733347 0.7655671492135696
2058 1.3727531895513851 -3.6085801193758225 -4.2031310432734035
1153 -3.3361871380374786 -0.9438557910948128 -4.342998802913169
1090 0.27814592405205874 -3.6368771856298596 -2.1838657947484057
1642 -4.174135299389558 -3.9512071570140157 -5.214738263277493
1031 2.2336187005654 3.0574924045988388 1.4908356344400122
1833 -6.373407761214477 -1.7094044535405761 6.702475507326213
74 -6.633053462916973 -1.647742176482688 -1.7469533438398053
792 -9.165487717166886 2.154090202336833 -5.769494172613896
64 -0.7983230700747727 -3.027860047995011 0.1479018705078613
1296 -1.1609659155445455 0.002526688857379468 1.9009552465166564
266 -2.415622426484323 -3.6832642369029336 -4.002909672406825
1608 0.24668150164239183 7.850057389685492 -7.442844275261045
36 2.336005224945938 4.961360643612373 -0.26205351577068986
715 2.2198878953250945 -3.481453711893671 0.5396650091521694
1349 -2.566079232486754 2.611928068046628 3.344911696953204
1132 0.3603882338908132 -3.3458238301623555 2.463446810533016
1963 -7.453962983623934 4.698890585743111 2.297611071601896
1022 2.910911814836626 -1.4120063889561687 -0.947329704592892
2023 -4.342340237703707 4.026445525078253 1.6301647125860579
1477 0.4004678022718466 1.6936497168511284 -5.084477746756108
1486 1.025220181392438 1.6503125525904523 1.5348229020913287
1383 0.9587585764558265 -1.1504158032206317 -0.49179062912625493
1212 -3.243886279476438 0.3268779582810165 -10.30915506240405
688 10.667146092351004 2.9347730877943845 -2.1344116818335834
1974 4.391748925363834 -4.896661510673154 2.0419521100446163
855 -4.277468240233562 1.690280880685319 6.334085191294862
77 -0.6331514756585288 1.2634178226287684 -0.052560909213730606
1998 4.684304886132029 2.355282601879474 1.3609611357096458
657 -3.143018495335294 -3.0796338101581795 -1.032951885141918
1359 -1.91475131523592 0.7210931536731455 -1.9606326745195917
925 3.9038568979364543 2.1519233339585475 4.1539524725587915
1644 -0.11009451158462583 -0.9074674554878824 3.4849832815532733
625 -0.5058002202095463 -1.918720824884583 4.572047003039374
1547 -2.466958102619589 -3.566275214189721 5.034419458111053
2044 8.713680297635621 0.7240549437072548 0.29625569983438277
1788 -1.8226802659864385 2.502109322552969 1.9659651915179055
1356 0.5830127760413469 4.119274740057579 4.284860157111883
2093 -1.5114266949364208 -1.8068296498777725 0.23160164496441055
2095 -6.338253124606318 -3.7657018299944838 2.68040489020538
446 0.3738909566935218 -2.5338946150108144 -4.675912092236099
2001 -1.258911093454811 -0.02899445774701725 -4.2462627354276785
558 -0.2352696216422342 2.884640925249166 -2.8784987437595717
559 -5.727660187958747 -0.8194929780280804 -3.056705672562787
1542 3.2737393764081335 0.567806347946914 -4.339986909663278
1927 5.589654178001632 -5.510784504337303 2.803178363440696
847 1.6757615377992527 0.7748807320802653 8.406037323356768
606 6.02631526920743 7.707231607868471 1.2281664284202505
493 1.964156914918587 -5.589545394217855 0.5168636935406995
1613 -1.6225885056693283 -0.1616091522712437 -6.0775787505078736
1657 2.7541732268716617 1.8507408650315604 -3.416636385284047
1740 1.015544731107062 -1.3816325882169207 2.8562528592822716
2017 0.7703152132480648 -3.779651663945158 3.6942596660258338
1088 3.757961233118424 -4.948688490581017 -1.508533337320078
1722 -3.9662164449350388 -5.401111589756488 -0.8978309370764226
1048 0.6781195086901475 -2.9560290710388757 1.3437772880844723
1757 -6.577716962058831 0.6182673452048361 -1.962158215587494
786 -2.0206912448732126 1.1877620939093452 -3.3067417471682226
1311 -0.07711506424716819 -0.7945633029721431 -1.7339710845672134
1535 -6.460777296768568 1.728041311025643 -3.6135805496222613
686 -0.1155113853064614 -2.4224534471673405 -1.136905670534921
671 -1.6930434566473889 1.4664912893333546 4.154589445522089
1628 6.3035590778397905 -5.101702339839334 5.567795747497947
364 2.8992520973530094 1.7465618488252328 -2.1824807049280897
2002 1.7893458827446986 5.836070771006148 -1.3449091814712175
1972 1.7110260354714306 -1.116444385519812 -1.8722571157160175
798 6.538353484103299 3.7540784686774624 4.807632184759243
870 10.86588576733787 1.1526655662294372 -1.8430861724933507
1392 -3.405214099013559 -3.3890382002759676 4.017051250173135
1767 1.8811491897313706 3.5626101183550603 5.292601762418939
1140 1.3178590462246167 1.7800142367004133 3.32127185035943
154 -0.4081973505016099 -3.0618130294042953 2.2053469674499713
371 -4.084741706703541 1.9457960653559598 -1.9980102237470692
1062 -1.0069826460689295 -0.9845887916443934 -5.399125279187376
1405 6.061829738455293 -2.158437726387779 -2.664677594529055
380 -0.5016170955933947 -5.726816943987528 1.3297022557740932
1117 -4.506915621741051 -0.14524638456785133 -0.8107822742837714
1441 -0.480033547125241 0.5708502244186971 1.75469187765526
597 -10.913105456888513 -4.612070668834115 -6.616882312563511
1479 -0.48392484962483284 -5.309518279977424 -1.3555605968140039
1440 3.080488529541226 5.476808723161312 -6.492999985369046
1410 5.446108589496518 2.1046848367955007 -0.28854500310045245
1965 -6.700739948981584 0.13965613966202234 -7.165400102628117
1395 -4.53405268324238 1.9264507476285537 0.6910587239913341
1880 2.7093041116426644 -0.4093074622011269 -0.15306604890570866
789 0.8776082029153353 2.288783037239033 3.682166487879932
1843 2.0095239061014167 -2.3834175872318486 -4.145746422535263
256 1.1730186458519423 -0.6027101871646552 -4.871693407127758
2105 -1.4097069465972987 -0.4410993386461608 -2.02489468446408
1768 -0.1260310052706461 0.08674036428446612 -2.5183279158239396
2099 -4.43105930263713 -1.4937245721950059 1.8250514236876647
1693 -1.9532548121773452 5.517292559579145 1.1804655619321427
1819 -1.7927173807203858 0.7425958912349677 6.726073156690758
1390 -5.703621158511602 0.26765565464370905 -4.7047012629457114
1621 -2.3006218548324697 -2.635195347805574 -1.161882444569871
1136 -0.867516185024803 7.440126388766378 -8.89373035485351
1208 -1.8401069728139101 -2.8100685143042488 -1.986004598524459
2018 -2.5182871900445325 -0.8186570304696482 -5.32492054341222
2136 1.791920906571202 6.352930297360841 -0.19013181992420716
1019 3.6550910878262552 -0.6818063896292231 1.0531897979860716
431 -7.631821659337063 -3.305672015549286 0.6529694224825573
362 1.3561985875014753 0.5807024667522742 -0.5616421240683709
1436 4.446815573426465 -7.304220087317942 -1.9314503978410782
1378 -1.8957025656438506 2.006379312785025 4.879101217269901
1447 2.953892829566369 -5.233218213672773 -4.55175256790467
681 0.04898789796007617 -0.5283229540613864 1.3232459438253217
1038 -3.0114898205548024 1.84351211159024 0.6432974396320947
1609 2.0894289741617653 3.3522174903117223 -1.3946241370091441
347 -1.0175777336818008 -2.2618009541563806 -4.6051081247060175
6 1.8652145682697174 2.833846985348903 4.499035385551324
963 1.9937780832160188 2.3472402022594916 1.379574265129825
430 -5.506036678980598 2.4971390545812673 -4.089279903090122
470 5.778434945119811 0.5840755091222726 -0.6263484729599443
1294 1.3275318463355774 2.9265040985406263 -5.597201793363864
175 -0.6911572221422433 3.2672260769305113 -0.7558624084995853
1861 -0.2300581487197842 0.716924539207796 -2.6543596340941638
860 4.047628230551474 2.3651842459343664 -1.7144206564049962
971 -1.201587297806443 -2.2682302803864505 0.5165823323640606
1554 5.502336287040445 -4.007881683204939 0.08093143917998405
1739 6.543162527598601 -1.3067833482477833 6.188837169639903
1174 -1.3750182713124055 -3.8824252166175897 -3.8945377159259906
571 -1.4940581758493945 2.5064880506626546 2.9241903038480612
1059 0.9554761725353511 -1.6556315684403462 -8.692931459187768
2025 -1.8535656800527425 -1.3735675541417127 -2.2149406148957937
1497 -6.313666161728683 1.929717721235367 -0.6504186955175718
262 -3.9086522224758733 3.0976167172491618 -1.7125421500222615
181 7.19444244646314 0.5538865914862804 -8.844705278990201
107 -0.7571858254081303 -0.4330366291652034 3.773763967351213
1673 0.5580728519596135 -0.25013114831807154 -3.2951308578378975
1816 1.2621773726880767 -0.8394899743213028 -3.2085730384060875
641 2.8172510082124385 0.061518761385604345 0.8230967508074527
1099 -2.525941839610806 -0.5839655970665291 1.2341349956067584
964 4.199780530309078 1.6589489129163966 4.812538644282192
1399 1.512952328498334 -3.007188870542616 -2.9692230449975914
574 -4.555036659253563 1.7857274894033675 -0.4569622309470252
2124 2.2461931215551005 -4.1823106528782255 -3.435800158428773
2101 4.387601252007323 -3.6661157954626264 -0.3639080056647395
1116 2.4828477225336676 -0.9576707723004052 4.609563272045722
1708 -4.556682609432818 5.812663927256464 -1.51002801637573
2082 0.11331554604885821 5.081690483594364 2.9820251420629824
707 -6.370329815385236 -4.36522024650433 -0.3484204508851927
207 -2.521893338119827 0.3375083899536926 2.415873853491199
839 -0.9422413996867629 0.586264014430752 -4.49045027370475
1736 0.4459718574896863 -3.1923505164090495 2.6545105384691894
1122 5.186692390681014 -0.38740399716867874 9.12534134156813
573 -1.275785977572402 -5.386475398000025 -9.460691956145324
1525 0.804825330101277 2.835654220605684 -10.278688190633758
307 5.694871251272482 3.945673171183396 6.1634918204777405
1299 5.465334786159388 -0.9683548701775032 2.0840511149037884
1510 4.6589304762635475 6.498443616261956 -6.301390292686172
1053 4.292693658559064 -0.505963899144569 4.930376397820685
987 4.633470557867 3.3410242420432787 1.31092984920418
562 1.8607101640890613 8.864472755617573 3.1346918293715786
1046 3.4779897420227863 1.8935661752808912 -1.7219827481495544
990 -5.3340889734966845 5.451534387988053 -4.150822444725577
1454 -2.542150214827692 2.5171621626714704 3.4810300480055996
1817 -4.965127092554846 -1.2350030855499647 -4.433919985010764
367 -8.337159137817912 3.3734957976783444 4.471389132223354
356 -3.2784399522276773 2.940635384393531 1.4451247329892811
1576 -0.6436153005853296 -4.553916043666172 1.6789032832285438
2039 -0.5539476156934892 1.108046222426581 -0.3037149382689182
982 10.387126712392082 2.598412593281817 0.13584994493699334
1830 6.271437842400954 -6.476314247183223 3.8829165349051578
452 -0.2047487405145966 -3.9051529050550657 1.9270022618632927
1275 1.07906903512223 2.2023484971348437 3.7797834582894323
1979 -2.993718320512919 9.500013198602247 -1.0665902598172412
1025 6.80041600268098 5.207443015409155 7.4027931849053745
1827 2.7916020581850947 1.5950782578595457 -3.2748534246147325
920 3.48353438965111 -0.02840143602346692 -3.8266019572893706
272 -1.9047655310523373 4.474775733106994 3.612791598655859
1082 -2.8844614586133392 1.2665151547663687 1.0134250975755583
2011 1.2514851470968713 1.6514083734776899 -3.912483892122653
1933 0.8466585678880966 -1.4746357355540614 -2.274276843037329
1270 -1.281173939480353 -0.8462778658249135 -3.484107373090094
616 0.9797139912953013 0.8921284810763537 -1.4115765594783998
1073 -7.937983717964368 4.626874581358246 -0.6841452128196147
1710 0.42565082007163335 -5.49869462079654 3.5583525666625118
1938 -0.7550717014746275 2.703914252426561 -3.1442660952563997
1406 4.266584353766664 5.989008235054473 -1.27590239023167
1553 -0.060785240276328714 1.1798346620905762 -3.408274122090946
1305 -8.994540245866705 4.341339920959586 -1.9748023069819645
215 -0.2069140084146475 -6.506647373543285 4.785250659847298
1273 0.11144488540877152 4.331031298024948 -2.3907350906839655
1300 0.05175912785442993 -2.2961322659305914 -4.62105679142646
1091 -4.187487483621306 1.3735550601440478 2.847737814720567
1484 0.7155799162635935 -7.386045693030333 -3.331104786617471
1380 -3.866146904128855 1.310332728693124 -1.4749572577612469
1922 -2.5161538629691114 -4.075706412866286 -4.484440076579322
1943 -1.0987108924533049 4.513641260410401 6.58367316555357
97 -1.5624196077774677 -0.1169472999796409 -5.145497697703602
296 -0.36541859202232574 4.255881230689912 0.9816016097811305
1789 3.9487434053983708 -0.3982425580271781 2.307213651821909
1913 5.010255210579439 -0.5537737479534697 -5.974050495461145
2006 3.4851225712205056 4.213191952027935 -0.9052150194626705
523 -5.3555497607089375 0.7135064388951886 -2.935641532903946
931 -4.293559713575603 5.8724379804842295 -1.9631209264744196
1264 -0.7107844426284871 0.4752441981731305 -3.092695587833552
1800 0.5013916653217059 4.870844071913824 -4.995575137054344
1411 3.0193755562705418 4.978986951525853 1.4615057677023247
2003 4.805113248547393 -4.312220419894725 -0.006627182538810064
830 -1.0440481038505791 1.9014898789607009 1.8285414928409127
1973 -0.09533396669925383 -3.8357049659924596 -0.23056406964254203
844 -1.2255821792665151 -3.3354845484048754 -1.446330283500414
1394 0.49068302650320367 1.6533916824871306 2.2439632064550783
60 1.7282749898675693 1.7256705488826192 -1.3166803852300022
1778 -5.336775810636417 0.8124248951571676 1.6797921809365437
1278 -5.022057709955191 1.1741204650073362 -5.861854547632725
344 3.063498013066406 0.8699851364311667 0.513135936101862
1258 4.048640714324649 -2.3992347408117767 -5.641977128710838
1599 -3.7773179379562336 0.9398129429116726 -5.843090067684497
2094 0.435530696293004 -3.9625892035821404 -0.3735347666267793
1612 5.691280995469373 0.43780677151575964 0.2551938702990875
438 -6.11182334415681 -0.8279495345899024 -3.5057816773607122
1123 -1.6518938574445372 4.465058667712285 1.7088848146241704
1763 -2.502986291538549 4.73094525999144 0.8030489234711147
941 -1.5801772378186532 0.8486874176966839 -2.734639523313399
1177 -0.03136099126905514 2.8637260489244443 0.2461000316761627
1859 -1.5295044837080802 -11.617966210067294 2.1725509061042048
1017 3.287737658069809 1.6288960116395301 2.3200361195613435
191 -1.2895250323685126 2.3442731587297434 -5.9953472913376435
893 -5.217253795040446 -0.21928091456254953 4.557780628287254
400 -1.9576474194794709 0.8521943663984806 -0.8168521909221078
781 -1.1985039441316359 -0.36402393787483583 -1.6005109843109135
612 -3.5445609962956364 0.9660073308270015 6.401103592325553
1020 4.853353300168962 3.6147456047241366 2.097199813267667
1505 1.0844976562414763 1.4933471804488538 -5.257949975700346
1694 1.839802072180942 -3.9573120238284325 -3.246667960161506
1571 0.562677365550024 -6.873781893049595 2.2105039817676997
274 1.3478343638192636 4.4200626168612915 -0.3147367425801482
392 4.594392858519178 -7.183991084407025 -3.968913183946157
1034 1.0553714335724762 -1.016771436628533 3.752499566320295
79 -4.949240306449207 -0.465610306925045 0.2905217434138746
1977 -3.130093335139944 -0.8640674174084428 7.3549771553366465
1875 0.21645846079328457 0.6723842224404875 -0.7840219171827553
2071 -2.186698732006589 3.671987560395236 2.3590232344354463
1544 2.6756472393969988 1.18851960197757 5.301914072311559
873 3.4570669057882566 4.332774273308002 -4.231687190022748
1914 -3.3311098101898535 3.189488318314148 4.016399018305424
313 -0.33161130018998364 -0.3138467342603401 2.6900379657352733
1958 0.8966550478214917 4.878252752645177 1.8762272938677602
872 -0.5369741391446043 1.5309709958971283 -1.4615782429655855
515 2.964813244329475 -5.386542751896085 -2.7253279816620952
14 -2.603938441631336 5.9732837843497775 2.8088733302632845
1005 0.8975682314362724 -3.2163779777057457 -8.359693692322342
2117 -4.213173603183023 0.9930757002791053 -5.9005076257405005
1850 -1.1092417275064477 4.097800489389837 -2.128550578528355
2127 0.05685689166661841 -2.1688396628570565 -2.8745340713767886
1338 -3.2159265488255855 -0.8710277264390403 -0.465334647036807
2049 2.568077838254485 -3.8212415245861506 -2.099068443541147
831 -1.1379332169904846 -3.8610439258116105 -3.099994995258631
1230 2.2066595681819257 -1.9455775659455272 8.030523805115221
2137 -3.7304658971908653 0.06956903289583263 -0.24560322040837956
838 -0.21193125775640773 -4.054402523225594 -1.8016558249910182
1856 0.7608404335007558 4.696930485211395 4.593683057437049
1704 4.597645236871968 -2.117758274065862 -4.338675579614287
1898 3.888454525238944 1.760283631432911 0.6679379241388268
762 -6.415478918917652 -11.176419890093241 -4.685701843481084
902 1.3495685923932168 -3.4486924425300476 -2.4249897099774147
1762 -0.3995286020891096 -1.0513884430203155 2.623387866034178
684 -3.3184017480753103 5.170439442078722 -3.9107929789769864
520 0.6446430104181057 1.8441636877573262 -0.6075551111726458
55 -0.7861069717797501 0.15796678364142983 -1.3289254399719412
251 2.6813073028269483 -1.8496351464895984 -2.966223913074116
18 2.0720395988816755 -2.234686237062818 -1.8850080769762154
206 1.922029620001754 -2.601849944893215 0.935987892944266
475 -3.6502468473163265 -5.447095322084319 -0.7431919164469506
1106 -3.5019192321404655 3.733653428475058 -2.2158329433737096
1376 5.7104917657916685 0.5915530492573178 0.775766144396151
1729 1.857090484988641 -0.09311652808129248 0.19290358148576262
260 0.906457378875757 -5.746299837613872 6.517610183129677
1584 3.935737298094416 -4.909126501681405 -1.3690668271451796
636 -1.4464106690002894 -3.802446366951848 -4.702162167588034
1928 4.445744879296235 -3.5860535250101653 3.312556892565746
1442 2.28953805225356 2.5852508349531647 -2.1372793267010124
1464 3.547586549938001 4.218710317894488 5.281599423172644
1103 0.8988984594528526 1.180739886028441 -1.1200903599024639
692 4.266021252191199 3.2046377669184087 -4.355928077916915
1549 -3.651303095826733 -0.7667094740362488 0.2969849150478223
217 -0.399018793292682 3.2314610903184917 1.2438507046349656
1001 3.6030530874013595 -4.406233989209888 0.08620064496762088
1373 -5.158158439032065 -2.120947122253545 0.6007238624857557
1496 0.8816912756673541 9.680905425739047 -4.580959546042263
1696 -4.498037588212358 -2.9188958560080454 3.8236583866287894
1463 -7.767932495195456 7.191354964221764 -3.5094216613327305
1852 -3.5434634081262804 0.4289509825724405 -4.871983235785437
1775 4.730068948047632 8.831324519813677 -4.646873794610214
1732 2.3861518229836074 -6.4108878014060835 -3.015595172519714
249 2.1588816409204092 1.2417751775078503 4.574559870355775
1990 9.612387632941727 -0.1065558487340785 7.51293795973807
2026 -2.7260627337652035 -4.669892267885633 -2.247071667865666
710 4.918221761641675 -4.826336774121803 -4.449655188824524
488 -0.5741734131121248 1.9919995456379793 5.830237598102662
1432 0.8856181702371532 -0.8234838644264134 -0.4231358495604103
1769 -3.6948089896491623 -3.343708511134077 7.708835680633168
827 -2.2422386581247413 -1.593115273210304 1.047219990311168
1627 -2.671687710406593 2.814243804288542 -5.353268568611648
1568 1.619737815300984 -7.6831534665766155 0.903426584780854
195 -2.2461564630765665 -0.4404655330516217 1.2335091688336657
1709 -9.179970056932465 -2.0965277701760052 5.510406398776855
361 6.945638494282044 -2.4876995220659963 1.9952982730247144
1004 -4.108549663965869 3.1780786624667217 4.551108415664033
1534 -0.6147356561238599 -3.80821391982611 -7.466280151476592
2151 1.3403223295096334 -2.2200185257128204 1.8082787264790303
1495 3.5949224570440386 -4.958903125685583 -6.074829712650946
545 0.8766410495082636 -9.59820900700519 5.833380191737356
1219 -6.083408298973566 -8.394316785187465 -2.9806416983539115
1671 5.462562012453184 2.336145250476374 0.17466806898327328
1367 -1.733866181215243 -2.7109022473273394 -1.423177833395538
2103 -3.857402161781421 2.431735910559514 0.5121881885676826
1706 -5.918207353683184 -1.4357140010419684 -0.18092602476279002
1809 2.859246198865505 -2.186787961972401 -1.9051152943674734
1379 2.494540175274346 2.6346697945201067 11.589927619367563
12 5.812107859542517 -0.6210188499424522 -0.42394074615142624
1672 3.1954501189196503 -2.8711569783942728 -0.18152501381773875
11 -8.402908494099737 0.7119588005839229 -0.11523228091705803
177 6.80244730195533 -8.33046772754402 3.281707231967749
1679 -0.6403091420482748 -1.3373861498212756 0.07798875727718531
1720 -4.4010542285349175 -0.4493103228889901 0.7083676733004424
1728 -3.4989093536761238 -5.420166463081428 -7.982554073487153
202 -5.217136334049784 -1.938483359092597 1.3434103056780158
75 -0.10719865101489594 2.9159266292119552 -4.455217847482841
1109 3.2026747200922654 4.489885103862581 -1.3596999444178397
1955 -4.455143932961706 7.104297012587449 10.998274277761
2096 0.9968824861959642 8.357880699174558 -7.188924425708126
1357 -4.644049025520752 -0.20553197153326497 3.559386031635388
664 -1.0261592732345273 -1.9036939227930136 -4.86817429089385
1793 -2.7081492272553294 -8.20941450538793 5.490259581817565
626 -2.5125459496940867 2.3651586821967916 1.2830512610869544
593 -2.4857292805519426 3.980014381396747 1.1463038116780795
837 -5.315067824873949 -7.089920576409408 4.68114642325302
1791 2.2250075568457133 1.4260213749647614 -3.2837996012120167
250 2.4656616217961007 4.875200179831896 -1.2596765662833722
1652 2.5542938266522333 0.6543217522631977 -5.8500022937396565
1845 -5.552260569581111 0.06291755709207697 2.914123946153509
1226 -3.3368232651884386 -1.404798755152608 1.6905107107902009
656 -4.118753745918473 1.3984992994901362 -0.6135301759335833
712 -0.9919015960163682 0.9187045773273733 2.237066755962216
1879 -2.593449175055178 2.725250271000468 0.7780439514456592
1949 -0.7456595772760883 -4.266210547984037 -0.7486521607427947
867 -0.445657403644944 -3.0706025864422863 3.2237971775462912
2068 4.213567328712054 -0.9226189253553184 4.046686101418775
2052 0.5289990284007534 -1.820464008127854 -1.5696037877142006
524 0.6550166079278074 -6.70755139254806 4.71606063386278
1680 3.0685204857381825 -3.3754300799059958 -6.259221763237585
1551 -1.576260103739703 0.8410543383827843 -4.568808477547272
634 -1.6783876525047228 -7.008048668837708 0.4686594721680922
646 5.428286326311801 -7.0002425675133235 -2.0744701733037987
1888 0.6128913564896179 -4.534478533196583 6.451555950645848
1474 -7.215600894765768 6.332471612375341 -3.8740168463968288
718 1.1492506919799663 5.188339513487386 -0.7489755997752134
1238 1.937991297152447 4.4642275154808075 2.8651067830855608
1947 0.4355922127301367 2.42926816155642 3.6826530890013878
1064 3.0458081884840116 -4.8205593857834055 -1.3220452355418397
1585 2.3329118155633117 0.26392751543625903 -0.8861686578566003
1894 -0.4232194178687257 0.4289735017007505 -5.888960701170043
1149 0.5354532167036286 5.643527477449662 -0.8897598973763161
2077 2.596184605780939 0.019205580744368008 -2.9546185571215995
1601 1.7899684200386898 -3.8633751043225675 -2.8601963964970207
62 1.9045835631881232 0.7364158206032487 -4.387988464407233
1724 2.056825798428706 -1.6938840392386827 0.35886431070761765
1460 3.573837227241147 -5.616809233021187 2.7400299091256843
853 -5.300848921407157 -1.9082208803575926 -0.3322753918750029
809 -7.12049629123666 3.7131455358828314 1.7002952472297148
1566 -6.089626549475327 1.2538773378292918 -8.992719183870651
1319 3.5854361984391603 3.1554986399176843 -5.698272974562294
1246 -4.295352406830195 -1.727486301227157 1.3052011254090472
7 -2.3242670761751967 1.5933396423070045 1.4976029320101276
326 5.077670153340333 1.3668431064109103 4.12394945502422
726 5.421384323169385 -6.216495400339809 -3.403107839378832
1885 -3.2193132633750885 -2.374739890592759 1.4645667759186305
131 3.805355819591778 -0.8390824068773381 0.7421765102888015
369 4.08849444924108 1.686035789157586 5.352802511196748
95 4.16931783874502 -3.2874003912646312 1.2274049139855352
1734 -0.4226371426879624 2.7340858705992153 2.856428786414288
757 2.0250212000603156 2.031552334460741 0.5406244068258019
2024 1.9525187391867875 2.005086804330219 1.9803413005005392
928 1.086030026355075 2.2344338057799575 2.267230625428978
276 -1.6814464036753785 0.11780537122583006 -5.258347979041085
2054 -0.25304963280455584 0.29326150085865854 -1.6067658073385087
2122 -1.615932274573141 1.0303474847355123 2.506288978625438
312 -7.496957951902401 -1.0823755224043472 -0.14311550597023037
730 -0.2694903833956672 -0.7157724078077803 0.20146647145847957
659 0.9809528821343877 -7.45802433299185 0.3291496096461271
419 -5.494197637093297 -5.682819375258193 5.789013023695523
1764 1.6221239714919955 -1.6534850079735635 4.895558671885164
1552 -1.3854162214187058 -1.1501579644703683 4.598200945567562
1267 -1.9813114210229075 -4.530041010920714 2.952190603506077
338 0.7654728105661974 -0.3232802613898676 0.6827116845638493
261 2.3414623813227586 -0.8285660224484298 -3.0475057702887773
1503 2.9318600236061854 2.5308132919935438 -2.9148607490283536
2040 -1.4671794612239457 3.880202409214262 -3.799295301858674
1228 2.782750179452772 -3.4044914832799704 -2.026651339599174
391 -4.154200448979975 4.95550682515334 -0.4418873407881441
325 -0.4669892745309871 -0.9587481456948764 2.183462131205579
2139 1.6193025853891934 -5.422905067709404 2.2966393302716472
1362 3.9432571745988523 1.2131318152478132 -3.77019735885539
462 -1.983798117751584 0.005753574154017562 0.7822551459985674
1461 5.668357080223873 0.5255267115092982 -2.7560122815592085
2043 2.3356933459475013 3.783504804586616 4.603131437367604
1951 3.4521332713936776 3.768034209449457 -1.153249466129623
339 0.2262988347076813 -6.499817769224505 -2.6383048651202587
1332 0.6999735962985999 0.2061274815841628 5.55785487608412
754 3.5893046455159308 -6.11388926385021 -1.8833937317021139
541 -0.4439877611681075 3.1757129417372156 2.4112966419711364
2159 6.740123167846755 0.5537388361374972 -1.8832096719098115
1795 2.75127382721128 -2.0709218280668633 1.5678875414580618
1619 -1.0541037309882053 -2.722260632658541 2.1810111139269304
496 -4.7799053136636855 4.641424065373514 2.121706982677537
1235 3.4948095351932107 1.1359438371604647 -2.7087484180443133
21 -1.2898083351709735 -0.9390689841107297 -1.9068090803887392
1500 1.7959925470279272 4.545986848405851 1.1144489220447729
1509 -2.4199037431721666 0.36691748096737165 5.845271607658311
1707 -2.6395033324026547 -1.1305725079014708 3.042485248940285
921 -5.397349097323187 4.184235290288803 10.070079156477819
119 -0.632912406485913 0.717069175274575 -0.7061799577097028
1618 -3.808539145794436 6.248117971763522 2.360763531439931
1574 -1.4606240521130214 -1.6089320729461345 2.6227091195118684
2145 -4.1274442068307975 -3.967696170772309 -1.6234679297231334
783 -1.3100694200753729 -2.459068193140619 -3.0594225838968137
957 -1.5628910165254752 2.255113196493302 -3.926058016602102
2116 -1.4720682428917315 1.3238658815910398 -2.7191496570631384
825 -7.4518610756663985 6.419025237546382 -3.6792633831126516
2032 -0.5205933214784955 -0.1305485258056085 4.204223121095445
906 -9.896481866630605 -0.5865920812208159 2.2710482323889822
672 3.8394833656817027 -0.826492197952084 -0.073643734345781
427 0.08433166930421426 1.8083661158949187 0.8997596762089665
410 -5.629515606341759 2.496981680712729 -2.25123159539688
1361 -5.2320326834829896 -1.6294807455078806 9.442781350040168
1448 -0.8916539748812996 3.810773405509133 5.329244452885213
1425 7.141556155195332 -1.0658790593413616 -3.2785750368100155
2 5.157676191585591 -1.1398852024312822 -0.3226973489418785
426 2.9682596489730284 -2.4515758997617554 3.606374085036833
889 -2.995235669790557 1.5031332303316889 -0.9661130710706006
94 1.2374778013147083 -9.736904270776698 -0.3568859232985091
151 7.213041690189546 -2.5091352668150138 -2.525620631595817
201 3.2186576021935402 2.3264274154289613 5.841271540307776
797 0.20296023788023337 2.3946331567588133 -3.438640827246299
1797 2.1381411961324304 0.6049442213290348 -3.963775545105764
183 -0.659653682820821 -2.79028856177912 2.145227463672817
1600 -2.4625955188773214 -2.7504829534774635 0.8543953116534114
68 -10.514559359856332 1.3408277535793733 1.5435627602985131
492 -2.8479894874855036 3.162852138768645 0.6876864873071499
305 -2.7027128825893905 3.571979303531673 0.4957416218788397
1446 0.7456914618447993 5.272336549447887 1.4684333946833843
43 3.0516450559725463 -4.618062938873286 -5.30271872239435
484 2.3106846037473607 -2.048959839970042 -2.4066587789123686
1502 1.2352758755316777 4.48396915676697 2.8551313687129074
106 -0.5721933112380156 -0.8062059693222848 -7.1870178586637
1321 7.386299459080427 -1.7009172573720828 -2.26768826519669
1813 -0.8637620035901185 -1.4449502484962051 -1.9386791758731547
1944 -1.5182858982898033 -0.7508597340371431 0.36321779555904155
924 3.1906709595187435 -3.861250007530047 2.0363993708041765
1491 -2.5675001029439013 -2.8901541356809615 5.891174130631922
1006 3.5448711273922435 -0.3832584175688144 0.7270071950704048
744 -2.1055957487303765 1.777987557339721 -5.039601343886254
1910 0.324222379004104 -3.8610712386915513 -1.0799137338417022
50 1.6078860729624425 0.6706363013970283 -0.772338679771502
1851 -1.0903617557743353 2.768157412968937 -7.427471334206163
1937 -1.369790000839839 -1.1079349895491313 7.700255089350327
1522 0.05953286816891271 -1.7343021955179458 -0.3859173178375759
1685 0.2139675104347303 -2.524788827837862 -6.326471329578665
333 -5.8857825014728515 -4.256942054263938 -0.5401188195497106
31 -2.060297157101639 -4.021316574335077 6.025046519664283
1348 -1.0047173174565378 3.526549274806563 -2.693699522056666
1487 4.076475005117665 0.7423490154565641 -7.783165278325739
1445 1.750235602117518 -1.886689109117074 1.3499602176539955
1925 -3.4683153927794286 -1.5936907534636002 4.866616125093759
196 -1.186284193343224 2.5834425555319274 3.626996969534318
510 2.310846066417362 2.219359515440167 -7.683067767017076
1472 0.1966242343466112 2.1687266177166884 -8.810757314039568
1634 -1.6581729613011145 2.1858438885024394 4.706683819632972
1915 0.4548105651221429 1.043299234080787 3.9862336339257958
1818 -7.820613526266019 4.6346175991407605 -6.5834370545218635
284 -5.92708895125852 -1.6982446703666623 -5.397551250155875
1013 3.8982634224768713 -2.833667923564276 -2.166385296191142
974 -0.2970672573786776 1.546654822121019 2.651015924092689
1980 -2.3863649652145504 -5.19330558738772 -0.504875767083705
1015 2.2308791615879806 -7.983474732208436 1.8069223634770282
1640 -2.6022214605686607 1.2801507225441755 1.4623436920679065
1723 -0.763545339471746 -0.9213243009351293 -0.07861615704331634
1870 2.5205117314430874 -2.773016507344909 2.449287656516268
99 -5.427039204559535 2.5201690799995338 -4.9261693798780675
501 5.159284848748315 4.337944863576726 2.9716818362363715
1557 -4.338604189613557 1.7072147561492022 2.043098758174943
1588 2.758763247994966 -1.7216839448882024 -4.301267263770561
563 0.7096083722274331 -3.6144276953582914 -5.884305982848969
608 -6.171111936348342 0.6938472009635114 -1.4974767224642302
772 1.1815740820149105 1.4891835179954327 -3.914159653103733
1781 -1.9599859397350137 -7.1035242084301 -3.3855624730111216
1485 -5.212590418053061 -2.970980244285688 -0.49327283820273027
1045 -0.2957041538884609 -4.755608454293237 -0.8236734251693301
1184 -3.2904142564541368 -0.2655697373892192 -4.822521270227234
1988 6.725900736622151 -7.100406962493292 0.4451271634627113
1895 3.963259771400744 -5.314129655826715 0.15797270353237705
2031 5.56641489995388 1.696252451880721 -0.7361982199583247
44 -3.3201373134987433 2.023114635767337 3.0115750167734894
1044 -1.3932079346037212 2.078553039205002 0.6157236041860551
1036 1.4164327820381206 0.3102030180658621 0.08568434669130323
25 -0.5745006004408266 -2.092717066578935 -0.6855727590971522
1750 6.057783737568927 3.1311943925528047 0.9369374260666444
1032 -1.8399209541199222 -0.46718900833505744 3.795122613742674
1129 3.954992579485945 -2.600103179106515 0.5534378569273187
168 0.4714726284305329 -3.017602575886848 -8.490615025994629
732 0.28848847075368955 -1.071001281951548 2.6187769100581164
1660 0.09088458734826245 0.7219043816920521 -0.6549222045425042
1583 -4.616442575256998 3.3620483360196514 4.458741490469131
1738 2.096982941129907 -3.439754370784934 -1.9512369989129443
1581 -6.246353229487845 2.20717731594344 1.5505602244386643
1096 -0.6965724290837111 -4.118740088122559 -0.059272917948739276
1901 -3.604419608776687 7.598298370716973 1.9515068434991631
868 1.3445783878056197 -0.8577422311562926 2.945948882274803
1382 -2.2679586036560155 -2.796472241988537 -3.0885728006616273
1874 -1.448338857748571 0.9540725678215312 2.9988718398111396
1181 0.1065070446887076 -5.744896185829 -3.8033222224179553
513 2.9966318740274818 -7.175850433861281 -5.661121614725024
1614 -5.908866088432933 -0.8919814403423987 -2.536370748151921
1298 1.5037154865221654 1.8407005649708004 -2.9523037593349537
1066 -7.95753967361392 -1.858306770685851 3.9681130732345546
946 3.1217191503761246 0.6007571319386513 3.1419688026187145
87 -0.9650535179572668 -2.360084434135594 3.58948336204545
1507 3.565073611004814 1.7983213944013534 -9.12901788252361
1900 -5.075674733987301 -2.2985724397777365 -0.2212798785440708
1438 1.2298077958413363 3.6584113994227563 4.626152463103292
740 -3.1504765403884205 -0.48787829822294665 -3.162989145152443
1593 -1.1665794955119586 -2.914462087971874 0.6816511152184063
137 0.8440138163591023 3.048452199999696 0.8431610409768069
854 -2.517402216899236 2.289442981758739 -7.934028110946949
1801 6.87436795967708 -4.340672899107764 -6.459562049576407
1857 -6.324720806366911 -3.8660151020080726 -2.7870114886661925
1639 0.7479727863829709 0.8009073122929303 0.10290033404230899
1563 -0.23802807948627683 -0.40974745663612205 -2.8194593579270677
1560 1.9363527579041182 -4.369893890659161 -11.479476990784661
1517 -0.3697678299634002 2.2264787831761566 -5.003217652020387
1335 -1.5600159011816555 2.718631771743403 -0.40455325053473795
197 -3.2878204675211338 -1.2787125291815484 2.467488234868659
1303 -2.0386553739936772 -0.2666415089827322 6.137202870688465
1069 0.5022202997215817 -1.2344745201485325 -0.21701838231802387
1776 2.304318421825761 -2.5847454973799864 3.6642568440515313
689 -6.98747543158004 -0.9889307812438649 -0.46212000899929184
1993 -0.5768407439046326 -2.0674178308715505 -1.5970378569171044
979 -0.8492962168128989 4.030153879379506 -3.4975108812178477
254 0.30647775239102854 -0.845765961657619 1.7908399560782993
366 4.4250899137644915 2.015244913920316 2.8780020466187337
543 2.041683140192176 1.6574534064299602 -4.346983702165518
297 -1.7685429097632617 2.157121635949642 3.466442417520195
1327 1.521678431005573 7.854626213973361 -2.534831704084297
2123 0.7780563668901802 -2.0309351621229212 -1.4195921661318536
455 -3.048916626818066 -2.2481612566534457 7.470362115534546
32 6.666303299850821 -5.142062057838816 -0.9012696157376502
1513 -2.9085216841041133 -2.2179980959407866 5.343692514604474
246 9.103081462266877 3.021442869347021 -1.5390665154072534
1397 0.06250716008195531 3.4297482617179074 2.770522492614256
1195 -0.8768214254309411 -6.546912615712572 -4.197362675765462
2112 -1.0136339983647122 -5.1532794798703305 2.336445389046638
303 0.17422718635671045 0.23129971519542752 -1.482197914015471
1469 3.9226499113897475 2.472584233538223 0.764880297850765
472 3.2980646246340153 0.07230677553090209 -1.9010752575777867
1890 0.14356534456982803 1.3829272656359257 4.327261438811775
224 -4.0497111056286315 -0.031124617385153246 -1.9188960672161093
38 0.4051200303833207 -1.4830382071750725 -0.5047515631206133
178 -6.27334238034135 -0.033766063121891676 -0.5172820745019977
991 2.3409395006281812 -2.559599609711546 0.013211757671276279
514 2.8882509692334293 2.4404184684610772 -1.9407528740012938
1306 1.3683244054271517 -0.7566501028144901 0.47603143379584323
2027 2.4007777006115787 -3.3635197416416256 2.739596359236892
1862 -1.3822968210082522 5.2576142988559615 0.09403845872660398
1570 7.8046101065143825 -0.5848531962235582 2.5091852535600534
422 -1.3967270570260863 2.920928428410643 0.5043823447705467
2118 4.727876764957495 0.9580509546807182 -1.7137916237289315
1281 -0.22671033684017403 -1.0805117676787992 -3.125094817171728
1202 0.7101284874858105 -0.36720471919748815 -3.4844488512967047
704 -2.7887943684897563 0.3028304043983772 -2.9703145196644862
264 2.611204022241799 -3.4863169262366016 4.368705585903158
793 0.7158496082741433 -1.2752383662437519 -6.913502520623513
736 -4.458607829278221 5.150838021384866 0.16225979851842823
2132 -2.8667723982839792 -0.5862364991807927 7.577018993420736
409 -2.6598006551816136 -1.9457624666078863 -0.3302560504418212
1385 0.9849303626965719 -6.704958164201192 -9.071110300242646
1403 -1.6376255137643034 5.010265935156253 -0.8704469162286366
365 -3.572672896925044 -1.030668299199072 -7.661856052791271
1953 1.7711889251497681 -6.631790024820852 8.885579261438227
1527 2.0071313435726754 -2.633215711234207 -4.058748760906485
442 -1.432670783222181 -7.155778815905899 1.609146513548666
1452 5.283011123580103 5.967613836418155 -2.4429777642129826
879 1.5591029445701294 0.5768819317785886 3.979061218682726
1402 3.223493269113557 2.1378726073540064 0.5796922931050315
948 0.7509954583540401 -2.424933610994437 -2.919919348789171
1930 -7.192721845543146 -5.3592036819018585 7.5115268337877525
526 4.202790239491056 1.2450862981577697 9.008333573348624
1598 1.100573191682627 -2.2743822014689723 -2.359693940952868
127 4.946957309085126 2.9212543589847715 1.7278210961595657
2120 2.230371483194584 1.0456995476673503 2.3065367042311555
2149 -3.718468432735559 -1.1206355913250894 -0.4292905339645509
1268 -2.1303797909130546 5.914860669566942 7.5856181761259505
1844 -1.7120586263129927 2.031220465556597 2.6908379187347076
683 2.3978499374347964 -6.7348883935716755 -7.353920239205372
335 6.352459486736942 0.46969020914576204 -0.18165614611536313
411 2.2870014549980424 -2.478774448398397 -0.701170463240249
415 0.3937084503303682 -2.1640956804674447 -2.86442471798381
1964 5.689948681273717 -3.660795247095218 -2.5778447125793726
292 5.855507182454764 1.4937869575463514 5.910417848741019
1646 3.582275882617695 3.9683452683484988 -8.011970392854115
1889 -2.8481175695455363 5.315254127595883 2.411566427529668
2157 -5.813723970725468 5.164729055122969 0.12455913492144285
1573 2.8131471019424232 -2.445346119908123 3.0490186632031255
473 -6.585743561374992 -8.121419188861934 -1.8379413439530032
1115 2.096249978121715 1.5414928725970936 -1.6276415225703738
147 -1.3159049865462988 -2.4312823024991204 5.20722642959459
1365 0.509317322391361 -3.2971035726357343 1.6844988518666428
15 1.1076471318508967 0.8970072043579532 -4.49972306166831
1712 -11.917003022071386 -9.434061409099288 -0.45619983753106913
1077 -4.4589321820549195 -1.6179158661351618 6.2434039289396575
826 4.112602707070921 -2.5685544129878735 1.790759087723616
1982 2.943110214947126 2.1052518472339585 1.6865418398027534
353 0.5274566867280928 5.297192164751715 -2.015886111113512
936 1.730998719959916 -1.0363087098862414 -1.9682786878314211
1656 -2.9220261992782035 -0.26286698403605135 -3.5023855050701163
1954 -7.211850786384887 -1.4633073339276434 -3.021451317733895
1021 -3.1989643999245567 3.1655896656121714 -0.22165606018289016
1702 10.470398973339757 -3.2792160661088703 0.6747493901470691
703 -4.113953143218422 -2.2209871794875204 -0.372996600895505
1024 7.51341087286161 -2.4321535347458174 2.7996051384230385
630 -3.1861989613049957 0.3467400818135637 -0.7889631661000919
894 1.4563738394904773 -5.780040918365693 -7.64218875105594
1328 -4.312813774217024 2.9108338392643263 0.7621644037981491
1921 -0.1388612533086444 -1.0660478821696138 -1.380456605044868
1999 -1.3262629107536659 2.952116491242821 -0.7038930021336322
1167 1.4948757371980053 -7.211439169579138 4.84356124287527
1606 0.42986932039454334 -0.4159266787930817 -3.883678705124753
820 0.4300046362628962 -1.2532113894928887 3.540169318235149
564 -6.571211866012855 -1.4402141174319993 -1.5322301971455483
481 -1.7004378496429098 -7.802632478989158 -0.21823902338818277
101 -6.889614332709043 -2.872146567704434 3.8177445203409164
1981 -1.1908937287005708 -2.746515509647466 2.5471197766662996
1326 1.9817234784774969 -5.698603040661052 1.8748646827873332
425 0.13261960361667904 7.887349359764163 6.2095703964116815
480 -7.060835788239393 3.3836892800032303 -1.32023966489009
1475 -2.4344523796877255 -4.885066788940895 -3.2267957646794674
1826 2.938182625114358 4.006815765330962 3.6672734010915313
1864 0.8527537167578855 0.23274681435388425 -0.6616926436655226
1878 -6.924252369228504 2.3738066901809782 -2.553956130610924
1681 3.790606068558523 4.281855636076823 -4.844700802764027
46 -3.0703166562194455 1.5595973830776046 -6.24867357514153
1854 5.169033136901737 -0.93642186149097 -0.08627145030703735
666 -2.512889402241384 2.018019041839529 4.315933511710497
1602 0.14595026325160196 -3.409879442839092 3.4173982344726532
286 1.3431774400985474 2.7184519211276617 4.225299614327518
399 -3.6594900561370487 -3.1493609900266875 0.4049333481787488
1330 -1.3664952697752122 -6.1839592241073635 5.491146071785488
241 -0.5548330632319733 -0.5732894400792209 2.446648020842301
1815 2.4312589453425972 3.3544396297450803 -3.2079522409564465
89 -1.8418553415191055 6.087090856806095 -2.3564081316982173
845 -3.070239525722669 2.5082318689251357 4.08055267072632
1084 0.6833114183447847 1.1271806809407419 0.23300603795858912
1692 -0.6419866593290902 -1.5417867433328767 3.6471950858525948
1540 1.062150115756567 0.4480484465093785 -2.4248912076851474
1848 0.9721935718677128 -3.303364862187357 2.9305982092660323
1384 -4.004456573856509 1.8417072290562095 -0.898213727519172
1386 -0.11560971255059023 -0.058724189792560236 3.3527434665382136
1079 -5.867308992209059 -1.6937558474216987 1.9862543124532723
27 -0.9883204737983214 3.9441712007343996 -1.2344920130621335
199 -5.850134701431464 7.0530228418060945 -2.287926889517381
1424 -5.3757671743275575 3.128952168068643 -3.795220379816135
377 -2.5613510760357188 -7.995192485009821 0.3796106715586146
721 -0.5860731672123428 -0.31230817668327554 2.112576596667869
2148 4.723568143701617 -1.6738768559537756 6.689157020535015
861 2.0981663574425005 -0.2823532542259722 -0.8322111330508783
1643 -1.3110841854120392 4.680647293297571 0.6697064990915776
218 1.0795551533961822 -0.875648827669523 -4.11608608096846
93 5.699952942367738 -2.3362550025166327 -1.3788440249967568
875 4.641797593020238 1.8977840620244864 3.670972111242672
302 4.625546505758255 -2.3970163927564156 -4.102021001703701
1245 -8.070140451822535 -1.2843745365922543 -8.909140519352414
1754 -1.753397974871445 -1.0640171483185095 6.543112813570629
908 1.8826140075358386 3.8135418048757947 5.85876954378343
983 3.9264871931241903 6.082003685944447 1.2001594560462048
1902 1.3116221959214176 -4.3160754544070645 -0.805988344951975
2038 1.491931168726572 0.13515299419506374 -7.2847356240302785
1169 6.728903066616863 -4.23393786706853 -1.8958581196729278
1905 1.0616769883785886 1.499461309437369 -2.58083839578445
1333 -0.8132423840055574 -0.9253963319811827 0.7663461683811817
642 3.455825750078596 5.306894380112839 1.9789943892236361
1010 1.211953511405579 -0.34285713617394287 -1.12959965004154
1968 8.355162420746836 2.81080773768604 1.1833710840878462
601 0.4359378757959899 -1.1956219965285828 0.9565591737609026
1752 1.068775983008919 -4.128631295880049 -4.5380827222466795
2015 4.303252760118652 -1.822711260009354 -2.6084774135962947
1779 -0.15206329845099137 1.5353620679567945 -3.279350106157599
71 -3.120931313809508 3.654331059343335 -0.07694549107092602
1883 -2.235487485103203 -0.021774584825370282 1.8057652766186003
1577 -1.2649716369473345 0.2022155508468932 2.3811463512182183
122 -3.5960693928849508 3.402113310068909 3.0627335310788153
1821 -3.9092220813610545 -0.8055594676200287 -2.236832766548482
2007 1.697735749733809 -3.2776491973466273 -2.502099011936742
1201 1.906536075976417 -3.6742767455538297 1.136791008568251
2050 0.3467944072362009 2.396340168990511 0.8783966516514997
72 0.8093460057090338 4.234138149558586 -8.976410194493106
2021 -2.621979157463551 1.1516199560238096 -0.4626327149580524
233 6.426697777751043 5.344819366140458 -4.495368945870592
1917 3.6250765893740726 -3.766284557218449 -1.5482846229612968
420 0.37426781194832276 2.356174975433497 0.1111736984330507
1753 -4.295643846550581 -3.041195022756012 0.3179870029855049
2047 -1.5324708545360526 -2.3195138444084957 0.8863164591041541
309 3.9058316280772614 -3.7745477441726734 -0.9760868273821284
1419 2.4267036671916404 4.069203142042554 0.42401907388832133
172 -0.018503130701980907 4.051457282590741 3.1859174382839925
1087 1.3080219269304407 0.25139271406527214 1.7550221860745097
372 3.8507486501751997 -4.8470145150946635 3.564009463369024
2146 2.4093171767908714 -5.380282563337187 5.440288339130138
115 -3.77214837309453 -1.9393855861877303 -2.56841578724903
711 -0.7227580287300847 4.308512392526817 2.193207505490325
440 -0.7066501159568919 2.7856907583137382 2.202775653666338
610 2.496173741535742 -1.704303459273698 0.03653050489257599
1855 1.5674332711927346 -1.8896445359187861 -7.853742313077493
1741 4.11952366908337 2.3602532503743063 3.208142604560318
1586 -1.9348378256620677 1.377026637428656 3.3044411566147525
1086 -2.1931021281232113 7.949356201346507 2.424677201260963
1255 0.6830075657754503 4.118667088404819 3.563629036489298
547 -5.817562175806416 1.7399389875058933 -2.2934493373375555
1945 -6.61067515794406 3.685647072147631 -2.595856758150793
1620 -7.903754961752714 -0.46621248668403914 -0.29394693083541784
2064 -1.2657018990604316 5.474352107812291 -1.0818841769051717
702 4.179682142439892 3.0977855943977777 -6.9326389323428455
1869 -0.7210852174667023 8.345291274669513 4.300628203728495
751 -0.9243547553443235 2.686813324901836 -5.804283938324767
1822 -9.728624688419032 1.6142204774210147 -0.103631074467105
39 4.636919668667699 -0.32191950746516007 1.5934874393708696
947 2.713302553569654 -5.212751276948428 0.131427163280573
842 0.17863259388774042 3.31696582564433 -1.050814580004267
1997 -3.5880574313460434 -1.3279916729324555 -3.6480735192811835
1674 3.3992452431531954 1.3048671386106172 10.156234952198123
1194 -2.3030730351065025 -5.5414753993832875 0.765555617520799
1957 -2.9755055913800685 0.4955670353943204 0.9763785433654907
1904 -2.851960614769835 0.8121058930059128 -2.667965790434787
1747 -10.554734797553854 6.100652223665224 2.422845370396865
1814 -2.034162960491886 -2.0824272026053454 -2.19079319407089
1145 1.1033649007532713 2.9272973815601446 -1.700244407405609
2110 -0.46044031221479087 -2.363164747475618 2.1462393957032946
320 -4.093434220711193 -1.5104882215558615 -4.041075769222958
1528 -5.146460898607834 -2.789966688903259 -0.9481273125836708
495 1.6011228616284119 -1.1606596454523377 -5.217386612575592
2060 1.5759666629174685 2.12123331071802 -4.293961773648735
354 -0.697510603409437 3.0194047968673723 4.406608260812859
1909 6.136442519820752 5.983205756837882 -1.7851526215989135
2074 5.712121339946256 -0.5061504666460258 0.5096322518032681
810 2.5795513159457975 8.934893183987935 1.0952308965983562
1283 4.511066251776215 -2.54651816388008 3.5662024801382675
408 3.2681651889377097 -5.252487952887154 0.6024009441921586
1683 2.0745355265200973 2.171873294034596 5.898472940792378
2119 -0.9796970825348507 -0.46026109936918425 -1.7873796653097216
258 -5.196698589939881 3.512809921161128 4.6114801058797745
2143 -1.5885271727567247 -8.056815223609572 1.1949039882261052
1336 -3.0449542153844456 6.046050230696187 -0.9139686422647867
1853 0.5876321780556115 -2.2725560221109578 0.1420313736534206
220 -0.3363893400552492 -1.957712560328353 -0.8162379106938833
796 -2.5261161985134373 0.9363029755879139 4.301278261720341
1810 -0.9427041602628297 -8.094145271721079 -6.012228403586222
2084 4.929118843852836 -0.9445710846554696 -2.9063287372276894
2056 -0.8833963156298275 -3.268318260136059 -1.2253718215905975
1605 0.8061878323626227 -6.190462172386225 1.9703494320276334
1466 2.3704547276854537 4.761049810429928 0.8301123012405379
35 2.766248717394362 4.927676070560859 2.165443933869682
1211 -1.0952141892355256 -0.47865223421479064 -4.553564635337684
1002 -3.074289236561868 4.229573693223385 -3.2085575661749846
41 2.1949710179379758 0.5165778150298742 2.9274862586704513
1016 -3.754861612345842 0.3060608812268346 1.9930354903149619
1418 -0.13214242742811455 -5.063195844797321 4.723156830060314
1860 -5.132532686721107 -1.0817381194690572 -2.902615819102078
662 -0.9473418586606114 -6.739915930055175 -1.302970743903156
534 5.521758615689452 1.0559451282624222 -0.2612219173494419
1920 0.6075093888340588 -0.17306579658276994 -2.7405783502532977
851 3.7283623099579764 1.2300747777226804 3.189496017071376
1072 -0.6258646311163822 -0.7845300204786294 -2.075185378752152
1428 2.935773691167321 -0.04121362164932147 -0.780717685620052
2150 3.186079958486542 2.912175760943948 0.4312837066358169
1171 -6.472800039697024 -2.532884776725391 6.66849012244658
110 3.941983400683778 0.7660247730102328 -6.196844113189787
1908 -0.3377594648147669 4.1916149279788115 -6.629301492023178
85 2.729954213354108 1.7925307588851425 -1.9604272909896907
677 8.902910322428086 2.6988503019223775 -3.565992716457054
768 -1.1074349440733724 -8.102542200011879 3.0576349447053226
1214 -4.573181535042659 -3.3030379219103647 -0.08490785187393056
332 1.0258675393480599 1.3407118497880124 2.2030772361308575
423 2.543052570639524 -6.586331085066788 0.9804119054640231
128 6.259344283886446 4.891434129988016 2.7449991515076495
360 -1.6934518667268472 1.1606194585832386 1.3733381156596554
